2304

C 	0.0	0.0	0.0
C 	1.2297560733739028	0.7099999999999999	0.0
C 	2.4595121467478056	-2.3647750424515833e-16	0.0
C 	3.689268220121708	0.7099999999999995	0.0
C 	4.919024293495611	-4.729550084903167e-16	0.0
C 	6.148780366869514	0.7099999999999993	0.0
C 	7.378536440243416	-7.09432512735475e-16	0.0
C 	8.60829251361732	0.7099999999999991	0.0
C 	9.838048586991222	-9.459100169806333e-16	0.0
C 	11.067804660365125	0.7099999999999989	0.0
C 	12.297560733739026	-1.1823875212257916e-15	0.0
C 	13.527316807112928	0.7099999999999986	0.0
C 	14.757072880486833	-1.41886502547095e-15	0.0
C 	15.986828953860735	0.7099999999999984	0.0
C 	17.21658502723464	-7.671641100159832e-16	0.0
C 	18.44634110060854	0.7099999999999982	0.0
C 	19.676097173982445	-1.8918200339612667e-15	0.0
C 	20.905853247356347	0.7099999999999989	0.0
C 	22.135609320730246	-2.128297538206425e-15	0.0
C 	23.36536539410415	0.7099999999999967	0.0
C 	24.59512146747805	-2.364775042451583e-15	0.0
C 	25.824877540851954	0.7099999999999983	0.0
C 	27.05463361422586	-8.248957072964913e-16	0.0
C 	28.284389687599763	0.7099999999999999	0.0
C 	29.514145760973665	-2.8377300509419e-15	0.0
C 	30.743901834347565	0.7099999999999961	0.0
C 	31.97365790772147	-3.0742075551870582e-15	0.0
C 	33.20341398109537	0.7099999999999976	0.0
C 	34.43317005446928	-1.5343282200319664e-15	0.0
C 	35.66292612784318	0.7099999999999992	0.0
C 	36.892682201217085	-1.7708057242771246e-15	0.0
C 	38.122438274590984	0.7099999999999972	0.0
C 	39.35219434796489	-3.783640067922533e-15	0.0
C 	40.58195042133879	0.7099999999999969	0.0
C 	41.811706494712695	-4.67403893367191e-16	0.0
C 	43.0414625680866	0.7100000000000002	0.0
C 	44.27121864146049	-4.25659507641285e-15	0.0
C 	45.5009747148344	0.7099999999999964	0.0
C 	46.730730788208305	-9.403589018575075e-16	0.0
C 	47.96048686158221	0.7099999999999997	0.0
C 	49.1902429349561	-4.729550084903166e-15	0.0
C 	50.41999900833001	0.709999999999996	0.0
C 	51.64975508170391	-1.413313910347824e-15	0.0
C 	52.879511155077815	0.7099999999999993	0.0
C 	54.10926722845172	-1.6497914145929826e-15	0.0
C 	55.33902330182562	0.7099999999999991	0.0
C 	56.56877937519952	-5.438982597638641e-15	0.0
C 	57.798535448573425	0.7099999999999953	0.0
C 	59.02829152194733	-5.6754601018838e-15	0.0
C 	60.25804759532124	0.709999999999995	0.0
C 	1.2297560733739028	2.1299999999999994	0.0
C 	2.4595121467478056	2.8399999999999994	0.0
C 	3.689268220121708	2.1299999999999994	0.0
C 	4.919024293495611	2.8399999999999994	0.0
C 	6.148780366869514	2.129999999999999	0.0
C 	7.378536440243416	2.839999999999999	0.0
C 	8.60829251361732	2.1299999999999986	0.0
C 	9.838048586991222	2.8399999999999985	0.0
C 	11.067804660365123	2.129999999999998	0.0
C 	12.297560733739028	2.839999999999999	0.0
C 	13.527316807112928	2.1299999999999977	0.0
C 	14.757072880486833	2.839999999999998	0.0
C 	15.986828953860735	2.129999999999998	0.0
C 	17.216585027234636	2.839999999999997	0.0
C 	18.446341100608542	2.129999999999998	0.0
C 	19.676097173982445	2.8399999999999985	0.0
C 	20.905853247356344	2.1299999999999977	0.0
C 	22.13560932073025	2.8399999999999985	0.0
C 	23.36536539410415	2.129999999999997	0.0
C 	24.595121467478055	2.839999999999997	0.0
C 	25.824877540851954	2.1299999999999963	0.0
C 	27.05463361422586	2.839999999999997	0.0
C 	28.284389687599763	2.129999999999998	0.0
C 	29.514145760973665	2.8399999999999985	0.0
C 	30.743901834347568	2.129999999999996	0.0
C 	31.97365790772147	2.8399999999999967	0.0
C 	33.20341398109537	2.129999999999996	0.0
C 	34.43317005446928	2.8399999999999963	0.0
C 	35.66292612784318	2.1299999999999972	0.0
C 	36.89268220121708	2.8399999999999963	0.0
C 	38.122438274590984	2.129999999999997	0.0
C 	39.35219434796489	2.8399999999999976	0.0
C 	40.58195042133879	2.1299999999999986	0.0
C 	41.81170649471269	2.839999999999996	0.0
C 	43.0414625680866	2.129999999999998	0.0
C 	44.2712186414605	2.8399999999999954	0.0
C 	45.5009747148344	2.129999999999998	0.0
C 	46.7307307882083	2.8399999999999954	0.0
C 	47.96048686158221	2.1299999999999977	0.0
C 	49.19024293495611	2.839999999999995	0.0
C 	50.41999900833001	2.1299999999999977	0.0
C 	51.64975508170391	2.8399999999999945	0.0
C 	52.879511155077815	2.1299999999999972	0.0
C 	54.10926722845171	2.8399999999999945	0.0
C 	55.33902330182563	2.130000000000001	0.0
C 	56.56877937519952	2.8399999999999976	0.0
C 	57.798535448573425	2.129999999999997	0.0
C 	59.028291521947324	2.839999999999994	0.0
C 	60.25804759532124	2.129999999999997	0.0
C 	61.487803668695136	2.8399999999999936	0.0
C 	2.4595121467478056	4.259999999999999	0.0
C 	3.689268220121708	4.969999999999999	0.0
C 	4.919024293495611	4.259999999999999	0.0
C 	6.148780366869514	4.969999999999999	0.0
C 	7.378536440243416	4.259999999999999	0.0
C 	8.60829251361732	4.969999999999999	0.0
C 	9.83804858699122	4.259999999999998	0.0
C 	11.067804660365125	4.969999999999999	0.0
C 	12.297560733739028	4.259999999999998	0.0
C 	13.52731680711293	4.969999999999998	0.0
C 	14.757072880486831	4.259999999999998	0.0
C 	15.986828953860735	4.969999999999998	0.0
C 	17.21658502723464	4.259999999999997	0.0
C 	18.446341100608542	4.969999999999998	0.0
C 	19.676097173982445	4.259999999999999	0.0
C 	20.905853247356347	4.969999999999997	0.0
C 	22.135609320730246	4.259999999999996	0.0
C 	23.365365394104153	4.969999999999997	0.0
C 	24.595121467478055	4.259999999999998	0.0
C 	25.824877540851958	4.969999999999997	0.0
C 	27.054633614225857	4.259999999999995	0.0
C 	28.28438968759976	4.969999999999996	0.0
C 	29.514145760973665	4.259999999999997	0.0
C 	30.743901834347568	4.969999999999997	0.0
C 	31.97365790772147	4.259999999999996	0.0
C 	33.20341398109537	4.969999999999995	0.0
C 	34.43317005446927	4.2599999999999945	0.0
C 	35.66292612784318	4.969999999999995	0.0
C 	36.892682201217085	4.259999999999996	0.0
C 	38.122438274590984	4.969999999999997	0.0
C 	39.35219434796489	4.259999999999997	0.0
C 	40.58195042133879	4.969999999999994	0.0
C 	41.81170649471269	4.259999999999995	0.0
C 	43.041462568086594	4.969999999999996	0.0
C 	44.2712186414605	4.259999999999997	0.0
C 	45.500974714834406	4.969999999999998	0.0
C 	46.7307307882083	4.259999999999994	0.0
C 	47.960486861582204	4.9699999999999935	0.0
C 	49.19024293495611	4.259999999999996	0.0
C 	50.41999900833001	4.969999999999997	0.0
C 	51.64975508170391	4.259999999999993	0.0
C 	52.879511155077815	4.9699999999999935	0.0
C 	54.10926722845171	4.259999999999996	0.0
C 	55.33902330182562	4.969999999999997	0.0
C 	56.568779375199526	4.259999999999996	0.0
C 	57.798535448573425	4.969999999999996	0.0
C 	59.028291521947324	4.259999999999995	0.0
C 	60.25804759532123	4.969999999999996	0.0
C 	61.487803668695136	4.259999999999992	0.0
C 	62.717559742069035	4.969999999999993	0.0
C 	3.6892682201217086	6.389999999999999	0.0
C 	4.919024293495611	7.099999999999999	0.0
C 	6.148780366869514	6.389999999999999	0.0
C 	7.378536440243416	7.099999999999999	0.0
C 	8.608292513617318	6.389999999999998	0.0
C 	9.838048586991222	7.099999999999999	0.0
C 	11.067804660365125	6.389999999999998	0.0
C 	12.297560733739028	7.099999999999998	0.0
C 	13.52731680711293	6.389999999999999	0.0
C 	14.757072880486833	7.099999999999998	0.0
C 	15.986828953860735	6.389999999999998	0.0
C 	17.216585027234636	7.099999999999997	0.0
C 	18.44634110060854	6.389999999999997	0.0
C 	19.676097173982445	7.099999999999998	0.0
C 	20.905853247356347	6.389999999999998	0.0
C 	22.13560932073025	7.099999999999997	0.0
C 	23.365365394104153	6.389999999999998	0.0
C 	24.59512146747805	7.099999999999997	0.0
C 	25.824877540851958	6.389999999999998	0.0
C 	27.054633614225857	7.099999999999997	0.0
C 	28.28438968759976	6.389999999999999	0.0
C 	29.514145760973662	7.099999999999997	0.0
C 	30.743901834347568	6.389999999999999	0.0
C 	31.97365790772147	7.099999999999998	0.0
C 	33.20341398109537	6.389999999999995	0.0
C 	34.43317005446928	7.099999999999994	0.0
C 	35.66292612784318	6.389999999999995	0.0
C 	36.892682201217085	7.099999999999996	0.0
C 	38.122438274590984	6.389999999999996	0.0
C 	39.35219434796489	7.099999999999997	0.0
C 	40.58195042133879	6.389999999999994	0.0
C 	41.811706494712695	7.099999999999995	0.0
C 	43.041462568086594	6.389999999999996	0.0
C 	44.2712186414605	7.099999999999997	0.0
C 	45.500974714834406	6.389999999999998	0.0
C 	46.730730788208305	7.099999999999998	0.0
C 	47.960486861582204	6.389999999999995	0.0
C 	49.19024293495611	7.099999999999996	0.0
C 	50.41999900833001	6.389999999999995	0.0
C 	51.649755081703915	7.099999999999996	0.0
C 	52.879511155077815	6.389999999999995	0.0
C 	54.10926722845172	7.099999999999996	0.0
C 	55.33902330182562	6.389999999999995	0.0
C 	56.568779375199526	7.099999999999995	0.0
C 	57.79853544857343	6.389999999999998	0.0
C 	59.02829152194733	7.099999999999999	0.0
C 	60.25804759532123	6.389999999999994	0.0
C 	61.487803668695136	7.099999999999995	0.0
C 	62.71755974206904	6.389999999999994	0.0
C 	63.94731581544294	7.099999999999995	0.0
C 	4.919024293495611	8.519999999999998	0.0
C 	6.148780366869514	9.229999999999999	0.0
C 	7.378536440243416	8.519999999999998	0.0
C 	8.60829251361732	9.229999999999999	0.0
C 	9.838048586991222	8.519999999999998	0.0
C 	11.067804660365125	9.229999999999999	0.0
C 	12.297560733739028	8.519999999999998	0.0
C 	13.52731680711293	9.229999999999997	0.0
C 	14.757072880486833	8.519999999999998	0.0
C 	15.986828953860737	9.229999999999999	0.0
C 	17.216585027234636	8.519999999999998	0.0
C 	18.44634110060854	9.229999999999997	0.0
C 	19.67609717398244	8.519999999999996	0.0
C 	20.905853247356347	9.229999999999997	0.0
C 	22.13560932073025	8.519999999999998	0.0
C 	23.365365394104153	9.229999999999999	0.0
C 	24.595121467478055	8.519999999999996	0.0
C 	25.824877540851954	9.229999999999995	0.0
C 	27.05463361422586	8.519999999999996	0.0
C 	28.284389687599763	9.229999999999997	0.0
C 	29.514145760973662	8.519999999999996	0.0
C 	30.743901834347565	9.229999999999995	0.0
C 	31.97365790772147	8.52	0.0
C 	33.20341398109537	9.229999999999997	0.0
C 	34.43317005446928	8.519999999999994	0.0
C 	35.66292612784318	9.229999999999995	0.0
C 	36.89268220121708	8.519999999999992	0.0
C 	38.122438274590984	9.229999999999993	0.0
C 	39.35219434796489	8.519999999999998	0.0
C 	40.58195042133879	9.229999999999995	0.0
C 	41.811706494712695	8.519999999999994	0.0
C 	43.0414625680866	9.229999999999995	0.0
C 	44.27121864146049	8.519999999999992	0.0
C 	45.5009747148344	9.229999999999993	0.0
C 	46.730730788208305	8.519999999999998	0.0
C 	47.960486861582204	9.229999999999995	0.0
C 	49.19024293495611	8.519999999999996	0.0
C 	50.41999900833001	9.229999999999993	0.0
C 	51.64975508170391	8.519999999999994	0.0
C 	52.879511155077815	9.229999999999995	0.0
C 	54.10926722845171	8.51999999999999	0.0
C 	55.33902330182562	9.229999999999992	0.0
C 	56.568779375199526	8.519999999999998	0.0
C 	57.798535448573425	9.229999999999995	0.0
C 	59.02829152194733	8.519999999999994	0.0
C 	60.25804759532123	9.229999999999993	0.0
C 	61.48780366869513	8.519999999999992	0.0
C 	62.717559742069035	9.229999999999993	0.0
C 	63.94731581544294	8.519999999999992	0.0
C 	65.17707188881684	9.22999999999999	0.0
C 	6.148780366869514	10.649999999999997	0.0
C 	7.378536440243416	11.359999999999998	0.0
C 	8.608292513617318	10.649999999999997	0.0
C 	9.838048586991222	11.359999999999998	0.0
C 	11.067804660365125	10.649999999999997	0.0
C 	12.297560733739028	11.359999999999996	0.0
C 	13.52731680711293	10.649999999999997	0.0
C 	14.757072880486831	11.359999999999996	0.0
C 	15.986828953860735	10.649999999999997	0.0
C 	17.216585027234636	11.359999999999996	0.0
C 	18.44634110060854	10.649999999999997	0.0
C 	19.676097173982445	11.359999999999998	0.0
C 	20.905853247356347	10.649999999999997	0.0
C 	22.13560932073025	11.359999999999996	0.0
C 	23.365365394104153	10.649999999999997	0.0
C 	24.595121467478055	11.359999999999996	0.0
C 	25.824877540851958	10.649999999999997	0.0
C 	27.05463361422586	11.359999999999996	0.0
C 	28.284389687599763	10.649999999999995	0.0
C 	29.514145760973662	11.359999999999994	0.0
C 	30.743901834347565	10.649999999999995	0.0
C 	31.97365790772147	11.359999999999996	0.0
C 	33.20341398109537	10.649999999999997	0.0
C 	34.43317005446928	11.359999999999998	0.0
C 	35.66292612784318	10.649999999999991	0.0
C 	36.89268220121708	11.359999999999992	0.0
C 	38.122438274590984	10.649999999999993	0.0
C 	39.35219434796489	11.359999999999994	0.0
C 	40.58195042133879	10.649999999999993	0.0
C 	41.811706494712695	11.359999999999994	0.0
C 	43.041462568086594	10.649999999999991	0.0
C 	44.2712186414605	11.359999999999992	0.0
C 	45.5009747148344	10.649999999999993	0.0
C 	46.730730788208305	11.359999999999994	0.0
C 	47.960486861582204	10.649999999999995	0.0
C 	49.19024293495611	11.359999999999996	0.0
C 	50.41999900833001	10.649999999999993	0.0
C 	51.649755081703915	11.359999999999994	0.0
C 	52.879511155077815	10.649999999999995	0.0
C 	54.10926722845172	11.359999999999996	0.0
C 	55.33902330182562	10.649999999999993	0.0
C 	56.568779375199526	11.359999999999994	0.0
C 	57.798535448573425	10.649999999999993	0.0
C 	59.02829152194733	11.359999999999992	0.0
C 	60.25804759532124	10.649999999999995	0.0
C 	61.487803668695136	11.359999999999996	0.0
C 	62.717559742069035	10.649999999999991	0.0
C 	63.94731581544294	11.359999999999992	0.0
C 	65.17707188881684	10.649999999999991	0.0
C 	66.40682796219075	11.359999999999992	0.0
C 	7.378536440243417	12.779999999999998	0.0
C 	8.60829251361732	13.489999999999998	0.0
C 	9.838048586991222	12.78	0.0
C 	11.067804660365125	13.489999999999997	0.0
C 	12.297560733739028	12.779999999999998	0.0
C 	13.527316807112932	13.489999999999998	0.0
C 	14.757072880486833	12.779999999999998	0.0
C 	15.986828953860737	13.489999999999997	0.0
C 	17.216585027234636	12.779999999999996	0.0
C 	18.446341100608542	13.489999999999997	0.0
C 	19.676097173982445	12.779999999999998	0.0
C 	20.905853247356347	13.489999999999997	0.0
C 	22.13560932073025	12.779999999999996	0.0
C 	23.36536539410415	13.489999999999995	0.0
C 	24.595121467478055	12.779999999999996	0.0
C 	25.824877540851958	13.489999999999997	0.0
C 	27.05463361422586	12.779999999999998	0.0
C 	28.284389687599763	13.489999999999997	0.0
C 	29.514145760973662	12.779999999999996	0.0
C 	30.743901834347568	13.489999999999997	0.0
C 	31.97365790772147	12.779999999999996	0.0
C 	33.20341398109537	13.489999999999997	0.0
C 	34.43317005446928	12.779999999999998	0.0
C 	35.66292612784318	13.489999999999995	0.0
C 	36.89268220121708	12.779999999999994	0.0
C 	38.122438274590984	13.489999999999995	0.0
C 	39.35219434796489	12.779999999999996	0.0
C 	40.581950421338796	13.489999999999997	0.0
C 	41.811706494712695	12.779999999999996	0.0
C 	43.041462568086594	13.489999999999993	0.0
C 	44.2712186414605	12.779999999999994	0.0
C 	45.5009747148344	13.489999999999995	0.0
C 	46.730730788208305	12.779999999999996	0.0
C 	47.96048686158221	13.489999999999997	0.0
C 	49.19024293495611	12.779999999999998	0.0
C 	50.41999900833001	13.489999999999995	0.0
C 	51.649755081703915	12.779999999999996	0.0
C 	52.879511155077815	13.489999999999993	0.0
C 	54.10926722845172	12.779999999999998	0.0
C 	55.33902330182563	13.489999999999998	0.0
C 	56.56877937519952	12.779999999999998	0.0
C 	57.798535448573425	13.489999999999997	0.0
C 	59.02829152194733	12.779999999999994	0.0
C 	60.25804759532123	13.489999999999991	0.0
C 	61.487803668695136	12.779999999999998	0.0
C 	62.71755974206904	13.489999999999998	0.0
C 	63.94731581544294	12.779999999999994	0.0
C 	65.17707188881684	13.489999999999995	0.0
C 	66.40682796219075	12.77999999999999	0.0
C 	67.63658403556465	13.489999999999988	0.0
C 	8.60829251361732	14.909999999999998	0.0
C 	9.838048586991222	15.619999999999996	0.0
C 	11.067804660365125	14.909999999999997	0.0
C 	12.297560733739026	15.619999999999996	0.0
C 	13.527316807112934	14.909999999999998	0.0
C 	14.757072880486831	15.619999999999996	0.0
C 	15.986828953860737	14.909999999999998	0.0
C 	17.21658502723464	15.619999999999997	0.0
C 	18.446341100608542	14.909999999999997	0.0
C 	19.676097173982445	15.619999999999996	0.0
C 	20.905853247356347	14.909999999999997	0.0
C 	22.135609320730246	15.619999999999996	0.0
C 	23.365365394104153	14.909999999999995	0.0
C 	24.595121467478055	15.619999999999996	0.0
C 	25.824877540851958	14.909999999999997	0.0
C 	27.05463361422586	15.619999999999996	0.0
C 	28.284389687599763	14.909999999999997	0.0
C 	29.514145760973665	15.619999999999996	0.0
C 	30.743901834347568	14.909999999999997	0.0
C 	31.973657907721474	15.619999999999997	0.0
C 	33.203413981095366	14.909999999999993	0.0
C 	34.43317005446927	15.619999999999994	0.0
C 	35.662926127843185	14.909999999999998	0.0
C 	36.892682201217085	15.619999999999996	0.0
C 	38.122438274590984	14.909999999999995	0.0
C 	39.35219434796489	15.619999999999996	0.0
C 	40.58195042133879	14.909999999999993	0.0
C 	41.811706494712695	15.619999999999994	0.0
C 	43.0414625680866	14.909999999999998	0.0
C 	44.2712186414605	15.619999999999996	0.0
C 	45.5009747148344	14.909999999999995	0.0
C 	46.730730788208305	15.619999999999996	0.0
C 	47.960486861582204	14.909999999999993	0.0
C 	49.19024293495611	15.619999999999994	0.0
C 	50.41999900833002	14.909999999999998	0.0
C 	51.649755081703915	15.619999999999996	0.0
C 	52.87951115507782	14.909999999999997	0.0
C 	54.10926722845171	15.619999999999994	0.0
C 	55.33902330182562	14.909999999999995	0.0
C 	56.568779375199526	15.619999999999994	0.0
C 	57.798535448573425	14.909999999999991	0.0
C 	59.028291521947324	15.619999999999992	0.0
C 	60.25804759532124	14.909999999999998	0.0
C 	61.487803668695136	15.619999999999996	0.0
C 	62.717559742069035	14.909999999999993	0.0
C 	63.94731581544294	15.619999999999994	0.0
C 	65.17707188881684	14.909999999999993	0.0
C 	66.40682796219075	15.619999999999994	0.0
C 	67.63658403556465	14.909999999999997	0.0
C 	68.86634010893854	15.61999999999999	0.0
C 	9.838048586991222	17.039999999999996	0.0
C 	11.067804660365127	17.749999999999996	0.0
C 	12.297560733739028	17.039999999999996	0.0
C 	13.527316807112932	17.749999999999996	0.0
C 	14.757072880486833	17.039999999999996	0.0
C 	15.986828953860735	17.749999999999996	0.0
C 	17.21658502723464	17.039999999999996	0.0
C 	18.446341100608546	17.749999999999996	0.0
C 	19.676097173982445	17.039999999999996	0.0
C 	20.905853247356347	17.749999999999996	0.0
C 	22.13560932073025	17.039999999999996	0.0
C 	23.365365394104153	17.749999999999996	0.0
C 	24.595121467478055	17.039999999999996	0.0
C 	25.82487754085196	17.749999999999996	0.0
C 	27.05463361422586	17.039999999999996	0.0
C 	28.28438968759977	17.75	0.0
C 	29.514145760973665	17.039999999999996	0.0
C 	30.74390183434757	17.749999999999996	0.0
C 	31.973657907721467	17.039999999999992	0.0
C 	33.20341398109537	17.749999999999993	0.0
C 	34.43317005446927	17.039999999999996	0.0
C 	35.66292612784318	17.749999999999996	0.0
C 	36.892682201217085	17.039999999999996	0.0
C 	38.122438274590984	17.749999999999996	0.0
C 	39.35219434796488	17.039999999999992	0.0
C 	40.58195042133879	17.749999999999993	0.0
C 	41.811706494712695	17.039999999999992	0.0
C 	43.041462568086594	17.749999999999993	0.0
C 	44.2712186414605	17.039999999999996	0.0
C 	45.500974714834406	17.749999999999996	0.0
C 	46.7307307882083	17.039999999999992	0.0
C 	47.960486861582204	17.749999999999993	0.0
C 	49.19024293495611	17.039999999999992	0.0
C 	50.41999900833002	17.749999999999993	0.0
C 	51.649755081703915	17.039999999999996	0.0
C 	52.87951115507782	17.749999999999996	0.0
C 	54.10926722845172	17.039999999999992	0.0
C 	55.33902330182562	17.749999999999993	0.0
C 	56.568779375199526	17.039999999999996	0.0
C 	57.79853544857343	17.749999999999996	0.0
C 	59.028291521947324	17.039999999999992	0.0
C 	60.25804759532123	17.749999999999993	0.0
C 	61.487803668695136	17.039999999999996	0.0
C 	62.71755974206904	17.749999999999996	0.0
C 	63.94731581544294	17.04	0.0
C 	65.17707188881684	17.749999999999993	0.0
C 	66.40682796219075	17.039999999999996	0.0
C 	67.63658403556464	17.74999999999999	0.0
C 	68.86634010893856	17.03999999999999	0.0
C 	70.09609618231246	17.74999999999999	0.0
C 	11.067804660365125	19.169999999999995	0.0
C 	12.297560733739026	19.879999999999995	0.0
C 	13.52731680711293	19.169999999999995	0.0
C 	14.757072880486831	19.879999999999995	0.0
C 	15.986828953860737	19.169999999999998	0.0
C 	17.216585027234636	19.879999999999992	0.0
C 	18.446341100608542	19.169999999999995	0.0
C 	19.676097173982445	19.879999999999995	0.0
C 	20.905853247356347	19.169999999999995	0.0
C 	22.135609320730246	19.879999999999995	0.0
C 	23.365365394104153	19.169999999999995	0.0
C 	24.59512146747805	19.879999999999995	0.0
C 	25.824877540851958	19.169999999999995	0.0
C 	27.05463361422586	19.879999999999995	0.0
C 	28.284389687599763	19.169999999999995	0.0
C 	29.51414576097367	19.879999999999995	0.0
C 	30.743901834347565	19.16999999999999	0.0
C 	31.97365790772147	19.879999999999992	0.0
C 	33.20341398109537	19.169999999999995	0.0
C 	34.43317005446927	19.879999999999992	0.0
C 	35.66292612784318	19.169999999999995	0.0
C 	36.89268220121708	19.879999999999992	0.0
C 	38.122438274590984	19.169999999999995	0.0
C 	39.35219434796488	19.879999999999992	0.0
C 	40.58195042133879	19.16999999999999	0.0
C 	41.81170649471269	19.87999999999999	0.0
C 	43.0414625680866	19.169999999999995	0.0
C 	44.27121864146049	19.879999999999992	0.0
C 	45.5009747148344	19.16999999999999	0.0
C 	46.730730788208305	19.879999999999992	0.0
C 	47.960486861582204	19.169999999999995	0.0
C 	49.1902429349561	19.879999999999992	0.0
C 	50.41999900833002	19.169999999999995	0.0
C 	51.649755081703915	19.879999999999992	0.0
C 	52.879511155077815	19.16999999999999	0.0
C 	54.10926722845172	19.879999999999992	0.0
C 	55.33902330182562	19.16999999999999	0.0
C 	56.56877937519952	19.879999999999992	0.0
C 	57.79853544857343	19.169999999999995	0.0
C 	59.02829152194733	19.879999999999992	0.0
C 	60.25804759532123	19.169999999999995	0.0
C 	61.48780366869513	19.879999999999992	0.0
C 	62.717559742069035	19.16999999999999	0.0
C 	63.94731581544294	19.879999999999992	0.0
C 	65.17707188881684	19.169999999999995	0.0
C 	66.40682796219075	19.87999999999999	0.0
C 	67.63658403556465	19.169999999999995	0.0
C 	68.86634010893854	19.87999999999999	0.0
C 	70.09609618231245	19.16999999999999	0.0
C 	71.32585225568636	19.879999999999992	0.0
C 	12.297560733739028	21.299999999999994	0.0
C 	13.527316807112932	22.009999999999994	0.0
C 	14.757072880486831	21.299999999999994	0.0
C 	15.986828953860735	22.009999999999994	0.0
C 	17.216585027234636	21.299999999999994	0.0
C 	18.44634110060854	22.009999999999994	0.0
C 	19.676097173982445	21.299999999999994	0.0
C 	20.905853247356347	22.009999999999994	0.0
C 	22.13560932073025	21.299999999999994	0.0
C 	23.365365394104153	22.009999999999994	0.0
C 	24.595121467478055	21.299999999999994	0.0
C 	25.824877540851958	22.009999999999994	0.0
C 	27.05463361422586	21.299999999999994	0.0
C 	28.284389687599766	22.009999999999994	0.0
C 	29.514145760973662	21.29999999999999	0.0
C 	30.743901834347568	22.00999999999999	0.0
C 	31.97365790772147	21.299999999999994	0.0
C 	33.20341398109537	22.009999999999994	0.0
C 	34.43317005446928	21.299999999999994	0.0
C 	35.662926127843185	22.009999999999994	0.0
C 	36.89268220121708	21.299999999999994	0.0
C 	38.122438274590984	22.009999999999994	0.0
C 	39.35219434796489	21.299999999999994	0.0
C 	40.58195042133879	22.009999999999994	0.0
C 	41.811706494712695	21.299999999999994	0.0
C 	43.0414625680866	22.009999999999994	0.0
C 	44.2712186414605	21.29999999999999	0.0
C 	45.5009747148344	22.00999999999999	0.0
C 	46.730730788208305	21.299999999999994	0.0
C 	47.96048686158221	22.009999999999994	0.0
C 	49.19024293495611	21.299999999999994	0.0
C 	50.41999900833002	22.009999999999994	0.0
C 	51.649755081703915	21.299999999999994	0.0
C 	52.879511155077815	22.00999999999999	0.0
C 	54.10926722845172	21.299999999999994	0.0
C 	55.33902330182563	22.009999999999994	0.0
C 	56.568779375199526	21.29999999999999	0.0
C 	57.798535448573425	22.00999999999999	0.0
C 	59.02829152194733	21.299999999999994	0.0
C 	60.25804759532124	22.009999999999994	0.0
C 	61.48780366869513	21.29999999999999	0.0
C 	62.717559742069035	22.00999999999999	0.0
C 	63.94731581544294	21.299999999999994	0.0
C 	65.17707188881684	22.009999999999987	0.0
C 	66.40682796219075	21.299999999999994	0.0
C 	67.63658403556465	22.009999999999994	0.0
C 	68.86634010893854	21.29999999999999	0.0
C 	70.09609618231245	22.00999999999999	0.0
C 	71.32585225568636	21.299999999999983	0.0
C 	72.55560832906026	22.00999999999999	0.0
C 	13.527316807112932	23.429999999999996	0.0
C 	14.757072880486836	24.139999999999997	0.0
C 	15.986828953860737	23.429999999999996	0.0
C 	17.216585027234643	24.139999999999997	0.0
C 	18.446341100608542	23.429999999999996	0.0
C 	19.676097173982445	24.139999999999997	0.0
C 	20.90585324735635	23.429999999999996	0.0
C 	22.135609320730254	24.139999999999997	0.0
C 	23.365365394104156	23.429999999999993	0.0
C 	24.595121467478062	24.139999999999997	0.0
C 	25.824877540851958	23.429999999999993	0.0
C 	27.054633614225864	24.139999999999993	0.0
C 	28.284389687599766	23.429999999999996	0.0
C 	29.514145760973673	24.139999999999997	0.0
C 	30.743901834347575	23.429999999999996	0.0
C 	31.973657907721478	24.139999999999997	0.0
C 	33.20341398109537	23.429999999999993	0.0
C 	34.43317005446928	24.139999999999993	0.0
C 	35.66292612784318	23.429999999999993	0.0
C 	36.892682201217085	24.139999999999993	0.0
C 	38.122438274590984	23.429999999999993	0.0
C 	39.35219434796489	24.139999999999993	0.0
C 	40.58195042133879	23.429999999999996	0.0
C 	41.811706494712695	24.139999999999993	0.0
C 	43.041462568086594	23.42999999999999	0.0
C 	44.2712186414605	24.13999999999999	0.0
C 	45.5009747148344	23.429999999999993	0.0
C 	46.730730788208305	24.139999999999993	0.0
C 	47.96048686158221	23.429999999999993	0.0
C 	49.19024293495611	24.139999999999993	0.0
C 	50.41999900833001	23.429999999999993	0.0
C 	51.649755081703915	24.13999999999999	0.0
C 	52.87951115507782	23.429999999999993	0.0
C 	54.10926722845172	24.139999999999993	0.0
C 	55.33902330182563	23.429999999999993	0.0
C 	56.56877937519953	24.139999999999993	0.0
C 	57.798535448573425	23.429999999999993	0.0
C 	59.02829152194733	24.139999999999993	0.0
C 	60.25804759532124	23.429999999999993	0.0
C 	61.487803668695136	24.13999999999999	0.0
C 	62.71755974206904	23.429999999999993	0.0
C 	63.947315815442934	24.139999999999986	0.0
C 	65.17707188881684	23.429999999999993	0.0
C 	66.40682796219075	24.139999999999993	0.0
C 	67.63658403556464	23.42999999999999	0.0
C 	68.86634010893856	24.139999999999997	0.0
C 	70.09609618231245	23.42999999999999	0.0
C 	71.32585225568636	24.139999999999997	0.0
C 	72.55560832906026	23.42999999999999	0.0
C 	73.78536440243417	24.13999999999999	0.0
C 	14.757072880486835	25.559999999999995	0.0
C 	15.986828953860735	26.269999999999996	0.0
C 	17.21658502723464	25.559999999999995	0.0
C 	18.44634110060854	26.269999999999996	0.0
C 	19.676097173982445	25.56	0.0
C 	20.905853247356344	26.269999999999996	0.0
C 	22.13560932073025	25.56	0.0
C 	23.365365394104153	26.269999999999996	0.0
C 	24.595121467478055	25.559999999999995	0.0
C 	25.824877540851958	26.269999999999996	0.0
C 	27.054633614225857	25.559999999999995	0.0
C 	28.28438968759976	26.269999999999996	0.0
C 	29.514145760973665	25.559999999999995	0.0
C 	30.743901834347568	26.269999999999996	0.0
C 	31.973657907721474	25.559999999999995	0.0
C 	33.20341398109538	26.269999999999996	0.0
C 	34.43317005446927	25.55999999999999	0.0
C 	35.66292612784318	26.269999999999992	0.0
C 	36.892682201217085	25.559999999999995	0.0
C 	38.12243827459098	26.269999999999992	0.0
C 	39.35219434796489	25.559999999999995	0.0
C 	40.58195042133879	26.269999999999992	0.0
C 	41.81170649471269	25.55999999999999	0.0
C 	43.041462568086594	26.269999999999992	0.0
C 	44.2712186414605	25.55999999999999	0.0
C 	45.5009747148344	26.26999999999999	0.0
C 	46.730730788208305	25.559999999999995	0.0
C 	47.960486861582204	26.269999999999992	0.0
C 	49.19024293495611	25.55999999999999	0.0
C 	50.41999900833001	26.269999999999992	0.0
C 	51.649755081703915	25.559999999999995	0.0
C 	52.879511155077815	26.269999999999992	0.0
C 	54.10926722845172	25.559999999999995	0.0
C 	55.33902330182562	26.269999999999992	0.0
C 	56.568779375199526	25.55999999999999	0.0
C 	57.79853544857343	26.269999999999992	0.0
C 	59.028291521947324	25.55999999999999	0.0
C 	60.25804759532123	26.269999999999992	0.0
C 	61.487803668695136	25.559999999999995	0.0
C 	62.717559742069035	26.26999999999999	0.0
C 	63.94731581544294	25.55999999999999	0.0
C 	65.17707188881683	26.269999999999985	0.0
C 	66.40682796219075	25.55999999999999	0.0
C 	67.63658403556465	26.269999999999992	0.0
C 	68.86634010893856	25.559999999999995	0.0
C 	70.09609618231246	26.269999999999996	0.0
C 	71.32585225568636	25.559999999999995	0.0
C 	72.55560832906026	26.269999999999996	0.0
C 	73.78536440243415	25.559999999999988	0.0
C 	75.01512047580806	26.26999999999999	0.0
C 	15.986828953860735	27.689999999999994	0.0
C 	17.21658502723464	28.399999999999995	0.0
C 	18.446341100608542	27.689999999999994	0.0
C 	19.676097173982445	28.399999999999995	0.0
C 	20.905853247356344	27.689999999999994	0.0
C 	22.13560932073025	28.399999999999995	0.0
C 	23.365365394104153	27.689999999999994	0.0
C 	24.59512146747806	28.399999999999995	0.0
C 	25.824877540851954	27.689999999999994	0.0
C 	27.054633614225857	28.399999999999995	0.0
C 	28.284389687599763	27.689999999999994	0.0
C 	29.514145760973665	28.399999999999995	0.0
C 	30.74390183434757	27.689999999999994	0.0
C 	31.973657907721474	28.399999999999995	0.0
C 	33.20341398109537	27.68999999999999	0.0
C 	34.43317005446928	28.39999999999999	0.0
C 	35.66292612784318	27.689999999999994	0.0
C 	36.892682201217085	28.399999999999995	0.0
C 	38.122438274590984	27.689999999999994	0.0
C 	39.35219434796489	28.399999999999995	0.0
C 	40.58195042133879	27.689999999999994	0.0
C 	41.811706494712695	28.399999999999995	0.0
C 	43.041462568086594	27.689999999999994	0.0
C 	44.2712186414605	28.399999999999995	0.0
C 	45.500974714834406	27.689999999999994	0.0
C 	46.730730788208305	28.399999999999995	0.0
C 	47.960486861582204	27.68999999999999	0.0
C 	49.19024293495611	28.39999999999999	0.0
C 	50.41999900833002	27.689999999999994	0.0
C 	51.649755081703915	28.399999999999995	0.0
C 	52.87951115507782	27.689999999999994	0.0
C 	54.10926722845173	28.399999999999995	0.0
C 	55.33902330182562	27.68999999999999	0.0
C 	56.568779375199526	28.39999999999999	0.0
C 	57.79853544857343	27.689999999999994	0.0
C 	59.02829152194733	28.39999999999999	0.0
C 	60.25804759532124	27.689999999999994	0.0
C 	61.48780366869513	28.399999999999988	0.0
C 	62.717559742069035	27.689999999999994	0.0
C 	63.94731581544294	28.399999999999995	0.0
C 	65.17707188881684	27.68999999999999	0.0
C 	66.40682796219075	28.39999999999999	0.0
C 	67.63658403556464	27.689999999999987	0.0
C 	68.86634010893856	28.399999999999995	0.0
C 	70.09609618231245	27.689999999999994	0.0
C 	71.32585225568636	28.399999999999995	0.0
C 	72.55560832906026	27.68999999999999	0.0
C 	73.78536440243415	28.39999999999999	0.0
C 	75.01512047580808	27.689999999999994	0.0
C 	76.24487654918197	28.399999999999984	0.0
C 	17.21658502723464	29.819999999999997	0.0
C 	18.446341100608546	30.529999999999998	0.0
C 	19.676097173982445	29.819999999999997	0.0
C 	20.905853247356355	30.529999999999998	0.0
C 	22.13560932073025	29.819999999999993	0.0
C 	23.365365394104156	30.529999999999994	0.0
C 	24.59512146747806	29.819999999999997	0.0
C 	25.82487754085196	30.529999999999998	0.0
C 	27.054633614225867	29.819999999999997	0.0
C 	28.28438968759977	30.529999999999998	0.0
C 	29.514145760973665	29.819999999999997	0.0
C 	30.74390183434757	30.529999999999998	0.0
C 	31.973657907721474	29.819999999999997	0.0
C 	33.20341398109538	30.529999999999998	0.0
C 	34.43317005446928	29.819999999999997	0.0
C 	35.662926127843185	30.529999999999998	0.0
C 	36.892682201217085	29.819999999999993	0.0
C 	38.12243827459099	30.529999999999994	0.0
C 	39.35219434796488	29.819999999999993	0.0
C 	40.58195042133879	30.529999999999994	0.0
C 	41.811706494712695	29.819999999999993	0.0
C 	43.0414625680866	30.529999999999994	0.0
C 	44.2712186414605	29.819999999999993	0.0
C 	45.500974714834406	30.529999999999994	0.0
C 	46.730730788208305	29.81999999999999	0.0
C 	47.960486861582204	30.52999999999999	0.0
C 	49.19024293495611	29.819999999999993	0.0
C 	50.41999900833002	30.529999999999994	0.0
C 	51.649755081703915	29.819999999999993	0.0
C 	52.87951115507782	30.529999999999994	0.0
C 	54.10926722845172	29.819999999999993	0.0
C 	55.33902330182563	30.52999999999999	0.0
C 	56.568779375199526	29.819999999999993	0.0
C 	57.798535448573425	30.52999999999999	0.0
C 	59.02829152194734	29.819999999999993	0.0
C 	60.25804759532124	30.529999999999994	0.0
C 	61.487803668695136	29.819999999999993	0.0
C 	62.71755974206904	30.529999999999994	0.0
C 	63.947315815442934	29.81999999999999	0.0
C 	65.17707188881685	30.529999999999998	0.0
C 	66.40682796219073	29.819999999999986	0.0
C 	67.63658403556465	30.529999999999994	0.0
C 	68.86634010893856	29.819999999999993	0.0
C 	70.09609618231245	30.529999999999994	0.0
C 	71.32585225568637	29.819999999999997	0.0
C 	72.55560832906026	30.52999999999999	0.0
C 	73.78536440243417	29.819999999999997	0.0
C 	75.01512047580806	30.529999999999987	0.0
C 	76.24487654918197	29.81999999999999	0.0
C 	77.47463262255587	30.52999999999999	0.0
C 	18.446341100608542	31.949999999999996	0.0
C 	19.676097173982445	32.65999999999999	0.0
C 	20.905853247356347	31.949999999999992	0.0
C 	22.135609320730254	32.66	0.0
C 	23.365365394104156	31.949999999999996	0.0
C 	24.595121467478055	32.65999999999999	0.0
C 	25.824877540851958	31.949999999999992	0.0
C 	27.05463361422586	32.66	0.0
C 	28.284389687599766	31.949999999999996	0.0
C 	29.51414576097367	32.66	0.0
C 	30.743901834347568	31.949999999999992	0.0
C 	31.97365790772147	32.66	0.0
C 	33.20341398109537	31.949999999999992	0.0
C 	34.43317005446928	32.66	0.0
C 	35.66292612784318	31.949999999999996	0.0
C 	36.892682201217085	32.66	0.0
C 	38.122438274590984	31.949999999999992	0.0
C 	39.35219434796489	32.65999999999999	0.0
C 	40.58195042133879	31.949999999999992	0.0
C 	41.81170649471269	32.65999999999999	0.0
C 	43.0414625680866	31.949999999999996	0.0
C 	44.2712186414605	32.65999999999999	0.0
C 	45.5009747148344	31.949999999999992	0.0
C 	46.730730788208305	32.65999999999999	0.0
C 	47.96048686158221	31.949999999999992	0.0
C 	49.1902429349561	32.65999999999999	0.0
C 	50.41999900833002	31.949999999999992	0.0
C 	51.649755081703915	32.65999999999999	0.0
C 	52.879511155077815	31.949999999999992	0.0
C 	54.10926722845172	32.65999999999999	0.0
C 	55.33902330182563	31.949999999999992	0.0
C 	56.568779375199526	32.65999999999999	0.0
C 	57.79853544857343	31.949999999999992	0.0
C 	59.028291521947324	32.65999999999999	0.0
C 	60.25804759532124	31.949999999999992	0.0
C 	61.487803668695136	32.65999999999999	0.0
C 	62.717559742069035	31.94999999999999	0.0
C 	63.94731581544294	32.65999999999999	0.0
C 	65.17707188881685	31.949999999999992	0.0
C 	66.40682796219076	32.66	0.0
C 	67.63658403556465	31.949999999999992	0.0
C 	68.86634010893856	32.65999999999999	0.0
C 	70.09609618231245	31.94999999999999	0.0
C 	71.32585225568636	32.65999999999999	0.0
C 	72.55560832906026	31.949999999999996	0.0
C 	73.78536440243415	32.65999999999999	0.0
C 	75.01512047580806	31.949999999999992	0.0
C 	76.24487654918195	32.65999999999998	0.0
C 	77.47463262255587	31.949999999999985	0.0
C 	78.70438869592978	32.65999999999999	0.0
C 	19.676097173982445	34.07999999999999	0.0
C 	20.90585324735635	34.78999999999999	0.0
C 	22.135609320730254	34.07999999999999	0.0
C 	23.365365394104156	34.78999999999999	0.0
C 	24.595121467478055	34.07999999999999	0.0
C 	25.824877540851958	34.78999999999999	0.0
C 	27.054633614225864	34.07999999999999	0.0
C 	28.284389687599766	34.78999999999999	0.0
C 	29.514145760973665	34.07999999999999	0.0
C 	30.743901834347568	34.78999999999999	0.0
C 	31.97365790772147	34.07999999999999	0.0
C 	33.20341398109537	34.78999999999999	0.0
C 	34.43317005446928	34.07999999999999	0.0
C 	35.662926127843185	34.78999999999999	0.0
C 	36.89268220121708	34.07999999999999	0.0
C 	38.122438274590984	34.78999999999999	0.0
C 	39.35219434796489	34.07999999999999	0.0
C 	40.581950421338796	34.78999999999999	0.0
C 	41.811706494712695	34.07999999999999	0.0
C 	43.0414625680866	34.78999999999999	0.0
C 	44.2712186414605	34.07999999999999	0.0
C 	45.5009747148344	34.78999999999999	0.0
C 	46.730730788208305	34.07999999999999	0.0
C 	47.96048686158221	34.78999999999999	0.0
C 	49.19024293495611	34.07999999999999	0.0
C 	50.41999900833002	34.78999999999999	0.0
C 	51.649755081703915	34.07999999999999	0.0
C 	52.87951115507782	34.78999999999999	0.0
C 	54.10926722845172	34.07999999999999	0.0
C 	55.33902330182562	34.78999999999999	0.0
C 	56.56877937519953	34.07999999999999	0.0
C 	57.79853544857343	34.78999999999999	0.0
C 	59.02829152194733	34.07999999999999	0.0
C 	60.25804759532124	34.78999999999999	0.0
C 	61.487803668695136	34.07999999999999	0.0
C 	62.71755974206905	34.79	0.0
C 	63.947315815442934	34.079999999999984	0.0
C 	65.17707188881685	34.78999999999999	0.0
C 	66.40682796219075	34.07999999999999	0.0
C 	67.63658403556465	34.78999999999999	0.0
C 	68.86634010893854	34.07999999999999	0.0
C 	70.09609618231245	34.78999999999999	0.0
C 	71.32585225568636	34.07999999999999	0.0
C 	72.55560832906025	34.789999999999985	0.0
C 	73.78536440243417	34.07999999999999	0.0
C 	75.01512047580808	34.78999999999999	0.0
C 	76.24487654918197	34.07999999999999	0.0
C 	77.47463262255587	34.78999999999999	0.0
C 	78.70438869592977	34.079999999999984	0.0
C 	79.93414476930369	34.78999999999999	0.0
C 	20.90585324735635	36.209999999999994	0.0
C 	22.135609320730254	36.919999999999995	0.0
C 	23.36536539410416	36.209999999999994	0.0
C 	24.595121467478062	36.919999999999995	0.0
C 	25.82487754085196	36.209999999999994	0.0
C 	27.054633614225864	36.919999999999995	0.0
C 	28.284389687599766	36.209999999999994	0.0
C 	29.514145760973673	36.919999999999995	0.0
C 	30.743901834347575	36.209999999999994	0.0
C 	31.973657907721478	36.919999999999995	0.0
C 	33.20341398109537	36.209999999999994	0.0
C 	34.43317005446928	36.919999999999995	0.0
C 	35.662926127843185	36.209999999999994	0.0
C 	36.89268220121709	36.919999999999995	0.0
C 	38.12243827459099	36.209999999999994	0.0
C 	39.3521943479649	36.919999999999995	0.0
C 	40.581950421338796	36.209999999999994	0.0
C 	41.811706494712695	36.919999999999995	0.0
C 	43.041462568086594	36.209999999999994	0.0
C 	44.2712186414605	36.919999999999995	0.0
C 	45.500974714834406	36.209999999999994	0.0
C 	46.730730788208305	36.919999999999995	0.0
C 	47.96048686158221	36.209999999999994	0.0
C 	49.19024293495612	36.919999999999995	0.0
C 	50.41999900833002	36.20999999999999	0.0
C 	51.649755081703915	36.91999999999999	0.0
C 	52.87951115507782	36.209999999999994	0.0
C 	54.10926722845172	36.91999999999999	0.0
C 	55.33902330182563	36.209999999999994	0.0
C 	56.56877937519953	36.919999999999995	0.0
C 	57.79853544857343	36.20999999999999	0.0
C 	59.02829152194733	36.91999999999999	0.0
C 	60.25804759532123	36.20999999999999	0.0
C 	61.48780366869515	36.919999999999995	0.0
C 	62.71755974206904	36.209999999999994	0.0
C 	63.94731581544295	36.919999999999995	0.0
C 	65.17707188881684	36.209999999999994	0.0
C 	66.40682796219075	36.919999999999995	0.0
C 	67.63658403556467	36.209999999999994	0.0
C 	68.86634010893856	36.91999999999999	0.0
C 	70.09609618231246	36.209999999999994	0.0
C 	71.32585225568636	36.91999999999999	0.0
C 	72.55560832906026	36.209999999999994	0.0
C 	73.78536440243417	36.919999999999995	0.0
C 	75.01512047580806	36.20999999999999	0.0
C 	76.24487654918198	36.919999999999995	0.0
C 	77.47463262255586	36.20999999999999	0.0
C 	78.70438869592978	36.919999999999995	0.0
C 	79.93414476930369	36.20999999999999	0.0
C 	81.16390084267759	36.91999999999999	0.0
C 	22.13560932073025	38.33999999999999	0.0
C 	23.365365394104153	39.04999999999999	0.0
C 	24.59512146747806	38.33999999999999	0.0
C 	25.82487754085196	39.04999999999999	0.0
C 	27.05463361422586	38.33999999999999	0.0
C 	28.284389687599763	39.04999999999999	0.0
C 	29.514145760973665	38.33999999999999	0.0
C 	30.74390183434757	39.04999999999999	0.0
C 	31.973657907721474	38.339999999999996	0.0
C 	33.20341398109538	39.04999999999999	0.0
C 	34.43317005446927	38.33999999999999	0.0
C 	35.66292612784318	39.04999999999999	0.0
C 	36.892682201217085	38.33999999999999	0.0
C 	38.12243827459099	39.04999999999999	0.0
C 	39.35219434796489	38.33999999999999	0.0
C 	40.581950421338796	39.04999999999999	0.0
C 	41.811706494712695	38.33999999999999	0.0
C 	43.0414625680866	39.04999999999999	0.0
C 	44.27121864146049	38.33999999999999	0.0
C 	45.5009747148344	39.04999999999999	0.0
C 	46.730730788208305	38.33999999999999	0.0
C 	47.960486861582204	39.04999999999999	0.0
C 	49.19024293495611	38.33999999999999	0.0
C 	50.41999900833002	39.04999999999999	0.0
C 	51.649755081703915	38.33999999999999	0.0
C 	52.879511155077815	39.04999999999999	0.0
C 	54.10926722845173	38.33999999999999	0.0
C 	55.33902330182562	39.04999999999998	0.0
C 	56.568779375199526	38.33999999999999	0.0
C 	57.79853544857343	39.04999999999999	0.0
C 	59.02829152194733	38.33999999999999	0.0
C 	60.25804759532123	39.04999999999999	0.0
C 	61.48780366869513	38.33999999999998	0.0
C 	62.71755974206905	39.04999999999999	0.0
C 	63.94731581544294	38.33999999999999	0.0
C 	65.17707188881685	39.04999999999999	0.0
C 	66.40682796219075	38.33999999999999	0.0
C 	67.63658403556465	39.04999999999999	0.0
C 	68.86634010893856	38.33999999999999	0.0
C 	70.09609618231245	39.04999999999998	0.0
C 	71.32585225568636	38.33999999999999	0.0
C 	72.55560832906025	39.04999999999998	0.0
C 	73.78536440243415	38.33999999999999	0.0
C 	75.01512047580806	39.04999999999999	0.0
C 	76.24487654918197	38.33999999999999	0.0
C 	77.47463262255587	39.05	0.0
C 	78.70438869592977	38.33999999999998	0.0
C 	79.93414476930369	39.04999999999999	0.0
C 	81.16390084267758	38.33999999999998	0.0
C 	82.39365691605148	39.04999999999998	0.0
C 	23.365365394104156	40.46999999999999	0.0
C 	24.59512146747806	41.17999999999999	0.0
C 	25.82487754085196	40.46999999999999	0.0
C 	27.054633614225867	41.17999999999999	0.0
C 	28.284389687599763	40.46999999999999	0.0
C 	29.51414576097367	41.17999999999999	0.0
C 	30.74390183434757	40.46999999999999	0.0
C 	31.973657907721474	41.17999999999999	0.0
C 	33.20341398109537	40.46999999999999	0.0
C 	34.43317005446928	41.17999999999999	0.0
C 	35.66292612784318	40.46999999999999	0.0
C 	36.892682201217085	41.17999999999999	0.0
C 	38.12243827459099	40.46999999999999	0.0
C 	39.3521943479649	41.17999999999999	0.0
C 	40.58195042133879	40.46999999999999	0.0
C 	41.811706494712695	41.17999999999999	0.0
C 	43.0414625680866	40.46999999999999	0.0
C 	44.2712186414605	41.17999999999999	0.0
C 	45.500974714834406	40.46999999999999	0.0
C 	46.73073078820831	41.17999999999999	0.0
C 	47.960486861582204	40.46999999999999	0.0
C 	49.19024293495611	41.17999999999999	0.0
C 	50.41999900833002	40.46999999999999	0.0
C 	51.649755081703915	41.179999999999986	0.0
C 	52.87951115507782	40.46999999999999	0.0
C 	54.10926722845173	41.17999999999999	0.0
C 	55.33902330182563	40.46999999999999	0.0
C 	56.568779375199526	41.17999999999999	0.0
C 	57.798535448573425	40.469999999999985	0.0
C 	59.028291521947345	41.17999999999999	0.0
C 	60.25804759532124	40.46999999999999	0.0
C 	61.48780366869514	41.17999999999999	0.0
C 	62.71755974206904	40.46999999999999	0.0
C 	63.94731581544295	41.17999999999999	0.0
C 	65.17707188881685	40.46999999999999	0.0
C 	66.40682796219075	41.179999999999986	0.0
C 	67.63658403556465	40.46999999999999	0.0
C 	68.86634010893854	41.179999999999986	0.0
C 	70.09609618231246	40.46999999999999	0.0
C 	71.32585225568636	41.17999999999999	0.0
C 	72.55560832906026	40.469999999999985	0.0
C 	73.78536440243417	41.179999999999986	0.0
C 	75.01512047580806	40.469999999999985	0.0
C 	76.24487654918198	41.17999999999999	0.0
C 	77.47463262255587	40.46999999999999	0.0
C 	78.70438869592978	41.17999999999999	0.0
C 	79.93414476930367	40.469999999999985	0.0
C 	81.16390084267758	41.179999999999986	0.0
C 	82.3936569160515	40.46999999999999	0.0
C 	83.62341298942539	41.179999999999986	0.0
C 	24.595121467478055	42.59999999999999	0.0
C 	25.82487754085196	43.30999999999999	0.0
C 	27.05463361422586	42.59999999999999	0.0
C 	28.284389687599766	43.30999999999999	0.0
C 	29.514145760973662	42.59999999999999	0.0
C 	30.743901834347568	43.30999999999999	0.0
C 	31.97365790772147	42.59999999999999	0.0
C 	33.20341398109537	43.30999999999999	0.0
C 	34.43317005446927	42.59999999999999	0.0
C 	35.66292612784318	43.30999999999999	0.0
C 	36.89268220121708	42.59999999999999	0.0
C 	38.122438274590984	43.30999999999999	0.0
C 	39.35219434796489	42.59999999999999	0.0
C 	40.581950421338796	43.30999999999999	0.0
C 	41.81170649471269	42.59999999999999	0.0
C 	43.041462568086594	43.30999999999999	0.0
C 	44.2712186414605	42.59999999999999	0.0
C 	45.5009747148344	43.30999999999999	0.0
C 	46.730730788208305	42.59999999999999	0.0
C 	47.96048686158221	43.30999999999999	0.0
C 	49.19024293495611	42.59999999999999	0.0
C 	50.41999900833001	43.30999999999999	0.0
C 	51.64975508170392	42.599999999999994	0.0
C 	52.879511155077815	43.30999999999999	0.0
C 	54.10926722845172	42.59999999999999	0.0
C 	55.33902330182563	43.30999999999999	0.0
C 	56.568779375199526	42.59999999999999	0.0
C 	57.798535448573425	43.30999999999999	0.0
C 	59.028291521947324	42.59999999999998	0.0
C 	60.258047595321244	43.30999999999999	0.0
C 	61.487803668695136	42.59999999999999	0.0
C 	62.71755974206904	43.30999999999999	0.0
C 	63.94731581544294	42.59999999999999	0.0
C 	65.17707188881684	43.30999999999999	0.0
C 	66.40682796219076	42.599999999999994	0.0
C 	67.63658403556465	43.30999999999999	0.0
C 	68.86634010893856	42.59999999999999	0.0
C 	70.09609618231245	43.30999999999998	0.0
C 	71.32585225568636	42.59999999999999	0.0
C 	72.55560832906026	43.30999999999999	0.0
C 	73.78536440243415	42.59999999999999	0.0
C 	75.01512047580806	43.30999999999999	0.0
C 	76.24487654918197	42.59999999999998	0.0
C 	77.47463262255587	43.30999999999999	0.0
C 	78.70438869592978	42.59999999999999	0.0
C 	79.93414476930367	43.30999999999999	0.0
C 	81.16390084267758	42.59999999999999	0.0
C 	82.39365691605148	43.30999999999999	0.0
C 	83.62341298942539	42.59999999999999	0.0
C 	84.85316906279928	43.30999999999998	0.0
C 	25.82487754085196	44.72999999999999	0.0
C 	27.054633614225864	45.43999999999999	0.0
C 	28.284389687599766	44.72999999999999	0.0
C 	29.514145760973673	45.43999999999999	0.0
C 	30.743901834347568	44.72999999999999	0.0
C 	31.97365790772147	45.43999999999999	0.0
C 	33.20341398109537	44.72999999999999	0.0
C 	34.43317005446928	45.43999999999999	0.0
C 	35.662926127843185	44.72999999999999	0.0
C 	36.892682201217085	45.43999999999999	0.0
C 	38.122438274590984	44.72999999999999	0.0
C 	39.35219434796489	45.43999999999999	0.0
C 	40.581950421338796	44.72999999999999	0.0
C 	41.811706494712695	45.43999999999999	0.0
C 	43.0414625680866	44.72999999999999	0.0
C 	44.27121864146051	45.43999999999999	0.0
C 	45.500974714834406	44.72999999999999	0.0
C 	46.730730788208305	45.43999999999999	0.0
C 	47.960486861582204	44.72999999999999	0.0
C 	49.19024293495611	45.43999999999998	0.0
C 	50.41999900833002	44.72999999999999	0.0
C 	51.64975508170391	45.43999999999998	0.0
C 	52.87951115507782	44.72999999999999	0.0
C 	54.10926722845172	45.43999999999999	0.0
C 	55.33902330182562	44.72999999999998	0.0
C 	56.568779375199526	45.43999999999998	0.0
C 	57.798535448573425	44.72999999999998	0.0
C 	59.02829152194734	45.43999999999999	0.0
C 	60.25804759532124	44.72999999999999	0.0
C 	61.48780366869514	45.43999999999999	0.0
C 	62.717559742069035	44.72999999999998	0.0
C 	63.94731581544294	45.43999999999998	0.0
C 	65.17707188881685	44.72999999999999	0.0
C 	66.40682796219075	45.43999999999998	0.0
C 	67.63658403556465	44.72999999999999	0.0
C 	68.86634010893856	45.43999999999999	0.0
C 	70.09609618231245	44.72999999999999	0.0
C 	71.32585225568636	45.43999999999998	0.0
C 	72.55560832906026	44.72999999999998	0.0
C 	73.78536440243417	45.43999999999999	0.0
C 	75.01512047580806	44.72999999999998	0.0
C 	76.24487654918198	45.43999999999999	0.0
C 	77.47463262255587	44.72999999999999	0.0
C 	78.70438869592978	45.43999999999999	0.0
C 	79.93414476930369	44.72999999999999	0.0
C 	81.16390084267758	45.43999999999998	0.0
C 	82.39365691605148	44.72999999999999	0.0
C 	83.62341298942538	45.43999999999998	0.0
C 	84.8531690627993	44.72999999999998	0.0
C 	86.08292513617319	45.43999999999998	0.0
C 	27.054633614225864	46.85999999999999	0.0
C 	28.28438968759977	47.56999999999999	0.0
C 	29.514145760973673	46.85999999999999	0.0
C 	30.74390183434758	47.56999999999999	0.0
C 	31.973657907721474	46.85999999999999	0.0
C 	33.20341398109538	47.56999999999999	0.0
C 	34.43317005446928	46.85999999999999	0.0
C 	35.662926127843185	47.56999999999999	0.0
C 	36.892682201217085	46.85999999999999	0.0
C 	38.122438274590984	47.56999999999999	0.0
C 	39.35219434796489	46.85999999999999	0.0
C 	40.581950421338796	47.56999999999999	0.0
C 	41.8117064947127	46.85999999999999	0.0
C 	43.0414625680866	47.56999999999999	0.0
C 	44.2712186414605	46.85999999999999	0.0
C 	45.500974714834406	47.56999999999999	0.0
C 	46.73073078820831	46.859999999999985	0.0
C 	47.960486861582204	47.569999999999986	0.0
C 	49.19024293495612	46.85999999999999	0.0
C 	50.41999900833002	47.56999999999999	0.0
C 	51.649755081703915	46.859999999999985	0.0
C 	52.87951115507782	47.569999999999986	0.0
C 	54.10926722845172	46.859999999999985	0.0
C 	55.339023301825634	47.56999999999999	0.0
C 	56.56877937519953	46.85999999999999	0.0
C 	57.79853544857344	47.56999999999999	0.0
C 	59.02829152194733	46.859999999999985	0.0
C 	60.25804759532124	47.569999999999986	0.0
C 	61.48780366869515	46.85999999999999	0.0
C 	62.71755974206904	47.569999999999986	0.0
C 	63.94731581544295	46.85999999999999	0.0
C 	65.17707188881685	47.56999999999999	0.0
C 	66.40682796219075	46.859999999999985	0.0
C 	67.63658403556465	47.569999999999986	0.0
C 	68.86634010893856	46.859999999999985	0.0
C 	70.09609618231246	47.56999999999999	0.0
C 	71.32585225568636	46.859999999999985	0.0
C 	72.55560832906028	47.56999999999999	0.0
C 	73.78536440243417	46.859999999999985	0.0
C 	75.01512047580808	47.569999999999986	0.0
C 	76.24487654918197	46.859999999999985	0.0
C 	77.47463262255587	47.569999999999986	0.0
C 	78.70438869592978	46.85999999999999	0.0
C 	79.93414476930367	47.569999999999986	0.0
C 	81.16390084267758	46.85999999999999	0.0
C 	82.39365691605148	47.56999999999999	0.0
C 	83.62341298942539	46.859999999999985	0.0
C 	84.8531690627993	47.569999999999986	0.0
C 	86.08292513617319	46.85999999999998	0.0
C 	87.31268120954711	47.569999999999986	0.0
C 	28.284389687599763	48.98999999999999	0.0
C 	29.51414576097367	49.69999999999999	0.0
C 	30.74390183434757	48.98999999999999	0.0
C 	31.973657907721478	49.69999999999999	0.0
C 	33.20341398109537	48.98999999999999	0.0
C 	34.43317005446928	49.69999999999999	0.0
C 	35.66292612784318	48.98999999999999	0.0
C 	36.892682201217085	49.69999999999999	0.0
C 	38.122438274590984	48.98999999999999	0.0
C 	39.35219434796488	49.69999999999999	0.0
C 	40.58195042133879	48.98999999999999	0.0
C 	41.811706494712695	49.69999999999999	0.0
C 	43.041462568086594	48.98999999999999	0.0
C 	44.2712186414605	49.69999999999999	0.0
C 	45.5009747148344	48.98999999999999	0.0
C 	46.730730788208305	49.69999999999998	0.0
C 	47.96048686158221	48.98999999999999	0.0
C 	49.1902429349561	49.69999999999998	0.0
C 	50.41999900833002	48.98999999999999	0.0
C 	51.64975508170392	49.69999999999999	0.0
C 	52.879511155077815	48.98999999999999	0.0
C 	54.10926722845172	49.69999999999999	0.0
C 	55.33902330182562	48.98999999999998	0.0
C 	56.56877937519953	49.69999999999999	0.0
C 	57.79853544857343	48.98999999999999	0.0
C 	59.02829152194734	49.69999999999999	0.0
C 	60.25804759532124	48.98999999999999	0.0
C 	61.487803668695136	49.69999999999999	0.0
C 	62.71755974206905	48.98999999999999	0.0
C 	63.94731581544294	49.69999999999998	0.0
C 	65.17707188881685	48.98999999999999	0.0
C 	66.40682796219075	49.69999999999999	0.0
C 	67.63658403556465	48.98999999999999	0.0
C 	68.86634010893856	49.69999999999999	0.0
C 	70.09609618231245	48.98999999999998	0.0
C 	71.32585225568637	49.69999999999999	0.0
C 	72.55560832906025	48.98999999999998	0.0
C 	73.78536440243417	49.69999999999999	0.0
C 	75.01512047580806	48.98999999999999	0.0
C 	76.24487654918197	49.69999999999999	0.0
C 	77.47463262255587	48.98999999999998	0.0
C 	78.70438869592978	49.69999999999998	0.0
C 	79.93414476930369	48.98999999999999	0.0
C 	81.16390084267758	49.69999999999998	0.0
C 	82.39365691605148	48.98999999999999	0.0
C 	83.62341298942539	49.69999999999999	0.0
C 	84.85316906279928	48.98999999999998	0.0
C 	86.08292513617319	49.69999999999998	0.0
C 	87.3126812095471	48.98999999999998	0.0
C 	88.542437282921	49.69999999999999	0.0
C 	29.51414576097367	51.11999999999999	0.0
C 	30.74390183434757	51.82999999999999	0.0
C 	31.973657907721474	51.11999999999999	0.0
C 	33.20341398109538	51.82999999999999	0.0
C 	34.43317005446928	51.11999999999999	0.0
C 	35.66292612784318	51.82999999999999	0.0
C 	36.892682201217085	51.11999999999999	0.0
C 	38.12243827459099	51.82999999999999	0.0
C 	39.35219434796489	51.12	0.0
C 	40.581950421338796	51.83	0.0
C 	41.811706494712695	51.11999999999999	0.0
C 	43.041462568086594	51.82999999999999	0.0
C 	44.2712186414605	51.12	0.0
C 	45.5009747148344	51.82999999999999	0.0
C 	46.73073078820831	51.11999999999999	0.0
C 	47.96048686158221	51.82999999999999	0.0
C 	49.19024293495611	51.11999999999999	0.0
C 	50.41999900833002	51.82999999999999	0.0
C 	51.649755081703915	51.11999999999998	0.0
C 	52.879511155077815	51.829999999999984	0.0
C 	54.10926722845171	51.11999999999999	0.0
C 	55.33902330182563	51.83	0.0
C 	56.568779375199526	51.11999999999999	0.0
C 	57.79853544857343	51.82999999999999	0.0
C 	59.02829152194733	51.11999999999999	0.0
C 	60.25804759532124	51.82999999999999	0.0
C 	61.48780366869514	51.11999999999999	0.0
C 	62.717559742069035	51.829999999999984	0.0
C 	63.94731581544295	51.11999999999999	0.0
C 	65.17707188881685	51.82999999999999	0.0
C 	66.40682796219075	51.11999999999999	0.0
C 	67.63658403556465	51.82999999999999	0.0
C 	68.86634010893854	51.11999999999998	0.0
C 	70.09609618231246	51.82999999999999	0.0
C 	71.32585225568636	51.11999999999999	0.0
C 	72.55560832906026	51.82999999999999	0.0
C 	73.78536440243417	51.11999999999999	0.0
C 	75.01512047580806	51.82999999999999	0.0
C 	76.24487654918198	51.11999999999999	0.0
C 	77.47463262255587	51.829999999999984	0.0
C 	78.70438869592978	51.11999999999999	0.0
C 	79.93414476930367	51.829999999999984	0.0
C 	81.16390084267758	51.11999999999999	0.0
C 	82.39365691605148	51.82999999999999	0.0
C 	83.62341298942538	51.11999999999998	0.0
C 	84.8531690627993	51.82999999999999	0.0
C 	86.08292513617319	51.11999999999998	0.0
C 	87.3126812095471	51.82999999999999	0.0
C 	88.542437282921	51.11999999999998	0.0
C 	89.7721933562949	51.829999999999984	0.0
C 	52.99807186331767	0.2226629080369026	2.15
C 	54.269982562857635	0.8540448624794933	2.15
C 	54.35914510058926	2.2712428168476406	2.15
C 	55.631055800129225	2.902624771290238	2.15
C 	55.72021833786086	4.319822725658386	2.15
C 	56.99212903740082	4.951204680100983	2.15
C 	57.08129157513245	6.368402634469131	2.15
C 	58.35320227467241	6.999784588911721	2.15
C 	58.44236481240404	8.416982543279868	2.15
C 	59.714275511944	9.048364497722467	2.15
C 	59.80343804967563	10.465562452090614	2.15
C 	61.07534874921559	11.096944406533211	2.15
C 	61.16451128694722	12.514142360901358	2.15
C 	62.43642198648718	13.14552431534395	2.15
C 	62.52558452421881	14.562722269712097	2.15
C 	50.543413001969355	0.37709695351985484	2.15
C 	51.81532370150933	1.0084789079624525	2.15
C 	51.90448623924095	2.4256768623306	2.15
C 	53.17639693878092	3.05705881677319	2.15
C 	53.26555947651255	4.474256771141338	2.15
C 	54.53747017605252	5.105638725583935	2.15
C 	54.62663271378415	6.522836679952082	2.15
C 	55.898543413324106	7.15421863439468	2.15
C 	55.98770595105573	8.571416588762828	2.15
C 	57.259616650595696	9.202798543205418	2.15
C 	57.34877918832732	10.619996497573565	2.15
C 	58.620689887867286	11.251378452016164	2.15
C 	58.70985242559891	12.668576406384311	2.15
C 	59.98176312513888	13.299958360826908	2.15
C 	60.07092566287051	14.717156315195055	2.15
C 	61.34283636241046	15.348538269637647	2.15
C 	61.431998900142084	16.765736224005796	2.15
C 	62.703909599682056	17.39711817844839	2.15
C 	62.79307213741369	18.81431613281654	2.15
C 	64.06498283695365	19.445698087259135	2.15
C 	64.15414537468527	20.862896041627284	2.15
C 	65.42605607422524	21.494277996069872	2.15
C 	65.51521861195687	22.91147595043802	2.15
C 	66.78712931149684	23.542857904880613	2.15
C 	66.87629184922847	24.960055859248758	2.15
C 	68.14820254876842	25.591437813691364	2.15
C 	68.23736508650005	27.008635768059513	2.15
C 	69.50927578604002	27.6400177225021	2.15
C 	69.59843832377165	29.05721567687025	2.15
C 	70.8703490233116	29.688597631312838	2.15
C 	70.95951156104323	31.105795585680987	2.15
C 	72.2314222605832	31.737177540123593	2.15
C 	72.32058479831483	33.15437549449174	2.15
C 	73.59249549785478	33.78575744893433	2.15
C 	73.68165803558641	35.202955403302475	2.15
C 	74.95356873512638	35.83433735774507	2.15
C 	75.042731272858	37.25153531211321	2.15
C 	48.088754140621056	0.5315309990027991	2.15
C 	49.36066484016102	1.1629129534453972	2.15
C 	49.449827377892646	2.5801109078135447	2.15
C 	50.721738077432605	3.2114928622561423	2.15
C 	50.810900615164236	4.62869081662429	2.15
C 	52.08281131470421	5.260072771066881	2.15
C 	52.17197385243583	6.677270725435028	2.15
C 	53.4438845519758	7.308652679877625	2.15
C 	53.53304708970742	8.725850634245772	2.15
C 	54.804957789247396	9.357232588688369	2.15
C 	54.89412032697902	10.774430543056518	2.15
C 	56.16603102651898	11.405812497499108	2.15
C 	56.255193564250604	12.823010451867255	2.15
C 	57.52710426379057	13.454392406309854	2.15
C 	57.616266801522194	14.871590360678	2.15
C 	58.88817750106216	15.502972315120598	2.15
C 	58.977340038793784	16.920170269488747	2.15
C 	60.24925073833375	17.551552223931335	2.15
C 	60.338413276065374	18.968750178299484	2.15
C 	61.61032397560535	19.600132132742083	2.15
C 	61.69948651333697	21.017330087110228	2.15
C 	62.97139721287694	21.648712041552827	2.15
C 	63.06055975060856	23.065909995920972	2.15
C 	64.33247045014852	23.697291950363564	2.15
C 	64.42163298788014	25.114489904731712	2.15
C 	65.69354368742012	25.7458718591743	2.15
C 	65.78270622515176	27.16306981354245	2.15
C 	67.0546169246917	27.794451767985056	2.15
C 	67.14377946242332	29.2116497223532	2.15
C 	68.41569016196331	29.843031676795793	2.15
C 	68.50485269969494	31.260229631163938	2.15
C 	69.7767633992349	31.89161158560653	2.15
C 	69.86592593696652	33.308809539974675	2.15
C 	71.13783663650648	33.940191494417284	2.15
C 	71.2269991742381	35.357389448785426	2.15
C 	72.49890987377808	35.98877140322802	2.15
C 	72.5880724115097	37.40596935759617	2.15
C 	73.85998311104966	38.03735131203876	2.15
C 	73.94914564878128	39.45454926640691	2.15
C 	45.63409527927274	0.6859650444857585	2.15
C 	46.906005978812715	1.317346998928349	2.15
C 	46.99516851654434	2.7345449532964965	2.15
C 	48.267079216084305	3.3659269077390936	2.15
C 	48.35624175381594	4.7831248621072415	2.15
C 	49.6281524533559	5.41450681654984	2.15
C 	49.71731499108753	6.831704770917987	2.15
C 	50.989225690627485	7.4630867253605775	2.15
C 	51.07838822835911	8.880284679728724	2.15
C 	52.35029892789908	9.511666634171322	2.15
C 	52.43946146563071	10.92886458853947	2.15
C 	53.71137216517067	11.560246542982068	2.15
C 	53.8005347029023	12.977444497350215	2.15
C 	55.07244540244227	13.608826451792805	2.15
C 	55.161607940173894	15.026024406160952	2.15
C 	56.433518639713846	15.65740636060355	2.15
C 	56.52268117744547	17.074604314971698	2.15
C 	57.79459187698544	17.705986269414296	2.15
C 	57.883754414717075	19.12318422378244	2.15
C 	59.15566511425704	19.754566178225033	2.15
C 	59.244827651988665	21.17176413259318	2.15
C 	60.51673835152864	21.803146087035778	2.15
C 	60.60590088926026	23.220344041403926	2.15
C 	61.87781158880021	23.851725995846525	2.15
C 	61.96697412653184	25.26892395021467	2.15
C 	63.23888482607181	25.900305904657262	2.15
C 	63.328047363803435	27.317503859025408	2.15
C 	64.59995806334341	27.948885813468	2.15
C 	64.68912060107503	29.366083767836145	2.15
C 	65.961031300615	29.99746572227875	2.15
C 	66.05019383834663	31.4146636766469	2.15
C 	67.32210453788659	32.04604563108949	2.15
C 	67.41126707561821	33.46324358545763	2.15
C 	68.68317777515817	34.09462553990023	2.15
C 	68.7723403128898	35.51182349426838	2.15
C 	70.04425101242977	36.14320544871098	2.15
C 	70.13341355016139	37.56040340307913	2.15
C 	71.40532424970135	38.19178535752172	2.15
C 	71.49448678743298	39.608983311889865	2.15
C 	72.76639748697295	40.240365266332454	2.15
C 	72.85556002470459	41.6575632207006	2.15
C 	43.17943641792444	0.8403990899687027	2.15
C 	44.45134711746441	1.4717810444113009	2.15
C 	44.54050965519603	2.8889789987794483	2.15
C 	45.81242035473599	3.520360953222039	2.15
C 	45.901582892467616	4.937558907590186	2.15
C 	47.173493592007596	5.568940862032784	2.15
C 	47.26265612973922	6.986138816400931	2.15
C 	48.534566829279186	7.617520770843528	2.15
C 	48.62372936701081	9.034718725211675	2.15
C 	49.895640066550776	9.666100679654267	2.15
C 	49.9848026042824	11.083298634022414	2.15
C 	51.256713303822366	11.714680588465011	2.15
C 	51.34587584155399	13.131878542833158	2.15
C 	52.617786541093956	13.763260497275757	2.15
C 	52.70694907882558	15.180458451643904	2.15
C 	53.978859778365546	15.811840406086494	2.15
C 	54.06802231609717	17.22903836045464	2.15
C 	55.339933015637136	17.86042031489724	2.15
C 	55.42909555336876	19.277618269265385	2.15
C 	56.70100625290873	19.909000223707984	2.15
C 	56.79016879064036	21.326198178076133	2.15
C 	58.062079490180324	21.95758013251872	2.15
C 	58.15124202791195	23.37477808688687	2.15
C 	59.423152727451914	24.00616004132947	2.15
C 	59.51231526518354	25.423357995697614	2.15
C 	60.784225964723504	26.054739950140213	2.15
C 	60.87338850245513	27.471937904508362	2.15
C 	62.145299201995094	28.10331985895095	2.15
C 	62.23446173972672	29.5205178133191	2.15
C 	63.50637243926669	30.151899767761687	2.15
C 	63.595534976998316	31.569097722129836	2.15
C 	64.86744567653828	32.20047967657244	2.15
C 	64.9566082142699	33.61767763094059	2.15
C 	66.22851891380988	34.24905958538318	2.15
C 	66.3176814515415	35.66625753975133	2.15
C 	67.58959215108145	36.297639494193916	2.15
C 	67.67875468881307	37.714837448562065	2.15
C 	68.95066538835306	38.34621940300467	2.15
C 	69.03982792608468	39.763417357372816	2.15
C 	70.31173862562464	40.394799311815405	2.15
C 	70.40090116335628	41.81199726618355	2.15
C 	71.67281186289624	42.44337922062614	2.15
C 	71.76197440062786	43.86057717499429	2.15
C 	40.72477755657613	0.9948331354516625	2.15
C 	41.9966882561161	1.6262150898942527	2.15
C 	42.085850793847726	3.0434130442624	2.15
C 	43.35776149338769	3.6747949987049973	2.15
C 	43.44692403111932	5.091992953073145	2.15
C 	44.71883473065929	5.723374907515736	2.15
C 	44.80799726839091	7.140572861883883	2.15
C 	46.07990796793087	7.771954816326481	2.15
C 	46.169070505662496	9.189152770694628	2.15
C 	47.44098120520247	9.820534725137225	2.15
C 	47.530143742934094	11.237732679505374	2.15
C 	48.80205444247406	11.869114633947964	2.15
C 	48.891216980205684	13.286312588316111	2.15
C 	50.16312767974566	13.917694542758708	2.15
C 	50.25229021747728	15.334892497126855	2.15
C 	51.52420091701724	15.966274451569454	2.15
C 	51.613363454748864	17.3834724059376	2.15
C 	52.88527415428883	18.01485436038019	2.15
C 	52.974436692020454	19.43205231474834	2.15
C 	54.24634739156043	20.063434269190935	2.15
C 	54.33550992929205	21.480632223559084	2.15
C 	55.607420628832024	22.112014178001683	2.15
C 	55.69658316656365	23.52921213236983	2.15
C 	56.9684938661036	24.16059408681242	2.15
C 	57.057656403835225	25.57779204118057	2.15
C 	58.3295671033752	26.209173995623164	2.15
C 	58.41872964110682	27.626371949991313	2.15
C 	59.69064034064679	28.25775390443391	2.15
C 	59.77980287837841	29.674951858802057	2.15
C 	61.051713577918385	30.30633381324465	2.15
C 	61.14087611565001	31.723531767612794	2.15
C 	62.412786815189975	32.354913722055386	2.15
C 	62.5019493529216	33.772111676423535	2.15
C 	63.773860052461565	34.40349363086614	2.15
C 	63.86302259019319	35.820691585234286	2.15
C 	65.13493328973315	36.452073539676874	2.15
C 	65.22409582746478	37.86927149404502	2.15
C 	66.49600652700475	38.50065344848761	2.15
C 	66.58516906473638	39.91785140285576	2.15
C 	67.85707976427634	40.54923335729836	2.15
C 	67.94624230200797	41.96643131166651	2.15
C 	69.21815300154793	42.59781326610911	2.15
C 	69.30731553927956	44.01501122047725	2.15
C 	70.57922623881953	44.646393174919844	2.15
C 	70.66838877655115	46.063591129287985	2.15
C 	36.90904545795624	-0.8993127278761347	2.15
C 	38.180956157496205	-0.26793077343353694	2.15
C 	38.27011869522783	1.149267180934607	2.15
C 	39.542029394767795	1.780649135377208	2.15
C 	39.63119193249942	3.197847089745352	2.15
C 	40.90310263203938	3.8292290441879464	2.15
C 	40.992265169771	5.246426998556091	2.15
C 	42.26417586931098	5.877808952998691	2.15
C 	42.35333840704261	7.295006907366835	2.15
C 	43.62524910658257	7.9263888618094285	2.15
C 	43.7144116443142	9.343586816177572	2.15
C 	44.98632234385416	9.974968770620174	2.15
C 	45.07548488158579	11.392166724988318	2.15
C 	46.347395581125745	12.023548679430919	2.15
C 	46.43655811885737	13.440746633799064	2.15
C 	47.70846881839734	14.072128588241657	2.15
C 	47.79763135612897	15.4893265426098	2.15
C 	49.06954205566893	16.1207084970524	2.15
C 	49.15870459340056	17.537906451420547	2.15
C 	50.43061529294053	18.169288405863146	2.15
C 	50.519777830672155	19.58648636023129	2.15
C 	51.79168853021212	20.217868314673886	2.15
C 	51.880851067943745	21.635066269042028	2.15
C 	53.15276176748371	22.26644822348463	2.15
C 	53.241924305215335	23.683646177852776	2.15
C 	54.5138350047553	24.315028132295375	2.15
C 	54.602997542486925	25.73222608666352	2.15
C 	55.87490824202689	26.36360804110611	2.15
C 	55.964070779758515	27.780805995474257	2.15
C 	57.23598147929848	28.41218794991686	2.15
C 	57.325144017030105	29.829385904285	2.15
C 	58.59705471657007	30.4607678587276	2.15
C 	58.686217254301695	31.87796581309575	2.15
C 	59.95812795384166	32.50934776753834	2.15
C 	60.047290491573285	33.926545721906486	2.15
C 	61.31920119111326	34.557927676349074	2.15
C 	61.40836372884489	35.97512563071722	2.15
C 	62.68027442838485	36.606507585159825	2.15
C 	62.76943696611647	38.023705539527974	2.15
C 	64.04134766565645	38.65508749397056	2.15
C 	64.13051020338807	40.07228544833871	2.15
C 	65.40242090292803	40.703667402781306	2.15
C 	65.49158344065965	42.12086535714945	2.15
C 	66.76349414019963	42.75224731159206	2.15
C 	66.85265667793125	44.1694452659602	2.15
C 	68.12456737747121	44.800827220402795	2.15
C 	68.21372991520283	46.21802517477094	2.15
C 	69.48564061474282	46.84940712921353	2.15
C 	34.454386596607925	-0.7448786823931793	2.15
C 	35.72629729614789	-0.1134967279505847	2.15
C 	35.815459833879515	1.3037012264175627	2.15
C 	37.08737053341949	1.9350831808601563	2.15
C 	37.17653307115111	3.3522811352283037	2.15
C 	38.44844377069108	3.9836630896709013	2.15
C 	38.53760630842271	5.400861044039049	2.15
C 	39.809517007962675	6.03224299848164	2.15
C 	39.8986795456943	7.449440952849787	2.15
C 	41.17059024523426	8.080822907292385	2.15
C 	41.25975278296588	9.498020861660532	2.15
C 	42.531663482505856	10.129402816103122	2.15
C 	42.62082602023748	11.54660077047127	2.15
C 	43.892736719777446	12.177982724913868	2.15
C 	43.98189925750907	13.595180679282015	2.15
C 	45.253809957049036	14.226562633724612	2.15
C 	45.34297249478066	15.64376058809276	2.15
C 	46.61488319432062	16.27514254253535	2.15
C 	46.70404573205224	17.692340496903498	2.15
C 	47.975956431592216	18.323722451346097	2.15
C 	48.06511896932384	19.740920405714242	2.15
C 	49.33702966886381	20.37230236015684	2.15
C 	49.42619220659544	21.789500314524986	2.15
C 	50.69810290613541	22.420882268967578	2.15
C 	50.787265443867035	23.838080223335727	2.15
C 	52.05917614340699	24.469462177778325	2.15
C 	52.14833868113861	25.88666013214647	2.15
C 	53.420249380678584	26.51804208658907	2.15
C 	53.50941191841021	27.935240040957215	2.15
C 	54.781322617950174	28.566621995399807	2.15
C 	54.8704851556818	29.983819949767955	2.15
C 	56.14239585522177	30.61520190421055	2.15
C 	56.231558392953396	32.0323998585787	2.15
C 	57.50346909249335	32.663781813021295	2.15
C 	57.59263163022497	34.080979767389444	2.15
C 	58.864542329764944	34.71236172183203	2.15
C 	58.953704867496576	36.12955967620018	2.15
C 	60.22561556703654	36.76094163064277	2.15
C 	60.314778104768166	38.17813958501092	2.15
C 	61.58668880430814	38.80952153945353	2.15
C 	61.67585134203976	40.22671949382167	2.15
C 	62.94776204157973	40.858101448264264	2.15
C 	63.03692457931135	42.275299402632406	2.15
C 	64.30883527885132	42.906681357075	2.15
C 	64.39799781658294	44.32387931144315	2.15
C 	65.6699085161229	44.95526126588575	2.15
C 	31.999727735259622	-0.5904446369102275	2.15
C 	33.27163843479959	0.04093731753237021	2.15
C 	33.360800972531216	1.4581352719005176	2.15
C 	34.632711672071174	2.0895172263431117	2.15
C 	34.7218742098028	3.506715180711259	2.15
C 	35.993784909342764	4.138097135153854	2.15
C 	36.082947447074396	5.5552950895220015	2.15
C 	37.35485814661437	6.186677043964599	2.15
C 	37.44402068434599	7.603874998332746	2.15
C 	38.71593138388596	8.235256952775336	2.15
C 	38.80509392161758	9.652454907143484	2.15
C 	40.07700462115755	10.283836861586082	2.15
C 	40.16616715888917	11.701034815954229	2.15
C 	41.43807785842913	12.33241677039682	2.15
C 	41.52724039616076	13.749614724764967	2.15
C 	42.79915109570073	14.380996679207565	2.15
C 	42.888313633432354	15.798194633575712	2.15
C 	44.16022433297232	16.42957658801831	2.15
C 	44.249386870703944	17.846774542386456	2.15
C 	45.52129757024391	18.478156496829047	2.15
C 	45.610460107975534	19.895354451197196	2.15
C 	46.88237080751551	20.52673640563979	2.15
C 	46.97153334524713	21.94393436000794	2.15
C 	48.2434440447871	22.57531631445054	2.15
C 	48.33260658251872	23.992514268818685	2.15
C 	49.60451728205869	24.623896223261276	2.15
C 	49.69367981979031	26.04109417762942	2.15
C 	50.96559051933028	26.67247613207202	2.15
C 	51.0547530570619	28.08967408644017	2.15
C 	52.32666375660187	28.721056040882765	2.15
C 	52.41582629433349	30.138253995250913	2.15
C 	53.68773699387346	30.769635949693505	2.15
C 	53.77689953160508	32.18683390406165	2.15
C 	55.04881023114505	32.818215858504246	2.15
C 	55.13797276887667	34.235413812872395	2.15
C 	56.409883468416645	34.86679576731499	2.15
C 	56.49904600614827	36.28399372168314	2.15
C 	57.770956705688235	36.915375676125734	2.15
C 	57.86011924341986	38.332573630493876	2.15
C 	59.13202994295983	38.96395558493647	2.15
C 	59.22119248069146	40.38115353930461	2.15
C 	60.493103180231415	41.01253549374722	2.15
C 	60.58226571796304	42.42973344811537	2.15
C 	61.85417641750301	43.06111540255796	2.15
C 	61.94333895523464	44.47831335692611	2.15
C 	63.215249654774595	45.1096953113687	2.15
C 	29.545068873911315	-0.43601059142727905	2.15
C 	30.81697957345128	0.1953713630153187	2.15
C 	30.906142111182906	1.6125693173834625	2.15
C 	32.178052810722875	2.2439512718260635	2.15
C 	32.2672153484545	3.6611492261942074	2.15
C 	33.539126047994465	4.292531180636805	2.15
C 	33.6282885857261	5.709729135004949	2.15
C 	34.900199285266055	6.341111089447547	2.15
C 	34.98936182299768	7.75830904381569	2.15
C 	36.261272522537645	8.389690998258292	2.15
C 	36.35043506026927	9.806888952626435	2.15
C 	37.62234575980924	10.438270907069029	2.15
C 	37.71150829754087	11.855468861437174	2.15
C 	38.98341899708083	12.486850815879775	2.15
C 	39.07258153481246	13.904048770247918	2.15
C 	40.34449223435242	14.535430724690512	2.15
C 	40.43365477208405	15.952628679058657	2.15
C 	41.705565471624006	16.584010633501258	2.15
C 	41.79472800935563	18.001208587869403	2.15
C 	43.0666387088956	18.632590542312002	2.15
C 	43.15580124662723	20.049788496680147	2.15
C 	44.4277119461672	20.68117045112274	2.15
C 	44.516874483898825	22.098368405490884	2.15
C 	45.7887851834388	22.729750359933487	2.15
C 	45.87794772117042	24.14694831430163	2.15
C 	47.14985842071038	24.77833026874423	2.15
C 	47.239020958442005	26.195528223112373	2.15
C 	48.51093165798197	26.826910177554968	2.15
C 	48.600094195713595	28.244108131923113	2.15
C 	49.87200489525356	28.875490086365712	2.15
C 	49.961167432985185	30.292688040733857	2.15
C 	51.23307813252516	30.924069995176456	2.15
C 	51.32224067025678	32.3412679495446	2.15
C 	52.594151369796734	32.9726499039872	2.15
C 	52.68331390752836	34.38984785835534	2.15
C 	53.95522460706834	35.02122981279795	2.15
C 	54.04438714479996	36.43842776716608	2.15
C 	55.31629784433993	37.069809721608685	2.15
C 	55.40546038207155	38.487007675976834	2.15
C 	56.677371081611525	39.11838963041942	2.15
C 	56.76653361934315	40.53558758478757	2.15
C 	58.038444318883116	41.16696953923016	2.15
C 	58.12760685661474	42.58416749359831	2.15
C 	59.3995175561547	43.21554944804091	2.15
C 	59.48868009388632	44.63274740240906	2.15
C 	60.76059079342629	45.26412935685165	2.15
C 	27.090410012563005	-0.28157654594432346	2.15
C 	28.36232071210297	0.34980540849827074	2.15
C 	28.451483249834595	1.7670033628664181	2.15
C 	29.723393949374568	2.398385317309012	2.15
C 	29.812556487106193	3.815583271677159	2.15
C 	31.084467186646155	4.446965226119757	2.15
C 	31.17362972437778	5.864163180487905	2.15
C 	32.44554042391775	6.495545134930499	2.15
C 	32.53470296164937	7.912743089298646	2.15
C 	33.80661366118934	8.544125043741241	2.15
C 	33.89577619892096	9.961322998109388	2.15
C 	35.16768689846093	10.592704952551985	2.15
C 	35.25684943619255	12.009902906920132	2.15
C 	36.52876013573252	12.641284861362724	2.15
C 	36.61792267346414	14.058482815730871	2.15
C 	37.889833373004116	14.689864770173468	2.15
C 	37.97899591073574	16.107062724541617	2.15
C 	39.2509066102757	16.738444678984205	2.15
C 	39.34006914800732	18.155642633352354	2.15
C 	40.611979847547296	18.78702458779495	2.15
C 	40.70114238527892	20.204222542163098	2.15
C 	41.973053084818886	20.835604496605697	2.15
C 	42.06221562255051	22.252802450973842	2.15
C 	43.33412632209048	22.884184405416434	2.15
C 	43.42328885982211	24.301382359784583	2.15
C 	44.695199559362074	24.932764314227178	2.15
C 	44.7843620970937	26.349962268595327	2.15
C 	46.056272796633664	26.981344223037926	2.15
C 	46.14543533436529	28.39854217740607	2.15
C 	47.417346033905254	29.029924131848663	2.15
C 	47.50650857163688	30.447122086216808	2.15
C 	48.778419271176844	31.078504040659407	2.15
C 	48.86758180890847	32.49570199502755	2.15
C 	50.139492508448434	33.127083949470155	2.15
C 	50.22865504618006	34.544281903838296	2.15
C 	51.500565745720024	35.17566385828089	2.15
C 	51.589728283451656	36.59286181264904	2.15
C 	52.86163898299162	37.224243767091636	2.15
C 	52.950801520723246	38.641441721459785	2.15
C 	54.22271222026321	39.27282367590238	2.15
C 	54.311874757994836	40.69002163027053	2.15
C 	55.5837854575348	41.32140358471312	2.15
C 	55.672947995266426	42.738601539081266	2.15
C 	56.9448586948064	43.369983493523854	2.15
C 	57.034021232538024	44.787181447892	2.15
C 	58.30593193207798	45.418563402334605	2.15
C 	24.6357511512147	-0.12714250046137143	2.15
C 	25.907661850754664	0.5042394539812263	2.15
C 	25.996824388486292	1.9214374083493737	2.15
C 	27.26873508802626	2.5528193627919675	2.15
C 	27.357897625757886	3.9700173171601145	2.15
C 	28.629808325297848	4.601399271602709	2.15
C 	28.718970863029472	6.018597225970857	2.15
C 	29.99088156256944	6.649979180413454	2.15
C 	30.080044100301066	8.067177134781602	2.15
C 	31.351954799841028	8.698559089224196	2.15
C 	31.441117337572656	10.115757043592343	2.15
C 	32.71302803711262	10.747138998034936	2.15
C 	32.802190574844246	12.164336952403085	2.15
C 	34.07410127438421	12.795718906845682	2.15
C 	34.16326381211584	14.212916861213829	2.15
C 	35.4351745116558	14.844298815656419	2.15
C 	35.52433704938743	16.261496770024568	2.15
C 	36.79624774892739	16.892878724467167	2.15
C 	36.88541028665902	18.310076678835312	2.15
C 	38.15732098619899	18.941458633277904	2.15
C 	38.246483523930614	20.35865658764605	2.15
C 	39.51839422347058	20.990038542088648	2.15
C 	39.607556761202204	22.407236496456797	2.15
C 	40.87946746074218	23.038618450899392	2.15
C 	40.9686299984738	24.45581640526754	2.15
C 	42.24054069801376	25.087198359710133	2.15
C 	42.329703235745384	26.504396314078278	2.15
C 	43.60161393528536	27.135778268520877	2.15
C 	43.69077647301698	28.552976222889022	2.15
C 	44.96268717255695	29.18435817733162	2.15
C 	45.05184971028857	30.60155613169977	2.15
C 	46.32376040982854	31.232938086142358	2.15
C 	46.41292294756016	32.6501360405105	2.15
C 	47.68483364710012	33.281517994953106	2.15
C 	47.773996184831745	34.698715949321254	2.15
C 	49.045906884371725	35.33009790376385	2.15
C 	49.13506942210335	36.747295858132	2.15
C 	50.40698012164331	37.37867781257459	2.15
C 	50.49614265937493	38.795875766942736	2.15
C 	51.768053358914905	39.42725772138533	2.15
C 	51.85721589664653	40.84445567575348	2.15
C 	53.12912659618649	41.475837630196075	2.15
C 	53.21828913391811	42.893035584564224	2.15
C 	54.490199833458085	43.52441753900681	2.15
C 	54.57936237118971	44.94161549337496	2.15
C 	55.851273070729675	45.572997447817556	2.15
C 	22.181092289866392	0.027291545021576817	2.15
C 	23.453002989406357	0.6586734994641745	2.15
C 	23.542165527137982	2.075871453832318	2.15
C 	24.81407622667795	2.70725340827492	2.15
C 	24.903238764409576	4.124451362643064	2.15
C 	26.17514946394954	4.755833317085661	2.15
C 	26.264312001681166	6.173031271453805	2.15
C 	27.536222701221135	6.804413225896402	2.15
C 	27.62538523895276	8.221611180264546	2.15
C 	28.89729593849272	8.852993134707148	2.15
C 	28.98645847622435	10.270191089075292	2.15
C 	30.25836917576432	10.901573043517889	2.15
C 	30.347531713495943	12.318770997886032	2.15
C 	31.619442413035905	12.950152952328631	2.15
C 	31.70860495076753	14.367350906696775	2.15
C 	32.9805156503075	14.998732861139375	2.15
C 	33.06967818803913	16.41593081550752	2.15
C 	34.341588887579086	17.047312769950114	2.15
C 	34.43075142531071	18.464510724318256	2.15
C 	35.702662124850676	19.09589267876086	2.15
C 	35.7918246625823	20.513090633129003	2.15
C 	37.06373536212227	21.144472587571595	2.15
C 	37.1528978998539	22.56167054193974	2.15
C 	38.42480859939387	23.193052496382343	2.15
C 	38.513971137125495	24.610250450750485	2.15
C 	39.78588183666545	25.241632405193087	2.15
C 	39.87504437439708	26.65883035956123	2.15
C 	41.14695507393705	27.290212314003824	2.15
C 	41.236117611668675	28.70741026837197	2.15
C 	42.50802831120864	29.33879222281457	2.15
C 	42.597190848940265	30.755990177182714	2.15
C 	43.86910154848023	31.387372131625312	2.15
C 	43.958264086211855	32.80457008599346	2.15
C 	45.23017478575182	33.43595204043605	2.15
C 	45.319337323483445	34.8531499948042	2.15
C 	46.59124802302342	35.4845319492468	2.15
C 	46.68041056075504	36.90172990361494	2.15
C 	47.95232126029501	37.53311185805754	2.15
C 	48.04148379802663	38.95030981242569	2.15
C 	49.3133944975666	39.581691766868275	2.15
C 	49.40255703529822	40.998889721236424	2.15
C 	50.67446773483819	41.630271675679026	2.15
C 	50.76363027256981	43.04746963004717	2.15
C 	52.03554097210978	43.67885158448977	2.15
C 	52.1247035098414	45.09604953885791	2.15
C 	53.39661420938137	45.72743149330051	2.15
C 	19.726433428518085	0.1817255905045304	2.15
C 	20.99834412805805	0.8131075449471263	2.15
C 	21.087506665789675	2.2303054993152718	2.15
C 	22.359417365329644	2.861687453757868	2.15
C 	22.44857990306127	4.278885408126014	2.15
C 	23.720490602601235	4.910267362568613	2.15
C 	23.80965314033286	6.327465316936759	2.15
C 	25.08156383987283	6.958847271379354	2.15
C 	25.170726377604453	8.3760452257475	2.15
C 	26.442637077144415	9.007427180190096	2.15
C 	26.531799614876043	10.42462513455824	2.15
C 	27.803710314416012	11.056007089000842	2.15
C 	27.892872852147637	12.473205043368987	2.15
C 	29.1647835516876	13.104586997811582	2.15
C 	29.253946089419223	14.521784952179726	2.15
C 	30.525856788959192	15.153166906622324	2.15
C 	30.615019326690817	16.57036486099047	2.15
C 	31.886930026230782	17.20174681543307	2.15
C 	31.976092563962407	18.618944769801217	2.15
C 	33.248003263502376	19.250326724243806	2.15
C 	33.337165801234	20.667524678611954	2.15
C 	34.609076500773966	21.298906633054553	2.15
C 	34.69823903850559	22.7161045874227	2.15
C 	35.970149738045556	23.34748654186529	2.15
C 	36.05931227577718	24.764684496233436	2.15
C 	37.33122297531715	25.396066450676035	2.15
C 	37.42038551304877	26.813264405044183	2.15
C 	38.692296212588744	27.44464635948678	2.15
C 	38.78145875032037	28.861844313854927	2.15
C 	40.05336944986033	29.49322626829752	2.15
C 	40.14253198759195	30.910424222665664	2.15
C 	41.414442687131924	31.541806177108263	2.15
C 	41.50360522486355	32.95900413147641	2.15
C 	42.775515924403514	33.59038608591901	2.15
C 	42.86467846213514	35.007584040287156	2.15
C 	44.136589161675104	35.638965994729745	2.15
C 	44.225751699406736	37.05616394909789	2.15
C 	45.497662398946694	37.68754590354049	2.15
C 	45.58682493667832	39.10474385790864	2.15
C 	46.85873563621829	39.73612581235123	2.15
C 	46.947898173949916	41.15332376671938	2.15
C 	48.219808873489875	41.78470572116198	2.15
C 	48.3089714112215	43.20190367553012	2.15
C 	49.58088211076147	43.83328562997272	2.15
C 	49.670044648493096	45.25048358434086	2.15
C 	50.941955348033055	45.881865538783465	2.15
C 	17.271774567169775	0.3361596359874822	2.15
C 	18.543685266709744	0.9675415904300781	2.15
C 	18.63284780444137	2.3847395447982236	2.15
C 	19.904758503981338	3.01612149924082	2.15
C 	19.993921041712962	4.4333194536089655	2.15
C 	21.265831741252928	5.064701408051561	2.15
C 	21.354994278984552	6.481899362419707	2.15
C 	22.626904978524518	7.113281316862306	2.15
C 	22.716067516256143	8.530479271230451	2.15
C 	23.987978215796108	9.161861225673048	2.15
C 	24.077140753527736	10.579059180041193	2.15
C 	25.349051453067705	11.210441134483789	2.15
C 	25.43821399079933	12.627639088851934	2.15
C 	26.710124690339292	13.259021043294535	2.15
C 	26.799287228070916	14.676218997662678	2.15
C 	28.071197927610886	15.307600952105275	2.15
C 	28.16036046534251	16.724798906473424	2.15
C 	29.432271164882472	17.356180860916016	2.15
C 	29.5214337026141	18.77337881528416	2.15
C 	30.79334440215407	19.404760769726764	2.15
C 	30.882506939885694	20.821958724094905	2.15
C 	32.15441763942566	21.4533406785375	2.15
C 	32.243580177157284	22.870538632905642	2.15
C 	33.51549087669725	23.501920587348245	2.15
C 	33.604653414428874	24.91911854171639	2.15
C 	34.87656411396884	25.550500496158982	2.15
C 	34.965726651700464	26.967698450527127	2.15
C 	36.23763735124043	27.59908040496973	2.15
C 	36.326799888972054	29.01627835933787	2.15
C 	37.59871058851202	29.647660313780474	2.15
C 	37.687873126243645	31.06485826814862	2.15
C 	38.95978382578362	31.696240222591214	2.15
C 	39.04894636351524	33.113438176959356	2.15
C 	40.32085706305521	33.74482013140195	2.15
C 	40.41001960078683	35.1620180857701	2.15
C 	41.681930300326805	35.7934000402127	2.15
C 	41.77109283805843	37.210597994580844	2.15
C 	43.043003537598395	37.84197994902344	2.15
C 	43.13216607533002	39.25917790339158	2.15
C 	44.404076774869985	39.890559857834184	2.15
C 	44.49323931260161	41.307757812202325	2.15
C 	45.765150012141575	41.939139766644935	2.15
C 	45.8543125498732	43.35633772101307	2.15
C 	47.126223249413165	43.98771967545567	2.15
C 	47.21538578714479	45.404917629823814	2.15
C 	48.487296486684755	46.03629958426641	2.15
C 	14.81711570582147	0.49059368147043414	2.15
C 	16.089026405361437	1.1219756359130317	2.15
C 	16.178188943093062	2.539173590281177	2.15
C 	17.450099642633027	3.1705555447237734	2.15
C 	17.539262180364652	4.587753499091919	2.15
C 	18.81117287990462	5.2191354535345145	2.15
C 	18.900335417636246	6.636333407902661	2.15
C 	20.17224611717621	7.267715362345256	2.15
C 	20.261408654907836	8.684913316713402	2.15
C 	21.5333193544478	9.316295271156001	2.15
C 	21.62248189217943	10.733493225524146	2.15
C 	22.8943925917194	11.364875179966743	2.15
C 	22.983555129451023	12.782073134334889	2.15
C 	24.255465828990985	13.413455088777484	2.15
C 	24.34462836672261	14.83065304314563	2.15
C 	25.61653906626258	15.462034997588228	2.15
C 	25.705701603994203	16.879232951956375	2.15
C 	26.97761230353417	17.510614906398974	2.15
C 	27.066774841265794	18.927812860767116	2.15
C 	28.338685540805763	19.55919481520971	2.15
C 	28.427848078537387	20.976392769577856	2.15
C 	29.69975877807735	21.607774724020455	2.15
C 	29.788921315808974	23.024972678388604	2.15
C 	31.060832015348943	23.656354632831192	2.15
C 	31.149994553080568	25.07355258719934	2.15
C 	32.42190525262053	25.70493454164194	2.15
C 	32.51106779035216	27.122132496010085	2.15
C 	33.78297848989212	27.753514450452677	2.15
C 	33.872141027623755	29.170712404820822	2.15
C 	35.14405172716371	29.80209435926342	2.15
C 	35.23321426489534	31.21929231363157	2.15
C 	36.5051249644353	31.850674268074165	2.15
C 	36.59428750216693	33.267872222442314	2.15
C 	37.866198201706894	33.8992541768849	2.15
C 	37.95536073943852	35.31645213125305	2.15
C 	39.22727143897849	35.947834085695646	2.15
C 	39.31643397671012	37.365032040063795	2.15
C 	40.58834467625009	37.9964139945064	2.15
C 	40.67750721398171	39.41361194887454	2.15
C 	41.94941791352168	40.044993903317135	2.15
C 	42.0385804512533	41.462191857685276	2.15
C 	43.31049115079326	42.09357381212788	2.15
C 	43.399653688524886	43.51077176649603	2.15
C 	44.67156438806486	44.14215372093862	2.15
C 	44.76072692579648	45.55935167530677	2.15
C 	46.03263762533644	46.19073362974936	2.15
C 	12.362456844473162	0.6450277269533862	2.15
C 	13.63436754401313	1.2764096813959838	2.15
C 	13.723530081744755	2.6936076357641294	2.15
C 	14.99544078128472	3.324989590206727	2.15
C 	15.084603319016347	4.742187544574873	2.15
C 	16.35651401855631	5.373569499017468	2.15
C 	16.44567655628794	6.790767453385614	2.15
C 	17.7175872558279	7.4221494078282095	2.15
C 	17.806749793559526	8.839347362196355	2.15
C 	19.078660493099495	9.470729316638952	2.15
C 	19.167823030831123	10.887927271007097	2.15
C 	20.43973373037109	11.519309225449696	2.15
C 	20.528896268102713	12.936507179817841	2.15
C 	21.80080696764268	13.567889134260438	2.15
C 	21.889969505374303	14.985087088628582	2.15
C 	23.16188020491427	15.616469043071179	2.15
C 	23.251042742645893	17.033666997439326	2.15
C 	24.522953442185862	17.665048951881925	2.15
C 	24.612115979917487	19.082246906250074	2.15
C 	25.884026679457453	19.713628860692666	2.15
C 	25.973189217189077	21.13082681506081	2.15
C 	27.245099916729043	21.762208769503406	2.15
C 	27.334262454460667	23.179406723871555	2.15
C 	28.606173154000633	23.810788678314154	2.15
C 	28.69533569173226	25.2279866326823	2.15
C 	29.967246391272226	25.85936858712489	2.15
C 	30.05640892900385	27.276566541493036	2.15
C 	31.328319628543817	27.907948495935635	2.15
C 	31.41748216627544	29.325146450303784	2.15
C 	32.68939286581541	29.956528404746372	2.15
C 	32.77855540354703	31.37372635911452	2.15
C 	34.050466103087	32.005108313557116	2.15
C 	34.13962864081862	33.422306267925265	2.15
C 	35.41153934035859	34.05368822236786	2.15
C 	35.50070187809021	35.47088617673601	2.15
C 	36.77261257763018	36.102268131178604	2.15
C 	36.86177511536181	37.519466085546746	2.15
C 	38.13368581490178	38.15084803998935	2.15
C 	38.222848352633406	39.56804599435749	2.15
C 	39.49475905217337	40.19942794880009	2.15
C 	39.583921589904996	41.61662590316824	2.15
C 	40.85583228944496	42.24800785761083	2.15
C 	40.944994827176586	43.66520581197898	2.15
C 	42.21690552671655	44.296587766421574	2.15
C 	42.306068064448176	45.71378572078972	2.15
C 	43.57797876398814	46.34516767523232	2.15
C 	9.907797983124855	0.799461772436338	2.15
C 	11.179708682664822	1.430843726878934	2.15
C 	11.268871220396447	2.8480416812470795	2.15
C 	12.540781919936414	3.479423635689677	2.15
C 	12.629944457668039	4.896621590057823	2.15
C 	13.901855157208006	5.528003544500421	2.15
C 	13.99101769493963	6.945201498868566	2.15
C 	15.262928394479596	7.576583453311162	2.15
C 	15.352090932211222	8.993781407679307	2.15
C 	16.624001631751188	9.625163362121903	2.15
C 	16.713164169482813	11.042361316490048	2.15
C 	17.985074869022778	11.673743270932645	2.15
C 	18.074237406754403	13.09094122530079	2.15
C 	19.346148106294372	13.72232317974339	2.15
C 	19.435310644025996	15.139521134111533	2.15
C 	20.707221343565962	15.770903088554132	2.15
C 	20.796383881297587	17.188101042922277	2.15
C 	22.068294580837552	17.819482997364872	2.15
C 	22.15745711856918	19.236680951733018	2.15
C 	23.429367818109146	19.868062906175616	2.15
C 	23.51853035584077	21.28526086054376	2.15
C 	24.790441055380736	21.91664281498636	2.15
C 	24.87960359311236	23.333840769354506	2.15
C 	26.151514292652326	23.9652227237971	2.15
C 	26.24067683038395	25.382420678165246	2.15
C 	27.51258752992392	26.013802632607845	2.15
C 	27.601750067655544	27.43100058697599	2.15
C 	28.87366076719551	28.062382541418582	2.15
C 	28.962823304927134	29.479580495786728	2.15
C 	30.2347340044671	30.11096245022933	2.15
C 	30.323896542198725	31.52816040459747	2.15
C 	31.59580724173869	32.15954235904007	2.15
C 	31.68496977947032	33.57674031340821	2.15
C 	32.95688047901028	34.20812226785081	2.15
C 	33.046043016741905	35.62532022221895	2.15
C 	34.31795371628188	36.25670217666156	2.15
C 	34.4071162540135	37.673900131029704	2.15
C 	35.67902695355347	38.3052820854723	2.15
C 	35.76818949128509	39.72248003984044	2.15
C 	37.04010019082506	40.35386199428304	2.15
C 	37.12926272855668	41.771059948651185	2.15
C 	38.401173428096655	42.40244190309379	2.15
C 	38.49033596582828	43.81963985746193	2.15
C 	39.762246665368245	44.451021811904525	2.15
C 	39.85140920309987	45.86821976627267	2.15
C 	41.12331990263983	46.49960172071526	2.15
C 	7.453139121776548	0.9538958179192898	2.15
C 	8.725049821316514	1.5852777723618867	2.15
C 	8.814212359048138	3.002475726730032	2.15
C 	10.086123058588106	3.633857681172628	2.15
C 	10.17528559631973	5.051055635540774	2.15
C 	11.4471962958597	5.682437589983372	2.15
C 	11.536358833591324	7.099635544351517	2.15
C 	12.80826953313129	7.731017498794114	2.15
C 	12.897432070862916	9.148215453162262	2.15
C 	14.169342770402881	9.779597407604856	2.15
C 	14.258505308134506	11.196795361973003	2.15
C 	15.530416007674472	11.828177316415596	2.15
C 	15.619578545406098	13.245375270783745	2.15
C 	16.89148924494606	13.876757225226338	2.15
C 	16.98065178267769	15.293955179594485	2.15
C 	18.25256248221765	15.925337134037083	2.15
C 	18.341725019949276	17.34253508840523	2.15
C 	19.613635719489245	17.973917042847823	2.15
C 	19.702798257220874	19.391114997215972	2.15
C 	20.97470895676084	20.022496951658567	2.15
C 	21.063871494492464	21.439694906026713	2.15
C 	22.33578219403243	22.07107686046931	2.15
C 	22.424944731764054	23.48827481483746	2.15
C 	23.69685543130402	24.119656769280052	2.15
C 	23.786017969035647	25.5368547236482	2.15
C 	25.057928668575613	26.168236678090793	2.15
C 	25.147091206307238	27.58543463245894	2.15
C 	26.419001905847203	28.21681658690154	2.15
C 	26.508164443578828	29.634014541269686	2.15
C 	27.780075143118793	30.265396495712277	2.15
C 	27.869237680850418	31.682594450080426	2.15
C 	29.141148380390383	32.313976404523025	2.15
C 	29.23031091812201	33.73117435889117	2.15
C 	30.502221617661977	34.36255631333376	2.15
C 	30.5913841553936	35.77975426770191	2.15
C 	31.863294854933567	36.411136222144506	2.15
C 	31.952457392665192	37.828334176512655	2.15
C 	33.22436809220516	38.45971613095525	2.15
C 	33.313530629936785	39.8769140853234	2.15
C 	34.58544132947675	40.50829603976599	2.15
C 	34.674603867208376	41.925493994134136	2.15
C 	35.94651456674835	42.55687594857673	2.15
C 	36.03567710447997	43.97407390294488	2.15
C 	37.30758780401993	44.605455857387476	2.15
C 	37.396750341751556	46.022653811755625	2.15
C 	38.66866104129153	46.65403576619821	2.15
C 	3.6374070231566487	-0.9402500454085007	2.15
C 	4.909317722696615	-0.3088680909659038	2.15
C 	4.998480260428241	1.1083298634022418	2.15
C 	6.270390959968207	1.7397118178448385	2.15
C 	6.3595534976998325	3.156909772212984	2.15
C 	7.631464197239798	3.788291726655581	2.15
C 	7.7206267349714235	5.205489681023726	2.15
C 	8.992537434511389	5.836871635466323	2.15
C 	9.081699972243014	7.254069589834468	2.15
C 	10.353610671782981	7.885451544277066	2.15
C 	10.442773209514607	9.302649498645211	2.15
C 	11.714683909054573	9.934031453087808	2.15
C 	11.803846446786197	11.351229407455955	2.15
C 	13.075757146326163	11.98261136189855	2.15
C 	13.16491968405779	13.399809316266696	2.15
C 	14.436830383597755	14.031191270709291	2.15
C 	14.52599292132938	15.448389225077438	2.15
C 	15.797903620869345	16.079771179520034	2.15
C 	15.887066158600971	17.49696913388818	2.15
C 	17.15897685814094	18.12835108833078	2.15
C 	17.248139395872563	19.545549042698923	2.15
C 	18.52005009541253	20.17693099714152	2.15
C 	18.609212633144153	21.594128951509667	2.15
C 	19.881123332684123	22.225510905952262	2.15
C 	19.970285870415747	23.642708860320408	2.15
C 	21.242196569955713	24.274090814763007	2.15
C 	21.33135910768734	25.691288769131152	2.15
C 	22.603269807227306	26.322670723573747	2.15
C 	22.69243234495893	27.739868677941892	2.15
C 	23.964343044498897	28.37125063238449	2.15
C 	24.05350558223052	29.788448586752637	2.15
C 	25.325416281770487	30.419830541195235	2.15
C 	25.41457881950211	31.837028495563384	2.15
C 	26.686489519042077	32.468410450005976	2.15
C 	26.775652056773705	33.885608404374125	2.15
C 	28.04756275631367	34.51699035881672	2.15
C 	28.136725294045295	35.93418831318486	2.15
C 	29.40863599358526	36.56557026762746	2.15
C 	29.497798531316885	37.9827682219956	2.15
C 	30.76970923085685	38.6141501764382	2.15
C 	30.85887176858848	40.03134813080635	2.15
C 	32.130782468128444	40.662730085248945	2.15
C 	32.21994500586007	42.07992803961709	2.15
C 	33.491855705400035	42.71130999405968	2.15
C 	33.58101824313166	44.128507948427824	2.15
C 	34.85292894267163	44.75988990287043	2.15
C 	34.942091480403256	46.177087857238575	2.15
C 	36.21400217994322	46.80846981168118	2.15
C 	2.4546588613483076	-0.1544340454829519	2.15
C 	2.5438213990799325	1.2627639088851936	2.15
C 	3.815732098619899	1.8941458633277906	2.15
C 	3.9048946363515245	3.311343817695936	2.15
C 	5.1768053358914905	3.942725772138533	2.15
C 	5.265967873623116	5.359923726506678	2.15
C 	6.5378785731630815	5.991305680949275	2.15
C 	6.627041110894707	7.4085036353174205	2.15
C 	7.8989518104346725	8.039885589760017	2.15
C 	7.988114348166298	9.457083544128162	2.15
C 	9.260025047706264	10.08846549857076	2.15
C 	9.349187585437889	11.505663452938906	2.15
C 	10.621098284977856	12.137045407381503	2.15
C 	10.710260822709483	13.554243361749648	2.15
C 	11.982171522249448	14.185625316192246	2.15
C 	12.071334059981073	15.602823270560389	2.15
C 	13.343244759521038	16.234205225002988	2.15
C 	13.432407297252665	17.65140317937113	2.15
C 	14.70431799679263	18.28278513381373	2.15
C 	14.793480534524255	19.699983088181874	2.15
C 	16.065391234064222	20.331365042624473	2.15
C 	16.154553771795847	21.748562996992618	2.15
C 	17.426464471335816	22.379944951435213	2.15
C 	17.51562700906744	23.79714290580336	2.15
C 	18.787537708607402	24.428524860245957	2.15
C 	18.876700246339027	25.8457228146141	2.15
C 	20.148610945879	26.4771047690567	2.15
C 	20.237773483610624	27.894302723424847	2.15
C 	21.50968418315059	28.525684677867442	2.15
C 	21.598846720882214	29.942882632235587	2.15
C 	22.87075742042218	30.574264586678183	2.15
C 	22.959919958153804	31.991462541046328	2.15
C 	24.23183065769377	32.62284449548893	2.15
C 	24.320993195425398	34.040042449857076	2.15
C 	25.592903894965364	34.671424404299664	2.15
C 	25.68206643269699	36.08862235866781	2.15
C 	26.953977132236954	36.72000431311041	2.15
C 	27.04313966996858	38.13720226747856	2.15
C 	28.315050369508544	38.768584221921145	2.15
C 	28.40421290724017	40.185782176289294	2.15
C 	29.676123606780134	40.81716413073189	2.15
C 	29.765286144511762	42.23436208510004	2.15
C 	31.037196844051728	42.86574403954264	2.15
C 	31.126359381783352	44.28294199391078	2.15
C 	32.39827008132332	44.91432394835338	2.15
C 	2.722146474543183	4.097159817621485	2.15
C 	2.8113090122748083	5.51435777198963	2.15
C 	4.083219711814775	6.145739726432227	2.15
C 	4.1723822495464	7.562937680800372	2.15
C 	5.444292949086366	8.19431963524297	2.15
C 	5.533455486817991	9.611517589611115	2.15
C 	6.805366186357957	10.242899544053712	2.15
C 	6.894528724089582	11.660097498421857	2.15
C 	8.16643942362955	12.291479452864454	2.15
C 	8.255601961361174	13.7086774072326	2.15
C 	9.52751266090114	14.340059361675197	2.15
C 	9.616675198632764	15.757257316043342	2.15
C 	10.888585898172732	16.38863927048594	2.15
C 	10.977748435904358	17.805837224854088	2.15
C 	12.249659135444324	18.43721917929668	2.15
C 	12.338821673175948	19.854417133664825	2.15
C 	13.610732372715914	20.485799088107424	2.15
C 	13.69989491044754	21.90299704247557	2.15
C 	14.971805609987506	22.534378996918168	2.15
C 	15.060968147719132	23.951576951286313	2.15
C 	16.3328788472591	24.58295890572891	2.15
C 	16.422041384990724	26.000156860097054	2.15
C 	17.69395208453069	26.63153881453965	2.15
C 	17.783114622262314	28.048736768907798	2.15
C 	19.05502532180228	28.680118723350393	2.15
C 	19.144187859533904	30.097316677718542	2.15
C 	20.416098559073873	30.728698632161137	2.15
C 	20.505261096805498	32.14589658652928	2.15
C 	21.777171796345463	32.77727854097188	2.15
C 	21.86633433407709	34.19447649534003	2.15
C 	23.138245033617057	34.82585844978262	2.15
C 	23.22740757134868	36.24305640415077	2.15
C 	24.499318270888647	36.87443835859336	2.15
C 	24.58848080862027	38.29163631296151	2.15
C 	25.860391508160237	38.9230182674041	2.15
C 	25.949554045891865	40.34021622177225	2.15
C 	27.221464745431827	40.97159817621485	2.15
C 	27.310627283163456	42.38879613058299	2.15
C 	28.58253798270342	43.02017808502559	2.15
C 	28.671700520435046	44.43737603939373	2.15
C 	29.94361121997501	45.068757993836336	2.15
C 	19.322512934997153	32.93171258645483	2.15
C 	19.41167547272878	34.34891054082298	2.15
C 	20.68358617226875	34.98029249526557	2.15
C 	20.772748710000375	36.397490449633715	2.15
C 	22.04465940954034	37.02887240407632	2.15
C 	22.133821947271965	38.44607035844446	2.15
C 	23.40573264681193	39.07745231288706	2.15
C 	23.494895184543555	40.494650267255196	2.15
C 	24.766805884083524	41.126032221697805	2.15
C 	24.85596842181515	42.54323017606594	2.15
C 	26.127879121355114	43.17461213050854	2.15
C 	26.21704165908674	44.591810084876684	2.15
C 	27.488952358626705	45.22319203931929	2.15
H 	52.92963019703072	-0.8651862259499133	2.15
H 	55.177866715231644	0.25084807380424634	2.15
H 	56.538939952503235	2.29942798261499	2.15
H 	57.900013189774825	4.348007891425734	2.15
H 	59.26108642704642	6.396587800236474	2.15
H 	60.62215966431801	8.44516770904722	2.15
H 	61.9832329015896	10.493747617857968	2.15
H 	63.344306138861185	12.542327526668698	2.15
H 	63.50191034287977	15.047374615023665	2.15
H 	50.47497133568239	-0.7107521804669606	2.15
H 	63.61179375205606	16.79392138977314	2.15
H 	64.97286698932766	18.842501298583883	2.15
H 	66.33394022659925	20.891081207394624	2.15
H 	67.69501346387085	22.939661116205368	2.15
H 	69.05608670114243	24.988241025016123	2.15
H 	70.41715993841403	27.036820933826853	2.15
H 	71.7782331756856	29.08540084263758	2.15
H 	73.13930641295721	31.133980751448355	2.15
H 	74.5003796502288	33.18256066025909	2.15
H 	75.86145288750039	35.23114056906983	2.15
H 	76.01905709151896	37.736187657424786	2.15
H 	48.020312474334105	-0.5563181349840168	2.15
H 	74.92547146744224	39.93920161171848	2.15
H 	45.56565361298578	-0.40188408950105703	2.15
H 	73.83188584336554	42.142215566012176	2.15
H 	43.11099475163749	-0.2474500440181132	2.15
H 	72.73830021928883	44.34522952030586	2.15
H 	40.656335890289164	-0.09301599853515297	2.15
H 	71.64471459521211	46.54824347459956	2.15
H 	36.84060379166929	-1.9871618618629507	2.15
H 	39.088840309870214	-0.8711275621087833	2.15
H 	67.30584576282882	46.821221963446185	2.15
H 	69.55408228102979	47.93725626320035	2.15
H 	34.38594493032096	-1.832727816379995	2.15
H 	65.73835018240983	46.04311039987257	2.15
H 	31.931286068972664	-1.6782937708970436	2.15
H 	63.28369132106154	46.19754444535551	2.15
H 	29.476627207624368	-1.5238597254140953	2.15
H 	60.82903245971324	46.35197849083846	2.15
H 	27.021968346276054	-1.3694256799311395	2.15
H 	58.37437359836493	46.50641253632142	2.15
H 	24.567309484927748	-1.2149916344481877	2.15
H 	55.919714737016626	46.66084658180437	2.15
H 	22.11265062357944	-1.0605575889652394	2.15
H 	53.46505587566832	46.81528062728732	2.15
H 	19.657991762231134	-0.9061235434822857	2.15
H 	51.01039701431999	46.96971467277028	2.15
H 	17.203332900882817	-0.7516894979993335	2.15
H 	48.555738152971706	47.124148718253224	2.15
H 	14.748674039534516	-0.5972554525163818	2.15
H 	46.101079291623385	47.278582763736175	2.15
H 	12.294015178186205	-0.44282140703342954	2.15
H 	43.64642043027509	47.43301680921913	2.15
H 	9.839356316837904	-0.28838736155047795	2.15
H 	41.19176156892677	47.58745085470208	2.15
H 	7.384697455489597	-0.13395331606752614	2.15
H 	38.73710270757848	47.74188490018503	2.15
H 	3.568965356869697	-2.0280991793953165	2.15
H 	5.817201875070624	-0.912064879641149	2.15
H 	34.03420732802925	46.780284645913824	2.15
H 	36.28244384623017	47.89631894566799	2.15
H 	1.4783330426873476	-0.6390863907945229	2.15
H 	1.6359372467059239	1.8659606975604386	2.15
H 	32.46671174761027	46.00217308234019	2.15
H 	1.745820655882223	3.6125074723099138	2.15
H 	1.9034248599007997	6.117554560664875	2.15
H 	3.2644980971723916	8.166134469475617	2.15
H 	4.625571334443983	10.21471437828636	2.15
H 	5.9866445717155745	12.263294287097104	2.15
H 	7.347717808987165	14.311874195907844	2.15
H 	8.708791046258755	16.360454104718585	2.15
H 	10.069864283530354	18.40903401352934	2.15
H 	11.430937520801939	20.45761392234007	2.15
H 	12.79201075807353	22.506193831150814	2.15
H 	14.153083995345122	24.554773739961558	2.15
H 	15.514157232616718	26.603353648772302	2.15
H 	16.875230469888308	28.651933557583046	2.15
H 	18.236303707159898	30.70051346639379	2.15
H 	30.012052886261962	46.15660712782315	2.15
H 	18.346187116336193	32.447060241143255	2.15
H 	18.503791320354775	34.952107329498226	2.15
H 	19.864864557626362	37.00068723830895	2.15
H 	21.225937794897956	39.0492671471197	2.15
H 	22.587011032169535	41.09784705593042	2.15
H 	23.948084269441136	43.146426964741174	2.15
H 	25.30915750671273	45.195006873551925	2.15
H 	27.557394024913656	46.3110411733061	2.15
