2316

C 	0.0	0.0	0.0
C 	1.2297560733739028	0.7099999999999999	0.0
C 	2.4595121467478056	-2.3647750424515833e-16	0.0
C 	3.689268220121708	0.7099999999999995	0.0
C 	4.919024293495611	-4.729550084903167e-16	0.0
C 	6.148780366869514	0.7099999999999993	0.0
C 	7.378536440243416	-7.09432512735475e-16	0.0
C 	8.60829251361732	0.7099999999999991	0.0
C 	9.838048586991222	-9.459100169806333e-16	0.0
C 	11.067804660365125	0.7099999999999989	0.0
C 	12.297560733739026	-1.1823875212257916e-15	0.0
C 	13.527316807112928	0.7099999999999986	0.0
C 	14.757072880486833	-1.41886502547095e-15	0.0
C 	15.986828953860735	0.7099999999999984	0.0
C 	17.21658502723464	-7.671641100159832e-16	0.0
C 	18.44634110060854	0.7099999999999982	0.0
C 	19.676097173982445	-1.8918200339612667e-15	0.0
C 	20.905853247356347	0.7099999999999989	0.0
C 	22.135609320730246	-2.128297538206425e-15	0.0
C 	23.36536539410415	0.7099999999999967	0.0
C 	24.59512146747805	-2.364775042451583e-15	0.0
C 	25.824877540851954	0.7099999999999983	0.0
C 	27.05463361422586	-8.248957072964913e-16	0.0
C 	28.284389687599763	0.7099999999999999	0.0
C 	29.514145760973665	-2.8377300509419e-15	0.0
C 	30.743901834347565	0.7099999999999961	0.0
C 	31.97365790772147	-3.0742075551870582e-15	0.0
C 	33.20341398109537	0.7099999999999976	0.0
C 	34.43317005446928	-1.5343282200319664e-15	0.0
C 	35.66292612784318	0.7099999999999992	0.0
C 	36.892682201217085	-1.7708057242771246e-15	0.0
C 	38.122438274590984	0.7099999999999972	0.0
C 	39.35219434796489	-3.783640067922533e-15	0.0
C 	40.58195042133879	0.7099999999999969	0.0
C 	41.811706494712695	-4.67403893367191e-16	0.0
C 	43.0414625680866	0.7100000000000002	0.0
C 	44.27121864146049	-4.25659507641285e-15	0.0
C 	45.5009747148344	0.7099999999999964	0.0
C 	46.730730788208305	-9.403589018575075e-16	0.0
C 	47.96048686158221	0.7099999999999997	0.0
C 	49.1902429349561	-4.729550084903166e-15	0.0
C 	50.41999900833001	0.709999999999996	0.0
C 	51.64975508170391	-1.413313910347824e-15	0.0
C 	52.879511155077815	0.7099999999999993	0.0
C 	54.10926722845172	-1.6497914145929826e-15	0.0
C 	55.33902330182562	0.7099999999999991	0.0
C 	56.56877937519952	-5.438982597638641e-15	0.0
C 	57.798535448573425	0.7099999999999953	0.0
C 	59.02829152194733	-5.6754601018838e-15	0.0
C 	60.25804759532124	0.709999999999995	0.0
C 	1.2297560733739028	2.1299999999999994	0.0
C 	2.4595121467478056	2.8399999999999994	0.0
C 	3.689268220121708	2.1299999999999994	0.0
C 	4.919024293495611	2.8399999999999994	0.0
C 	6.148780366869514	2.129999999999999	0.0
C 	7.378536440243416	2.839999999999999	0.0
C 	8.60829251361732	2.1299999999999986	0.0
C 	9.838048586991222	2.8399999999999985	0.0
C 	11.067804660365123	2.129999999999998	0.0
C 	12.297560733739028	2.839999999999999	0.0
C 	13.527316807112928	2.1299999999999977	0.0
C 	14.757072880486833	2.839999999999998	0.0
C 	15.986828953860735	2.129999999999998	0.0
C 	17.216585027234636	2.839999999999997	0.0
C 	18.446341100608542	2.129999999999998	0.0
C 	19.676097173982445	2.8399999999999985	0.0
C 	20.905853247356344	2.1299999999999977	0.0
C 	22.13560932073025	2.8399999999999985	0.0
C 	23.36536539410415	2.129999999999997	0.0
C 	24.595121467478055	2.839999999999997	0.0
C 	25.824877540851954	2.1299999999999963	0.0
C 	27.05463361422586	2.839999999999997	0.0
C 	28.284389687599763	2.129999999999998	0.0
C 	29.514145760973665	2.8399999999999985	0.0
C 	30.743901834347568	2.129999999999996	0.0
C 	31.97365790772147	2.8399999999999967	0.0
C 	33.20341398109537	2.129999999999996	0.0
C 	34.43317005446928	2.8399999999999963	0.0
C 	35.66292612784318	2.1299999999999972	0.0
C 	36.89268220121708	2.8399999999999963	0.0
C 	38.122438274590984	2.129999999999997	0.0
C 	39.35219434796489	2.8399999999999976	0.0
C 	40.58195042133879	2.1299999999999986	0.0
C 	41.81170649471269	2.839999999999996	0.0
C 	43.0414625680866	2.129999999999998	0.0
C 	44.2712186414605	2.8399999999999954	0.0
C 	45.5009747148344	2.129999999999998	0.0
C 	46.7307307882083	2.8399999999999954	0.0
C 	47.96048686158221	2.1299999999999977	0.0
C 	49.19024293495611	2.839999999999995	0.0
C 	50.41999900833001	2.1299999999999977	0.0
C 	51.64975508170391	2.8399999999999945	0.0
C 	52.879511155077815	2.1299999999999972	0.0
C 	54.10926722845171	2.8399999999999945	0.0
C 	55.33902330182563	2.130000000000001	0.0
C 	56.56877937519952	2.8399999999999976	0.0
C 	57.798535448573425	2.129999999999997	0.0
C 	59.028291521947324	2.839999999999994	0.0
C 	60.25804759532124	2.129999999999997	0.0
C 	61.487803668695136	2.8399999999999936	0.0
C 	2.4595121467478056	4.259999999999999	0.0
C 	3.689268220121708	4.969999999999999	0.0
C 	4.919024293495611	4.259999999999999	0.0
C 	6.148780366869514	4.969999999999999	0.0
C 	7.378536440243416	4.259999999999999	0.0
C 	8.60829251361732	4.969999999999999	0.0
C 	9.83804858699122	4.259999999999998	0.0
C 	11.067804660365125	4.969999999999999	0.0
C 	12.297560733739028	4.259999999999998	0.0
C 	13.52731680711293	4.969999999999998	0.0
C 	14.757072880486831	4.259999999999998	0.0
C 	15.986828953860735	4.969999999999998	0.0
C 	17.21658502723464	4.259999999999997	0.0
C 	18.446341100608542	4.969999999999998	0.0
C 	19.676097173982445	4.259999999999999	0.0
C 	20.905853247356347	4.969999999999997	0.0
C 	22.135609320730246	4.259999999999996	0.0
C 	23.365365394104153	4.969999999999997	0.0
C 	24.595121467478055	4.259999999999998	0.0
C 	25.824877540851958	4.969999999999997	0.0
C 	27.054633614225857	4.259999999999995	0.0
C 	28.28438968759976	4.969999999999996	0.0
C 	29.514145760973665	4.259999999999997	0.0
C 	30.743901834347568	4.969999999999997	0.0
C 	31.97365790772147	4.259999999999996	0.0
C 	33.20341398109537	4.969999999999995	0.0
C 	34.43317005446927	4.2599999999999945	0.0
C 	35.66292612784318	4.969999999999995	0.0
C 	36.892682201217085	4.259999999999996	0.0
C 	38.122438274590984	4.969999999999997	0.0
C 	39.35219434796489	4.259999999999997	0.0
C 	40.58195042133879	4.969999999999994	0.0
C 	41.81170649471269	4.259999999999995	0.0
C 	43.041462568086594	4.969999999999996	0.0
C 	44.2712186414605	4.259999999999997	0.0
C 	45.500974714834406	4.969999999999998	0.0
C 	46.7307307882083	4.259999999999994	0.0
C 	47.960486861582204	4.9699999999999935	0.0
C 	49.19024293495611	4.259999999999996	0.0
C 	50.41999900833001	4.969999999999997	0.0
C 	51.64975508170391	4.259999999999993	0.0
C 	52.879511155077815	4.9699999999999935	0.0
C 	54.10926722845171	4.259999999999996	0.0
C 	55.33902330182562	4.969999999999997	0.0
C 	56.568779375199526	4.259999999999996	0.0
C 	57.798535448573425	4.969999999999996	0.0
C 	59.028291521947324	4.259999999999995	0.0
C 	60.25804759532123	4.969999999999996	0.0
C 	61.487803668695136	4.259999999999992	0.0
C 	62.717559742069035	4.969999999999993	0.0
C 	3.6892682201217086	6.389999999999999	0.0
C 	4.919024293495611	7.099999999999999	0.0
C 	6.148780366869514	6.389999999999999	0.0
C 	7.378536440243416	7.099999999999999	0.0
C 	8.608292513617318	6.389999999999998	0.0
C 	9.838048586991222	7.099999999999999	0.0
C 	11.067804660365125	6.389999999999998	0.0
C 	12.297560733739028	7.099999999999998	0.0
C 	13.52731680711293	6.389999999999999	0.0
C 	14.757072880486833	7.099999999999998	0.0
C 	15.986828953860735	6.389999999999998	0.0
C 	17.216585027234636	7.099999999999997	0.0
C 	18.44634110060854	6.389999999999997	0.0
C 	19.676097173982445	7.099999999999998	0.0
C 	20.905853247356347	6.389999999999998	0.0
C 	22.13560932073025	7.099999999999997	0.0
C 	23.365365394104153	6.389999999999998	0.0
C 	24.59512146747805	7.099999999999997	0.0
C 	25.824877540851958	6.389999999999998	0.0
C 	27.054633614225857	7.099999999999997	0.0
C 	28.28438968759976	6.389999999999999	0.0
C 	29.514145760973662	7.099999999999997	0.0
C 	30.743901834347568	6.389999999999999	0.0
C 	31.97365790772147	7.099999999999998	0.0
C 	33.20341398109537	6.389999999999995	0.0
C 	34.43317005446928	7.099999999999994	0.0
C 	35.66292612784318	6.389999999999995	0.0
C 	36.892682201217085	7.099999999999996	0.0
C 	38.122438274590984	6.389999999999996	0.0
C 	39.35219434796489	7.099999999999997	0.0
C 	40.58195042133879	6.389999999999994	0.0
C 	41.811706494712695	7.099999999999995	0.0
C 	43.041462568086594	6.389999999999996	0.0
C 	44.2712186414605	7.099999999999997	0.0
C 	45.500974714834406	6.389999999999998	0.0
C 	46.730730788208305	7.099999999999998	0.0
C 	47.960486861582204	6.389999999999995	0.0
C 	49.19024293495611	7.099999999999996	0.0
C 	50.41999900833001	6.389999999999995	0.0
C 	51.649755081703915	7.099999999999996	0.0
C 	52.879511155077815	6.389999999999995	0.0
C 	54.10926722845172	7.099999999999996	0.0
C 	55.33902330182562	6.389999999999995	0.0
C 	56.568779375199526	7.099999999999995	0.0
C 	57.79853544857343	6.389999999999998	0.0
C 	59.02829152194733	7.099999999999999	0.0
C 	60.25804759532123	6.389999999999994	0.0
C 	61.487803668695136	7.099999999999995	0.0
C 	62.71755974206904	6.389999999999994	0.0
C 	63.94731581544294	7.099999999999995	0.0
C 	4.919024293495611	8.519999999999998	0.0
C 	6.148780366869514	9.229999999999999	0.0
C 	7.378536440243416	8.519999999999998	0.0
C 	8.60829251361732	9.229999999999999	0.0
C 	9.838048586991222	8.519999999999998	0.0
C 	11.067804660365125	9.229999999999999	0.0
C 	12.297560733739028	8.519999999999998	0.0
C 	13.52731680711293	9.229999999999997	0.0
C 	14.757072880486833	8.519999999999998	0.0
C 	15.986828953860737	9.229999999999999	0.0
C 	17.216585027234636	8.519999999999998	0.0
C 	18.44634110060854	9.229999999999997	0.0
C 	19.67609717398244	8.519999999999996	0.0
C 	20.905853247356347	9.229999999999997	0.0
C 	22.13560932073025	8.519999999999998	0.0
C 	23.365365394104153	9.229999999999999	0.0
C 	24.595121467478055	8.519999999999996	0.0
C 	25.824877540851954	9.229999999999995	0.0
C 	27.05463361422586	8.519999999999996	0.0
C 	28.284389687599763	9.229999999999997	0.0
C 	29.514145760973662	8.519999999999996	0.0
C 	30.743901834347565	9.229999999999995	0.0
C 	31.97365790772147	8.52	0.0
C 	33.20341398109537	9.229999999999997	0.0
C 	34.43317005446928	8.519999999999994	0.0
C 	35.66292612784318	9.229999999999995	0.0
C 	36.89268220121708	8.519999999999992	0.0
C 	38.122438274590984	9.229999999999993	0.0
C 	39.35219434796489	8.519999999999998	0.0
C 	40.58195042133879	9.229999999999995	0.0
C 	41.811706494712695	8.519999999999994	0.0
C 	43.0414625680866	9.229999999999995	0.0
C 	44.27121864146049	8.519999999999992	0.0
C 	45.5009747148344	9.229999999999993	0.0
C 	46.730730788208305	8.519999999999998	0.0
C 	47.960486861582204	9.229999999999995	0.0
C 	49.19024293495611	8.519999999999996	0.0
C 	50.41999900833001	9.229999999999993	0.0
C 	51.64975508170391	8.519999999999994	0.0
C 	52.879511155077815	9.229999999999995	0.0
C 	54.10926722845171	8.51999999999999	0.0
C 	55.33902330182562	9.229999999999992	0.0
C 	56.568779375199526	8.519999999999998	0.0
C 	57.798535448573425	9.229999999999995	0.0
C 	59.02829152194733	8.519999999999994	0.0
C 	60.25804759532123	9.229999999999993	0.0
C 	61.48780366869513	8.519999999999992	0.0
C 	62.717559742069035	9.229999999999993	0.0
C 	63.94731581544294	8.519999999999992	0.0
C 	65.17707188881684	9.22999999999999	0.0
C 	6.148780366869514	10.649999999999997	0.0
C 	7.378536440243416	11.359999999999998	0.0
C 	8.608292513617318	10.649999999999997	0.0
C 	9.838048586991222	11.359999999999998	0.0
C 	11.067804660365125	10.649999999999997	0.0
C 	12.297560733739028	11.359999999999996	0.0
C 	13.52731680711293	10.649999999999997	0.0
C 	14.757072880486831	11.359999999999996	0.0
C 	15.986828953860735	10.649999999999997	0.0
C 	17.216585027234636	11.359999999999996	0.0
C 	18.44634110060854	10.649999999999997	0.0
C 	19.676097173982445	11.359999999999998	0.0
C 	20.905853247356347	10.649999999999997	0.0
C 	22.13560932073025	11.359999999999996	0.0
C 	23.365365394104153	10.649999999999997	0.0
C 	24.595121467478055	11.359999999999996	0.0
C 	25.824877540851958	10.649999999999997	0.0
C 	27.05463361422586	11.359999999999996	0.0
C 	28.284389687599763	10.649999999999995	0.0
C 	29.514145760973662	11.359999999999994	0.0
C 	30.743901834347565	10.649999999999995	0.0
C 	31.97365790772147	11.359999999999996	0.0
C 	33.20341398109537	10.649999999999997	0.0
C 	34.43317005446928	11.359999999999998	0.0
C 	35.66292612784318	10.649999999999991	0.0
C 	36.89268220121708	11.359999999999992	0.0
C 	38.122438274590984	10.649999999999993	0.0
C 	39.35219434796489	11.359999999999994	0.0
C 	40.58195042133879	10.649999999999993	0.0
C 	41.811706494712695	11.359999999999994	0.0
C 	43.041462568086594	10.649999999999991	0.0
C 	44.2712186414605	11.359999999999992	0.0
C 	45.5009747148344	10.649999999999993	0.0
C 	46.730730788208305	11.359999999999994	0.0
C 	47.960486861582204	10.649999999999995	0.0
C 	49.19024293495611	11.359999999999996	0.0
C 	50.41999900833001	10.649999999999993	0.0
C 	51.649755081703915	11.359999999999994	0.0
C 	52.879511155077815	10.649999999999995	0.0
C 	54.10926722845172	11.359999999999996	0.0
C 	55.33902330182562	10.649999999999993	0.0
C 	56.568779375199526	11.359999999999994	0.0
C 	57.798535448573425	10.649999999999993	0.0
C 	59.02829152194733	11.359999999999992	0.0
C 	60.25804759532124	10.649999999999995	0.0
C 	61.487803668695136	11.359999999999996	0.0
C 	62.717559742069035	10.649999999999991	0.0
C 	63.94731581544294	11.359999999999992	0.0
C 	65.17707188881684	10.649999999999991	0.0
C 	66.40682796219075	11.359999999999992	0.0
C 	7.378536440243417	12.779999999999998	0.0
C 	8.60829251361732	13.489999999999998	0.0
C 	9.838048586991222	12.78	0.0
C 	11.067804660365125	13.489999999999997	0.0
C 	12.297560733739028	12.779999999999998	0.0
C 	13.527316807112932	13.489999999999998	0.0
C 	14.757072880486833	12.779999999999998	0.0
C 	15.986828953860737	13.489999999999997	0.0
C 	17.216585027234636	12.779999999999996	0.0
C 	18.446341100608542	13.489999999999997	0.0
C 	19.676097173982445	12.779999999999998	0.0
C 	20.905853247356347	13.489999999999997	0.0
C 	22.13560932073025	12.779999999999996	0.0
C 	23.36536539410415	13.489999999999995	0.0
C 	24.595121467478055	12.779999999999996	0.0
C 	25.824877540851958	13.489999999999997	0.0
C 	27.05463361422586	12.779999999999998	0.0
C 	28.284389687599763	13.489999999999997	0.0
C 	29.514145760973662	12.779999999999996	0.0
C 	30.743901834347568	13.489999999999997	0.0
C 	31.97365790772147	12.779999999999996	0.0
C 	33.20341398109537	13.489999999999997	0.0
C 	34.43317005446928	12.779999999999998	0.0
C 	35.66292612784318	13.489999999999995	0.0
C 	36.89268220121708	12.779999999999994	0.0
C 	38.122438274590984	13.489999999999995	0.0
C 	39.35219434796489	12.779999999999996	0.0
C 	40.581950421338796	13.489999999999997	0.0
C 	41.811706494712695	12.779999999999996	0.0
C 	43.041462568086594	13.489999999999993	0.0
C 	44.2712186414605	12.779999999999994	0.0
C 	45.5009747148344	13.489999999999995	0.0
C 	46.730730788208305	12.779999999999996	0.0
C 	47.96048686158221	13.489999999999997	0.0
C 	49.19024293495611	12.779999999999998	0.0
C 	50.41999900833001	13.489999999999995	0.0
C 	51.649755081703915	12.779999999999996	0.0
C 	52.879511155077815	13.489999999999993	0.0
C 	54.10926722845172	12.779999999999998	0.0
C 	55.33902330182563	13.489999999999998	0.0
C 	56.56877937519952	12.779999999999998	0.0
C 	57.798535448573425	13.489999999999997	0.0
C 	59.02829152194733	12.779999999999994	0.0
C 	60.25804759532123	13.489999999999991	0.0
C 	61.487803668695136	12.779999999999998	0.0
C 	62.71755974206904	13.489999999999998	0.0
C 	63.94731581544294	12.779999999999994	0.0
C 	65.17707188881684	13.489999999999995	0.0
C 	66.40682796219075	12.77999999999999	0.0
C 	67.63658403556465	13.489999999999988	0.0
C 	8.60829251361732	14.909999999999998	0.0
C 	9.838048586991222	15.619999999999996	0.0
C 	11.067804660365125	14.909999999999997	0.0
C 	12.297560733739026	15.619999999999996	0.0
C 	13.527316807112934	14.909999999999998	0.0
C 	14.757072880486831	15.619999999999996	0.0
C 	15.986828953860737	14.909999999999998	0.0
C 	17.21658502723464	15.619999999999997	0.0
C 	18.446341100608542	14.909999999999997	0.0
C 	19.676097173982445	15.619999999999996	0.0
C 	20.905853247356347	14.909999999999997	0.0
C 	22.135609320730246	15.619999999999996	0.0
C 	23.365365394104153	14.909999999999995	0.0
C 	24.595121467478055	15.619999999999996	0.0
C 	25.824877540851958	14.909999999999997	0.0
C 	27.05463361422586	15.619999999999996	0.0
C 	28.284389687599763	14.909999999999997	0.0
C 	29.514145760973665	15.619999999999996	0.0
C 	30.743901834347568	14.909999999999997	0.0
C 	31.973657907721474	15.619999999999997	0.0
C 	33.203413981095366	14.909999999999993	0.0
C 	34.43317005446927	15.619999999999994	0.0
C 	35.662926127843185	14.909999999999998	0.0
C 	36.892682201217085	15.619999999999996	0.0
C 	38.122438274590984	14.909999999999995	0.0
C 	39.35219434796489	15.619999999999996	0.0
C 	40.58195042133879	14.909999999999993	0.0
C 	41.811706494712695	15.619999999999994	0.0
C 	43.0414625680866	14.909999999999998	0.0
C 	44.2712186414605	15.619999999999996	0.0
C 	45.5009747148344	14.909999999999995	0.0
C 	46.730730788208305	15.619999999999996	0.0
C 	47.960486861582204	14.909999999999993	0.0
C 	49.19024293495611	15.619999999999994	0.0
C 	50.41999900833002	14.909999999999998	0.0
C 	51.649755081703915	15.619999999999996	0.0
C 	52.87951115507782	14.909999999999997	0.0
C 	54.10926722845171	15.619999999999994	0.0
C 	55.33902330182562	14.909999999999995	0.0
C 	56.568779375199526	15.619999999999994	0.0
C 	57.798535448573425	14.909999999999991	0.0
C 	59.028291521947324	15.619999999999992	0.0
C 	60.25804759532124	14.909999999999998	0.0
C 	61.487803668695136	15.619999999999996	0.0
C 	62.717559742069035	14.909999999999993	0.0
C 	63.94731581544294	15.619999999999994	0.0
C 	65.17707188881684	14.909999999999993	0.0
C 	66.40682796219075	15.619999999999994	0.0
C 	67.63658403556465	14.909999999999997	0.0
C 	68.86634010893854	15.61999999999999	0.0
C 	9.838048586991222	17.039999999999996	0.0
C 	11.067804660365127	17.749999999999996	0.0
C 	12.297560733739028	17.039999999999996	0.0
C 	13.527316807112932	17.749999999999996	0.0
C 	14.757072880486833	17.039999999999996	0.0
C 	15.986828953860735	17.749999999999996	0.0
C 	17.21658502723464	17.039999999999996	0.0
C 	18.446341100608546	17.749999999999996	0.0
C 	19.676097173982445	17.039999999999996	0.0
C 	20.905853247356347	17.749999999999996	0.0
C 	22.13560932073025	17.039999999999996	0.0
C 	23.365365394104153	17.749999999999996	0.0
C 	24.595121467478055	17.039999999999996	0.0
C 	25.82487754085196	17.749999999999996	0.0
C 	27.05463361422586	17.039999999999996	0.0
C 	28.28438968759977	17.75	0.0
C 	29.514145760973665	17.039999999999996	0.0
C 	30.74390183434757	17.749999999999996	0.0
C 	31.973657907721467	17.039999999999992	0.0
C 	33.20341398109537	17.749999999999993	0.0
C 	34.43317005446927	17.039999999999996	0.0
C 	35.66292612784318	17.749999999999996	0.0
C 	36.892682201217085	17.039999999999996	0.0
C 	38.122438274590984	17.749999999999996	0.0
C 	39.35219434796488	17.039999999999992	0.0
C 	40.58195042133879	17.749999999999993	0.0
C 	41.811706494712695	17.039999999999992	0.0
C 	43.041462568086594	17.749999999999993	0.0
C 	44.2712186414605	17.039999999999996	0.0
C 	45.500974714834406	17.749999999999996	0.0
C 	46.7307307882083	17.039999999999992	0.0
C 	47.960486861582204	17.749999999999993	0.0
C 	49.19024293495611	17.039999999999992	0.0
C 	50.41999900833002	17.749999999999993	0.0
C 	51.649755081703915	17.039999999999996	0.0
C 	52.87951115507782	17.749999999999996	0.0
C 	54.10926722845172	17.039999999999992	0.0
C 	55.33902330182562	17.749999999999993	0.0
C 	56.568779375199526	17.039999999999996	0.0
C 	57.79853544857343	17.749999999999996	0.0
C 	59.028291521947324	17.039999999999992	0.0
C 	60.25804759532123	17.749999999999993	0.0
C 	61.487803668695136	17.039999999999996	0.0
C 	62.71755974206904	17.749999999999996	0.0
C 	63.94731581544294	17.04	0.0
C 	65.17707188881684	17.749999999999993	0.0
C 	66.40682796219075	17.039999999999996	0.0
C 	67.63658403556464	17.74999999999999	0.0
C 	68.86634010893856	17.03999999999999	0.0
C 	70.09609618231246	17.74999999999999	0.0
C 	11.067804660365125	19.169999999999995	0.0
C 	12.297560733739026	19.879999999999995	0.0
C 	13.52731680711293	19.169999999999995	0.0
C 	14.757072880486831	19.879999999999995	0.0
C 	15.986828953860737	19.169999999999998	0.0
C 	17.216585027234636	19.879999999999992	0.0
C 	18.446341100608542	19.169999999999995	0.0
C 	19.676097173982445	19.879999999999995	0.0
C 	20.905853247356347	19.169999999999995	0.0
C 	22.135609320730246	19.879999999999995	0.0
C 	23.365365394104153	19.169999999999995	0.0
C 	24.59512146747805	19.879999999999995	0.0
C 	25.824877540851958	19.169999999999995	0.0
C 	27.05463361422586	19.879999999999995	0.0
C 	28.284389687599763	19.169999999999995	0.0
C 	29.51414576097367	19.879999999999995	0.0
C 	30.743901834347565	19.16999999999999	0.0
C 	31.97365790772147	19.879999999999992	0.0
C 	33.20341398109537	19.169999999999995	0.0
C 	34.43317005446927	19.879999999999992	0.0
C 	35.66292612784318	19.169999999999995	0.0
C 	36.89268220121708	19.879999999999992	0.0
C 	38.122438274590984	19.169999999999995	0.0
C 	39.35219434796488	19.879999999999992	0.0
C 	40.58195042133879	19.16999999999999	0.0
C 	41.81170649471269	19.87999999999999	0.0
C 	43.0414625680866	19.169999999999995	0.0
C 	44.27121864146049	19.879999999999992	0.0
C 	45.5009747148344	19.16999999999999	0.0
C 	46.730730788208305	19.879999999999992	0.0
C 	47.960486861582204	19.169999999999995	0.0
C 	49.1902429349561	19.879999999999992	0.0
C 	50.41999900833002	19.169999999999995	0.0
C 	51.649755081703915	19.879999999999992	0.0
C 	52.879511155077815	19.16999999999999	0.0
C 	54.10926722845172	19.879999999999992	0.0
C 	55.33902330182562	19.16999999999999	0.0
C 	56.56877937519952	19.879999999999992	0.0
C 	57.79853544857343	19.169999999999995	0.0
C 	59.02829152194733	19.879999999999992	0.0
C 	60.25804759532123	19.169999999999995	0.0
C 	61.48780366869513	19.879999999999992	0.0
C 	62.717559742069035	19.16999999999999	0.0
C 	63.94731581544294	19.879999999999992	0.0
C 	65.17707188881684	19.169999999999995	0.0
C 	66.40682796219075	19.87999999999999	0.0
C 	67.63658403556465	19.169999999999995	0.0
C 	68.86634010893854	19.87999999999999	0.0
C 	70.09609618231245	19.16999999999999	0.0
C 	71.32585225568636	19.879999999999992	0.0
C 	12.297560733739028	21.299999999999994	0.0
C 	13.527316807112932	22.009999999999994	0.0
C 	14.757072880486831	21.299999999999994	0.0
C 	15.986828953860735	22.009999999999994	0.0
C 	17.216585027234636	21.299999999999994	0.0
C 	18.44634110060854	22.009999999999994	0.0
C 	19.676097173982445	21.299999999999994	0.0
C 	20.905853247356347	22.009999999999994	0.0
C 	22.13560932073025	21.299999999999994	0.0
C 	23.365365394104153	22.009999999999994	0.0
C 	24.595121467478055	21.299999999999994	0.0
C 	25.824877540851958	22.009999999999994	0.0
C 	27.05463361422586	21.299999999999994	0.0
C 	28.284389687599766	22.009999999999994	0.0
C 	29.514145760973662	21.29999999999999	0.0
C 	30.743901834347568	22.00999999999999	0.0
C 	31.97365790772147	21.299999999999994	0.0
C 	33.20341398109537	22.009999999999994	0.0
C 	34.43317005446928	21.299999999999994	0.0
C 	35.662926127843185	22.009999999999994	0.0
C 	36.89268220121708	21.299999999999994	0.0
C 	38.122438274590984	22.009999999999994	0.0
C 	39.35219434796489	21.299999999999994	0.0
C 	40.58195042133879	22.009999999999994	0.0
C 	41.811706494712695	21.299999999999994	0.0
C 	43.0414625680866	22.009999999999994	0.0
C 	44.2712186414605	21.29999999999999	0.0
C 	45.5009747148344	22.00999999999999	0.0
C 	46.730730788208305	21.299999999999994	0.0
C 	47.96048686158221	22.009999999999994	0.0
C 	49.19024293495611	21.299999999999994	0.0
C 	50.41999900833002	22.009999999999994	0.0
C 	51.649755081703915	21.299999999999994	0.0
C 	52.879511155077815	22.00999999999999	0.0
C 	54.10926722845172	21.299999999999994	0.0
C 	55.33902330182563	22.009999999999994	0.0
C 	56.568779375199526	21.29999999999999	0.0
C 	57.798535448573425	22.00999999999999	0.0
C 	59.02829152194733	21.299999999999994	0.0
C 	60.25804759532124	22.009999999999994	0.0
C 	61.48780366869513	21.29999999999999	0.0
C 	62.717559742069035	22.00999999999999	0.0
C 	63.94731581544294	21.299999999999994	0.0
C 	65.17707188881684	22.009999999999987	0.0
C 	66.40682796219075	21.299999999999994	0.0
C 	67.63658403556465	22.009999999999994	0.0
C 	68.86634010893854	21.29999999999999	0.0
C 	70.09609618231245	22.00999999999999	0.0
C 	71.32585225568636	21.299999999999983	0.0
C 	72.55560832906026	22.00999999999999	0.0
C 	13.527316807112932	23.429999999999996	0.0
C 	14.757072880486836	24.139999999999997	0.0
C 	15.986828953860737	23.429999999999996	0.0
C 	17.216585027234643	24.139999999999997	0.0
C 	18.446341100608542	23.429999999999996	0.0
C 	19.676097173982445	24.139999999999997	0.0
C 	20.90585324735635	23.429999999999996	0.0
C 	22.135609320730254	24.139999999999997	0.0
C 	23.365365394104156	23.429999999999993	0.0
C 	24.595121467478062	24.139999999999997	0.0
C 	25.824877540851958	23.429999999999993	0.0
C 	27.054633614225864	24.139999999999993	0.0
C 	28.284389687599766	23.429999999999996	0.0
C 	29.514145760973673	24.139999999999997	0.0
C 	30.743901834347575	23.429999999999996	0.0
C 	31.973657907721478	24.139999999999997	0.0
C 	33.20341398109537	23.429999999999993	0.0
C 	34.43317005446928	24.139999999999993	0.0
C 	35.66292612784318	23.429999999999993	0.0
C 	36.892682201217085	24.139999999999993	0.0
C 	38.122438274590984	23.429999999999993	0.0
C 	39.35219434796489	24.139999999999993	0.0
C 	40.58195042133879	23.429999999999996	0.0
C 	41.811706494712695	24.139999999999993	0.0
C 	43.041462568086594	23.42999999999999	0.0
C 	44.2712186414605	24.13999999999999	0.0
C 	45.5009747148344	23.429999999999993	0.0
C 	46.730730788208305	24.139999999999993	0.0
C 	47.96048686158221	23.429999999999993	0.0
C 	49.19024293495611	24.139999999999993	0.0
C 	50.41999900833001	23.429999999999993	0.0
C 	51.649755081703915	24.13999999999999	0.0
C 	52.87951115507782	23.429999999999993	0.0
C 	54.10926722845172	24.139999999999993	0.0
C 	55.33902330182563	23.429999999999993	0.0
C 	56.56877937519953	24.139999999999993	0.0
C 	57.798535448573425	23.429999999999993	0.0
C 	59.02829152194733	24.139999999999993	0.0
C 	60.25804759532124	23.429999999999993	0.0
C 	61.487803668695136	24.13999999999999	0.0
C 	62.71755974206904	23.429999999999993	0.0
C 	63.947315815442934	24.139999999999986	0.0
C 	65.17707188881684	23.429999999999993	0.0
C 	66.40682796219075	24.139999999999993	0.0
C 	67.63658403556464	23.42999999999999	0.0
C 	68.86634010893856	24.139999999999997	0.0
C 	70.09609618231245	23.42999999999999	0.0
C 	71.32585225568636	24.139999999999997	0.0
C 	72.55560832906026	23.42999999999999	0.0
C 	73.78536440243417	24.13999999999999	0.0
C 	14.757072880486835	25.559999999999995	0.0
C 	15.986828953860735	26.269999999999996	0.0
C 	17.21658502723464	25.559999999999995	0.0
C 	18.44634110060854	26.269999999999996	0.0
C 	19.676097173982445	25.56	0.0
C 	20.905853247356344	26.269999999999996	0.0
C 	22.13560932073025	25.56	0.0
C 	23.365365394104153	26.269999999999996	0.0
C 	24.595121467478055	25.559999999999995	0.0
C 	25.824877540851958	26.269999999999996	0.0
C 	27.054633614225857	25.559999999999995	0.0
C 	28.28438968759976	26.269999999999996	0.0
C 	29.514145760973665	25.559999999999995	0.0
C 	30.743901834347568	26.269999999999996	0.0
C 	31.973657907721474	25.559999999999995	0.0
C 	33.20341398109538	26.269999999999996	0.0
C 	34.43317005446927	25.55999999999999	0.0
C 	35.66292612784318	26.269999999999992	0.0
C 	36.892682201217085	25.559999999999995	0.0
C 	38.12243827459098	26.269999999999992	0.0
C 	39.35219434796489	25.559999999999995	0.0
C 	40.58195042133879	26.269999999999992	0.0
C 	41.81170649471269	25.55999999999999	0.0
C 	43.041462568086594	26.269999999999992	0.0
C 	44.2712186414605	25.55999999999999	0.0
C 	45.5009747148344	26.26999999999999	0.0
C 	46.730730788208305	25.559999999999995	0.0
C 	47.960486861582204	26.269999999999992	0.0
C 	49.19024293495611	25.55999999999999	0.0
C 	50.41999900833001	26.269999999999992	0.0
C 	51.649755081703915	25.559999999999995	0.0
C 	52.879511155077815	26.269999999999992	0.0
C 	54.10926722845172	25.559999999999995	0.0
C 	55.33902330182562	26.269999999999992	0.0
C 	56.568779375199526	25.55999999999999	0.0
C 	57.79853544857343	26.269999999999992	0.0
C 	59.028291521947324	25.55999999999999	0.0
C 	60.25804759532123	26.269999999999992	0.0
C 	61.487803668695136	25.559999999999995	0.0
C 	62.717559742069035	26.26999999999999	0.0
C 	63.94731581544294	25.55999999999999	0.0
C 	65.17707188881683	26.269999999999985	0.0
C 	66.40682796219075	25.55999999999999	0.0
C 	67.63658403556465	26.269999999999992	0.0
C 	68.86634010893856	25.559999999999995	0.0
C 	70.09609618231246	26.269999999999996	0.0
C 	71.32585225568636	25.559999999999995	0.0
C 	72.55560832906026	26.269999999999996	0.0
C 	73.78536440243415	25.559999999999988	0.0
C 	75.01512047580806	26.26999999999999	0.0
C 	15.986828953860735	27.689999999999994	0.0
C 	17.21658502723464	28.399999999999995	0.0
C 	18.446341100608542	27.689999999999994	0.0
C 	19.676097173982445	28.399999999999995	0.0
C 	20.905853247356344	27.689999999999994	0.0
C 	22.13560932073025	28.399999999999995	0.0
C 	23.365365394104153	27.689999999999994	0.0
C 	24.59512146747806	28.399999999999995	0.0
C 	25.824877540851954	27.689999999999994	0.0
C 	27.054633614225857	28.399999999999995	0.0
C 	28.284389687599763	27.689999999999994	0.0
C 	29.514145760973665	28.399999999999995	0.0
C 	30.74390183434757	27.689999999999994	0.0
C 	31.973657907721474	28.399999999999995	0.0
C 	33.20341398109537	27.68999999999999	0.0
C 	34.43317005446928	28.39999999999999	0.0
C 	35.66292612784318	27.689999999999994	0.0
C 	36.892682201217085	28.399999999999995	0.0
C 	38.122438274590984	27.689999999999994	0.0
C 	39.35219434796489	28.399999999999995	0.0
C 	40.58195042133879	27.689999999999994	0.0
C 	41.811706494712695	28.399999999999995	0.0
C 	43.041462568086594	27.689999999999994	0.0
C 	44.2712186414605	28.399999999999995	0.0
C 	45.500974714834406	27.689999999999994	0.0
C 	46.730730788208305	28.399999999999995	0.0
C 	47.960486861582204	27.68999999999999	0.0
C 	49.19024293495611	28.39999999999999	0.0
C 	50.41999900833002	27.689999999999994	0.0
C 	51.649755081703915	28.399999999999995	0.0
C 	52.87951115507782	27.689999999999994	0.0
C 	54.10926722845173	28.399999999999995	0.0
C 	55.33902330182562	27.68999999999999	0.0
C 	56.568779375199526	28.39999999999999	0.0
C 	57.79853544857343	27.689999999999994	0.0
C 	59.02829152194733	28.39999999999999	0.0
C 	60.25804759532124	27.689999999999994	0.0
C 	61.48780366869513	28.399999999999988	0.0
C 	62.717559742069035	27.689999999999994	0.0
C 	63.94731581544294	28.399999999999995	0.0
C 	65.17707188881684	27.68999999999999	0.0
C 	66.40682796219075	28.39999999999999	0.0
C 	67.63658403556464	27.689999999999987	0.0
C 	68.86634010893856	28.399999999999995	0.0
C 	70.09609618231245	27.689999999999994	0.0
C 	71.32585225568636	28.399999999999995	0.0
C 	72.55560832906026	27.68999999999999	0.0
C 	73.78536440243415	28.39999999999999	0.0
C 	75.01512047580808	27.689999999999994	0.0
C 	76.24487654918197	28.399999999999984	0.0
C 	17.21658502723464	29.819999999999997	0.0
C 	18.446341100608546	30.529999999999998	0.0
C 	19.676097173982445	29.819999999999997	0.0
C 	20.905853247356355	30.529999999999998	0.0
C 	22.13560932073025	29.819999999999993	0.0
C 	23.365365394104156	30.529999999999994	0.0
C 	24.59512146747806	29.819999999999997	0.0
C 	25.82487754085196	30.529999999999998	0.0
C 	27.054633614225867	29.819999999999997	0.0
C 	28.28438968759977	30.529999999999998	0.0
C 	29.514145760973665	29.819999999999997	0.0
C 	30.74390183434757	30.529999999999998	0.0
C 	31.973657907721474	29.819999999999997	0.0
C 	33.20341398109538	30.529999999999998	0.0
C 	34.43317005446928	29.819999999999997	0.0
C 	35.662926127843185	30.529999999999998	0.0
C 	36.892682201217085	29.819999999999993	0.0
C 	38.12243827459099	30.529999999999994	0.0
C 	39.35219434796488	29.819999999999993	0.0
C 	40.58195042133879	30.529999999999994	0.0
C 	41.811706494712695	29.819999999999993	0.0
C 	43.0414625680866	30.529999999999994	0.0
C 	44.2712186414605	29.819999999999993	0.0
C 	45.500974714834406	30.529999999999994	0.0
C 	46.730730788208305	29.81999999999999	0.0
C 	47.960486861582204	30.52999999999999	0.0
C 	49.19024293495611	29.819999999999993	0.0
C 	50.41999900833002	30.529999999999994	0.0
C 	51.649755081703915	29.819999999999993	0.0
C 	52.87951115507782	30.529999999999994	0.0
C 	54.10926722845172	29.819999999999993	0.0
C 	55.33902330182563	30.52999999999999	0.0
C 	56.568779375199526	29.819999999999993	0.0
C 	57.798535448573425	30.52999999999999	0.0
C 	59.02829152194734	29.819999999999993	0.0
C 	60.25804759532124	30.529999999999994	0.0
C 	61.487803668695136	29.819999999999993	0.0
C 	62.71755974206904	30.529999999999994	0.0
C 	63.947315815442934	29.81999999999999	0.0
C 	65.17707188881685	30.529999999999998	0.0
C 	66.40682796219073	29.819999999999986	0.0
C 	67.63658403556465	30.529999999999994	0.0
C 	68.86634010893856	29.819999999999993	0.0
C 	70.09609618231245	30.529999999999994	0.0
C 	71.32585225568637	29.819999999999997	0.0
C 	72.55560832906026	30.52999999999999	0.0
C 	73.78536440243417	29.819999999999997	0.0
C 	75.01512047580806	30.529999999999987	0.0
C 	76.24487654918197	29.81999999999999	0.0
C 	77.47463262255587	30.52999999999999	0.0
C 	18.446341100608542	31.949999999999996	0.0
C 	19.676097173982445	32.65999999999999	0.0
C 	20.905853247356347	31.949999999999992	0.0
C 	22.135609320730254	32.66	0.0
C 	23.365365394104156	31.949999999999996	0.0
C 	24.595121467478055	32.65999999999999	0.0
C 	25.824877540851958	31.949999999999992	0.0
C 	27.05463361422586	32.66	0.0
C 	28.284389687599766	31.949999999999996	0.0
C 	29.51414576097367	32.66	0.0
C 	30.743901834347568	31.949999999999992	0.0
C 	31.97365790772147	32.66	0.0
C 	33.20341398109537	31.949999999999992	0.0
C 	34.43317005446928	32.66	0.0
C 	35.66292612784318	31.949999999999996	0.0
C 	36.892682201217085	32.66	0.0
C 	38.122438274590984	31.949999999999992	0.0
C 	39.35219434796489	32.65999999999999	0.0
C 	40.58195042133879	31.949999999999992	0.0
C 	41.81170649471269	32.65999999999999	0.0
C 	43.0414625680866	31.949999999999996	0.0
C 	44.2712186414605	32.65999999999999	0.0
C 	45.5009747148344	31.949999999999992	0.0
C 	46.730730788208305	32.65999999999999	0.0
C 	47.96048686158221	31.949999999999992	0.0
C 	49.1902429349561	32.65999999999999	0.0
C 	50.41999900833002	31.949999999999992	0.0
C 	51.649755081703915	32.65999999999999	0.0
C 	52.879511155077815	31.949999999999992	0.0
C 	54.10926722845172	32.65999999999999	0.0
C 	55.33902330182563	31.949999999999992	0.0
C 	56.568779375199526	32.65999999999999	0.0
C 	57.79853544857343	31.949999999999992	0.0
C 	59.028291521947324	32.65999999999999	0.0
C 	60.25804759532124	31.949999999999992	0.0
C 	61.487803668695136	32.65999999999999	0.0
C 	62.717559742069035	31.94999999999999	0.0
C 	63.94731581544294	32.65999999999999	0.0
C 	65.17707188881685	31.949999999999992	0.0
C 	66.40682796219076	32.66	0.0
C 	67.63658403556465	31.949999999999992	0.0
C 	68.86634010893856	32.65999999999999	0.0
C 	70.09609618231245	31.94999999999999	0.0
C 	71.32585225568636	32.65999999999999	0.0
C 	72.55560832906026	31.949999999999996	0.0
C 	73.78536440243415	32.65999999999999	0.0
C 	75.01512047580806	31.949999999999992	0.0
C 	76.24487654918195	32.65999999999998	0.0
C 	77.47463262255587	31.949999999999985	0.0
C 	78.70438869592978	32.65999999999999	0.0
C 	19.676097173982445	34.07999999999999	0.0
C 	20.90585324735635	34.78999999999999	0.0
C 	22.135609320730254	34.07999999999999	0.0
C 	23.365365394104156	34.78999999999999	0.0
C 	24.595121467478055	34.07999999999999	0.0
C 	25.824877540851958	34.78999999999999	0.0
C 	27.054633614225864	34.07999999999999	0.0
C 	28.284389687599766	34.78999999999999	0.0
C 	29.514145760973665	34.07999999999999	0.0
C 	30.743901834347568	34.78999999999999	0.0
C 	31.97365790772147	34.07999999999999	0.0
C 	33.20341398109537	34.78999999999999	0.0
C 	34.43317005446928	34.07999999999999	0.0
C 	35.662926127843185	34.78999999999999	0.0
C 	36.89268220121708	34.07999999999999	0.0
C 	38.122438274590984	34.78999999999999	0.0
C 	39.35219434796489	34.07999999999999	0.0
C 	40.581950421338796	34.78999999999999	0.0
C 	41.811706494712695	34.07999999999999	0.0
C 	43.0414625680866	34.78999999999999	0.0
C 	44.2712186414605	34.07999999999999	0.0
C 	45.5009747148344	34.78999999999999	0.0
C 	46.730730788208305	34.07999999999999	0.0
C 	47.96048686158221	34.78999999999999	0.0
C 	49.19024293495611	34.07999999999999	0.0
C 	50.41999900833002	34.78999999999999	0.0
C 	51.649755081703915	34.07999999999999	0.0
C 	52.87951115507782	34.78999999999999	0.0
C 	54.10926722845172	34.07999999999999	0.0
C 	55.33902330182562	34.78999999999999	0.0
C 	56.56877937519953	34.07999999999999	0.0
C 	57.79853544857343	34.78999999999999	0.0
C 	59.02829152194733	34.07999999999999	0.0
C 	60.25804759532124	34.78999999999999	0.0
C 	61.487803668695136	34.07999999999999	0.0
C 	62.71755974206905	34.79	0.0
C 	63.947315815442934	34.079999999999984	0.0
C 	65.17707188881685	34.78999999999999	0.0
C 	66.40682796219075	34.07999999999999	0.0
C 	67.63658403556465	34.78999999999999	0.0
C 	68.86634010893854	34.07999999999999	0.0
C 	70.09609618231245	34.78999999999999	0.0
C 	71.32585225568636	34.07999999999999	0.0
C 	72.55560832906025	34.789999999999985	0.0
C 	73.78536440243417	34.07999999999999	0.0
C 	75.01512047580808	34.78999999999999	0.0
C 	76.24487654918197	34.07999999999999	0.0
C 	77.47463262255587	34.78999999999999	0.0
C 	78.70438869592977	34.079999999999984	0.0
C 	79.93414476930369	34.78999999999999	0.0
C 	20.90585324735635	36.209999999999994	0.0
C 	22.135609320730254	36.919999999999995	0.0
C 	23.36536539410416	36.209999999999994	0.0
C 	24.595121467478062	36.919999999999995	0.0
C 	25.82487754085196	36.209999999999994	0.0
C 	27.054633614225864	36.919999999999995	0.0
C 	28.284389687599766	36.209999999999994	0.0
C 	29.514145760973673	36.919999999999995	0.0
C 	30.743901834347575	36.209999999999994	0.0
C 	31.973657907721478	36.919999999999995	0.0
C 	33.20341398109537	36.209999999999994	0.0
C 	34.43317005446928	36.919999999999995	0.0
C 	35.662926127843185	36.209999999999994	0.0
C 	36.89268220121709	36.919999999999995	0.0
C 	38.12243827459099	36.209999999999994	0.0
C 	39.3521943479649	36.919999999999995	0.0
C 	40.581950421338796	36.209999999999994	0.0
C 	41.811706494712695	36.919999999999995	0.0
C 	43.041462568086594	36.209999999999994	0.0
C 	44.2712186414605	36.919999999999995	0.0
C 	45.500974714834406	36.209999999999994	0.0
C 	46.730730788208305	36.919999999999995	0.0
C 	47.96048686158221	36.209999999999994	0.0
C 	49.19024293495612	36.919999999999995	0.0
C 	50.41999900833002	36.20999999999999	0.0
C 	51.649755081703915	36.91999999999999	0.0
C 	52.87951115507782	36.209999999999994	0.0
C 	54.10926722845172	36.91999999999999	0.0
C 	55.33902330182563	36.209999999999994	0.0
C 	56.56877937519953	36.919999999999995	0.0
C 	57.79853544857343	36.20999999999999	0.0
C 	59.02829152194733	36.91999999999999	0.0
C 	60.25804759532123	36.20999999999999	0.0
C 	61.48780366869515	36.919999999999995	0.0
C 	62.71755974206904	36.209999999999994	0.0
C 	63.94731581544295	36.919999999999995	0.0
C 	65.17707188881684	36.209999999999994	0.0
C 	66.40682796219075	36.919999999999995	0.0
C 	67.63658403556467	36.209999999999994	0.0
C 	68.86634010893856	36.91999999999999	0.0
C 	70.09609618231246	36.209999999999994	0.0
C 	71.32585225568636	36.91999999999999	0.0
C 	72.55560832906026	36.209999999999994	0.0
C 	73.78536440243417	36.919999999999995	0.0
C 	75.01512047580806	36.20999999999999	0.0
C 	76.24487654918198	36.919999999999995	0.0
C 	77.47463262255586	36.20999999999999	0.0
C 	78.70438869592978	36.919999999999995	0.0
C 	79.93414476930369	36.20999999999999	0.0
C 	81.16390084267759	36.91999999999999	0.0
C 	22.13560932073025	38.33999999999999	0.0
C 	23.365365394104153	39.04999999999999	0.0
C 	24.59512146747806	38.33999999999999	0.0
C 	25.82487754085196	39.04999999999999	0.0
C 	27.05463361422586	38.33999999999999	0.0
C 	28.284389687599763	39.04999999999999	0.0
C 	29.514145760973665	38.33999999999999	0.0
C 	30.74390183434757	39.04999999999999	0.0
C 	31.973657907721474	38.339999999999996	0.0
C 	33.20341398109538	39.04999999999999	0.0
C 	34.43317005446927	38.33999999999999	0.0
C 	35.66292612784318	39.04999999999999	0.0
C 	36.892682201217085	38.33999999999999	0.0
C 	38.12243827459099	39.04999999999999	0.0
C 	39.35219434796489	38.33999999999999	0.0
C 	40.581950421338796	39.04999999999999	0.0
C 	41.811706494712695	38.33999999999999	0.0
C 	43.0414625680866	39.04999999999999	0.0
C 	44.27121864146049	38.33999999999999	0.0
C 	45.5009747148344	39.04999999999999	0.0
C 	46.730730788208305	38.33999999999999	0.0
C 	47.960486861582204	39.04999999999999	0.0
C 	49.19024293495611	38.33999999999999	0.0
C 	50.41999900833002	39.04999999999999	0.0
C 	51.649755081703915	38.33999999999999	0.0
C 	52.879511155077815	39.04999999999999	0.0
C 	54.10926722845173	38.33999999999999	0.0
C 	55.33902330182562	39.04999999999998	0.0
C 	56.568779375199526	38.33999999999999	0.0
C 	57.79853544857343	39.04999999999999	0.0
C 	59.02829152194733	38.33999999999999	0.0
C 	60.25804759532123	39.04999999999999	0.0
C 	61.48780366869513	38.33999999999998	0.0
C 	62.71755974206905	39.04999999999999	0.0
C 	63.94731581544294	38.33999999999999	0.0
C 	65.17707188881685	39.04999999999999	0.0
C 	66.40682796219075	38.33999999999999	0.0
C 	67.63658403556465	39.04999999999999	0.0
C 	68.86634010893856	38.33999999999999	0.0
C 	70.09609618231245	39.04999999999998	0.0
C 	71.32585225568636	38.33999999999999	0.0
C 	72.55560832906025	39.04999999999998	0.0
C 	73.78536440243415	38.33999999999999	0.0
C 	75.01512047580806	39.04999999999999	0.0
C 	76.24487654918197	38.33999999999999	0.0
C 	77.47463262255587	39.05	0.0
C 	78.70438869592977	38.33999999999998	0.0
C 	79.93414476930369	39.04999999999999	0.0
C 	81.16390084267758	38.33999999999998	0.0
C 	82.39365691605148	39.04999999999998	0.0
C 	23.365365394104156	40.46999999999999	0.0
C 	24.59512146747806	41.17999999999999	0.0
C 	25.82487754085196	40.46999999999999	0.0
C 	27.054633614225867	41.17999999999999	0.0
C 	28.284389687599763	40.46999999999999	0.0
C 	29.51414576097367	41.17999999999999	0.0
C 	30.74390183434757	40.46999999999999	0.0
C 	31.973657907721474	41.17999999999999	0.0
C 	33.20341398109537	40.46999999999999	0.0
C 	34.43317005446928	41.17999999999999	0.0
C 	35.66292612784318	40.46999999999999	0.0
C 	36.892682201217085	41.17999999999999	0.0
C 	38.12243827459099	40.46999999999999	0.0
C 	39.3521943479649	41.17999999999999	0.0
C 	40.58195042133879	40.46999999999999	0.0
C 	41.811706494712695	41.17999999999999	0.0
C 	43.0414625680866	40.46999999999999	0.0
C 	44.2712186414605	41.17999999999999	0.0
C 	45.500974714834406	40.46999999999999	0.0
C 	46.73073078820831	41.17999999999999	0.0
C 	47.960486861582204	40.46999999999999	0.0
C 	49.19024293495611	41.17999999999999	0.0
C 	50.41999900833002	40.46999999999999	0.0
C 	51.649755081703915	41.179999999999986	0.0
C 	52.87951115507782	40.46999999999999	0.0
C 	54.10926722845173	41.17999999999999	0.0
C 	55.33902330182563	40.46999999999999	0.0
C 	56.568779375199526	41.17999999999999	0.0
C 	57.798535448573425	40.469999999999985	0.0
C 	59.028291521947345	41.17999999999999	0.0
C 	60.25804759532124	40.46999999999999	0.0
C 	61.48780366869514	41.17999999999999	0.0
C 	62.71755974206904	40.46999999999999	0.0
C 	63.94731581544295	41.17999999999999	0.0
C 	65.17707188881685	40.46999999999999	0.0
C 	66.40682796219075	41.179999999999986	0.0
C 	67.63658403556465	40.46999999999999	0.0
C 	68.86634010893854	41.179999999999986	0.0
C 	70.09609618231246	40.46999999999999	0.0
C 	71.32585225568636	41.17999999999999	0.0
C 	72.55560832906026	40.469999999999985	0.0
C 	73.78536440243417	41.179999999999986	0.0
C 	75.01512047580806	40.469999999999985	0.0
C 	76.24487654918198	41.17999999999999	0.0
C 	77.47463262255587	40.46999999999999	0.0
C 	78.70438869592978	41.17999999999999	0.0
C 	79.93414476930367	40.469999999999985	0.0
C 	81.16390084267758	41.179999999999986	0.0
C 	82.3936569160515	40.46999999999999	0.0
C 	83.62341298942539	41.179999999999986	0.0
C 	24.595121467478055	42.59999999999999	0.0
C 	25.82487754085196	43.30999999999999	0.0
C 	27.05463361422586	42.59999999999999	0.0
C 	28.284389687599766	43.30999999999999	0.0
C 	29.514145760973662	42.59999999999999	0.0
C 	30.743901834347568	43.30999999999999	0.0
C 	31.97365790772147	42.59999999999999	0.0
C 	33.20341398109537	43.30999999999999	0.0
C 	34.43317005446927	42.59999999999999	0.0
C 	35.66292612784318	43.30999999999999	0.0
C 	36.89268220121708	42.59999999999999	0.0
C 	38.122438274590984	43.30999999999999	0.0
C 	39.35219434796489	42.59999999999999	0.0
C 	40.581950421338796	43.30999999999999	0.0
C 	41.81170649471269	42.59999999999999	0.0
C 	43.041462568086594	43.30999999999999	0.0
C 	44.2712186414605	42.59999999999999	0.0
C 	45.5009747148344	43.30999999999999	0.0
C 	46.730730788208305	42.59999999999999	0.0
C 	47.96048686158221	43.30999999999999	0.0
C 	49.19024293495611	42.59999999999999	0.0
C 	50.41999900833001	43.30999999999999	0.0
C 	51.64975508170392	42.599999999999994	0.0
C 	52.879511155077815	43.30999999999999	0.0
C 	54.10926722845172	42.59999999999999	0.0
C 	55.33902330182563	43.30999999999999	0.0
C 	56.568779375199526	42.59999999999999	0.0
C 	57.798535448573425	43.30999999999999	0.0
C 	59.028291521947324	42.59999999999998	0.0
C 	60.258047595321244	43.30999999999999	0.0
C 	61.487803668695136	42.59999999999999	0.0
C 	62.71755974206904	43.30999999999999	0.0
C 	63.94731581544294	42.59999999999999	0.0
C 	65.17707188881684	43.30999999999999	0.0
C 	66.40682796219076	42.599999999999994	0.0
C 	67.63658403556465	43.30999999999999	0.0
C 	68.86634010893856	42.59999999999999	0.0
C 	70.09609618231245	43.30999999999998	0.0
C 	71.32585225568636	42.59999999999999	0.0
C 	72.55560832906026	43.30999999999999	0.0
C 	73.78536440243415	42.59999999999999	0.0
C 	75.01512047580806	43.30999999999999	0.0
C 	76.24487654918197	42.59999999999998	0.0
C 	77.47463262255587	43.30999999999999	0.0
C 	78.70438869592978	42.59999999999999	0.0
C 	79.93414476930367	43.30999999999999	0.0
C 	81.16390084267758	42.59999999999999	0.0
C 	82.39365691605148	43.30999999999999	0.0
C 	83.62341298942539	42.59999999999999	0.0
C 	84.85316906279928	43.30999999999998	0.0
C 	25.82487754085196	44.72999999999999	0.0
C 	27.054633614225864	45.43999999999999	0.0
C 	28.284389687599766	44.72999999999999	0.0
C 	29.514145760973673	45.43999999999999	0.0
C 	30.743901834347568	44.72999999999999	0.0
C 	31.97365790772147	45.43999999999999	0.0
C 	33.20341398109537	44.72999999999999	0.0
C 	34.43317005446928	45.43999999999999	0.0
C 	35.662926127843185	44.72999999999999	0.0
C 	36.892682201217085	45.43999999999999	0.0
C 	38.122438274590984	44.72999999999999	0.0
C 	39.35219434796489	45.43999999999999	0.0
C 	40.581950421338796	44.72999999999999	0.0
C 	41.811706494712695	45.43999999999999	0.0
C 	43.0414625680866	44.72999999999999	0.0
C 	44.27121864146051	45.43999999999999	0.0
C 	45.500974714834406	44.72999999999999	0.0
C 	46.730730788208305	45.43999999999999	0.0
C 	47.960486861582204	44.72999999999999	0.0
C 	49.19024293495611	45.43999999999998	0.0
C 	50.41999900833002	44.72999999999999	0.0
C 	51.64975508170391	45.43999999999998	0.0
C 	52.87951115507782	44.72999999999999	0.0
C 	54.10926722845172	45.43999999999999	0.0
C 	55.33902330182562	44.72999999999998	0.0
C 	56.568779375199526	45.43999999999998	0.0
C 	57.798535448573425	44.72999999999998	0.0
C 	59.02829152194734	45.43999999999999	0.0
C 	60.25804759532124	44.72999999999999	0.0
C 	61.48780366869514	45.43999999999999	0.0
C 	62.717559742069035	44.72999999999998	0.0
C 	63.94731581544294	45.43999999999998	0.0
C 	65.17707188881685	44.72999999999999	0.0
C 	66.40682796219075	45.43999999999998	0.0
C 	67.63658403556465	44.72999999999999	0.0
C 	68.86634010893856	45.43999999999999	0.0
C 	70.09609618231245	44.72999999999999	0.0
C 	71.32585225568636	45.43999999999998	0.0
C 	72.55560832906026	44.72999999999998	0.0
C 	73.78536440243417	45.43999999999999	0.0
C 	75.01512047580806	44.72999999999998	0.0
C 	76.24487654918198	45.43999999999999	0.0
C 	77.47463262255587	44.72999999999999	0.0
C 	78.70438869592978	45.43999999999999	0.0
C 	79.93414476930369	44.72999999999999	0.0
C 	81.16390084267758	45.43999999999998	0.0
C 	82.39365691605148	44.72999999999999	0.0
C 	83.62341298942538	45.43999999999998	0.0
C 	84.8531690627993	44.72999999999998	0.0
C 	86.08292513617319	45.43999999999998	0.0
C 	27.054633614225864	46.85999999999999	0.0
C 	28.28438968759977	47.56999999999999	0.0
C 	29.514145760973673	46.85999999999999	0.0
C 	30.74390183434758	47.56999999999999	0.0
C 	31.973657907721474	46.85999999999999	0.0
C 	33.20341398109538	47.56999999999999	0.0
C 	34.43317005446928	46.85999999999999	0.0
C 	35.662926127843185	47.56999999999999	0.0
C 	36.892682201217085	46.85999999999999	0.0
C 	38.122438274590984	47.56999999999999	0.0
C 	39.35219434796489	46.85999999999999	0.0
C 	40.581950421338796	47.56999999999999	0.0
C 	41.8117064947127	46.85999999999999	0.0
C 	43.0414625680866	47.56999999999999	0.0
C 	44.2712186414605	46.85999999999999	0.0
C 	45.500974714834406	47.56999999999999	0.0
C 	46.73073078820831	46.859999999999985	0.0
C 	47.960486861582204	47.569999999999986	0.0
C 	49.19024293495612	46.85999999999999	0.0
C 	50.41999900833002	47.56999999999999	0.0
C 	51.649755081703915	46.859999999999985	0.0
C 	52.87951115507782	47.569999999999986	0.0
C 	54.10926722845172	46.859999999999985	0.0
C 	55.339023301825634	47.56999999999999	0.0
C 	56.56877937519953	46.85999999999999	0.0
C 	57.79853544857344	47.56999999999999	0.0
C 	59.02829152194733	46.859999999999985	0.0
C 	60.25804759532124	47.569999999999986	0.0
C 	61.48780366869515	46.85999999999999	0.0
C 	62.71755974206904	47.569999999999986	0.0
C 	63.94731581544295	46.85999999999999	0.0
C 	65.17707188881685	47.56999999999999	0.0
C 	66.40682796219075	46.859999999999985	0.0
C 	67.63658403556465	47.569999999999986	0.0
C 	68.86634010893856	46.859999999999985	0.0
C 	70.09609618231246	47.56999999999999	0.0
C 	71.32585225568636	46.859999999999985	0.0
C 	72.55560832906028	47.56999999999999	0.0
C 	73.78536440243417	46.859999999999985	0.0
C 	75.01512047580808	47.569999999999986	0.0
C 	76.24487654918197	46.859999999999985	0.0
C 	77.47463262255587	47.569999999999986	0.0
C 	78.70438869592978	46.85999999999999	0.0
C 	79.93414476930367	47.569999999999986	0.0
C 	81.16390084267758	46.85999999999999	0.0
C 	82.39365691605148	47.56999999999999	0.0
C 	83.62341298942539	46.859999999999985	0.0
C 	84.8531690627993	47.569999999999986	0.0
C 	86.08292513617319	46.85999999999998	0.0
C 	87.31268120954711	47.569999999999986	0.0
C 	28.284389687599763	48.98999999999999	0.0
C 	29.51414576097367	49.69999999999999	0.0
C 	30.74390183434757	48.98999999999999	0.0
C 	31.973657907721478	49.69999999999999	0.0
C 	33.20341398109537	48.98999999999999	0.0
C 	34.43317005446928	49.69999999999999	0.0
C 	35.66292612784318	48.98999999999999	0.0
C 	36.892682201217085	49.69999999999999	0.0
C 	38.122438274590984	48.98999999999999	0.0
C 	39.35219434796488	49.69999999999999	0.0
C 	40.58195042133879	48.98999999999999	0.0
C 	41.811706494712695	49.69999999999999	0.0
C 	43.041462568086594	48.98999999999999	0.0
C 	44.2712186414605	49.69999999999999	0.0
C 	45.5009747148344	48.98999999999999	0.0
C 	46.730730788208305	49.69999999999998	0.0
C 	47.96048686158221	48.98999999999999	0.0
C 	49.1902429349561	49.69999999999998	0.0
C 	50.41999900833002	48.98999999999999	0.0
C 	51.64975508170392	49.69999999999999	0.0
C 	52.879511155077815	48.98999999999999	0.0
C 	54.10926722845172	49.69999999999999	0.0
C 	55.33902330182562	48.98999999999998	0.0
C 	56.56877937519953	49.69999999999999	0.0
C 	57.79853544857343	48.98999999999999	0.0
C 	59.02829152194734	49.69999999999999	0.0
C 	60.25804759532124	48.98999999999999	0.0
C 	61.487803668695136	49.69999999999999	0.0
C 	62.71755974206905	48.98999999999999	0.0
C 	63.94731581544294	49.69999999999998	0.0
C 	65.17707188881685	48.98999999999999	0.0
C 	66.40682796219075	49.69999999999999	0.0
C 	67.63658403556465	48.98999999999999	0.0
C 	68.86634010893856	49.69999999999999	0.0
C 	70.09609618231245	48.98999999999998	0.0
C 	71.32585225568637	49.69999999999999	0.0
C 	72.55560832906025	48.98999999999998	0.0
C 	73.78536440243417	49.69999999999999	0.0
C 	75.01512047580806	48.98999999999999	0.0
C 	76.24487654918197	49.69999999999999	0.0
C 	77.47463262255587	48.98999999999998	0.0
C 	78.70438869592978	49.69999999999998	0.0
C 	79.93414476930369	48.98999999999999	0.0
C 	81.16390084267758	49.69999999999998	0.0
C 	82.39365691605148	48.98999999999999	0.0
C 	83.62341298942539	49.69999999999999	0.0
C 	84.85316906279928	48.98999999999998	0.0
C 	86.08292513617319	49.69999999999998	0.0
C 	87.3126812095471	48.98999999999998	0.0
C 	88.542437282921	49.69999999999999	0.0
C 	29.51414576097367	51.11999999999999	0.0
C 	30.74390183434757	51.82999999999999	0.0
C 	31.973657907721474	51.11999999999999	0.0
C 	33.20341398109538	51.82999999999999	0.0
C 	34.43317005446928	51.11999999999999	0.0
C 	35.66292612784318	51.82999999999999	0.0
C 	36.892682201217085	51.11999999999999	0.0
C 	38.12243827459099	51.82999999999999	0.0
C 	39.35219434796489	51.12	0.0
C 	40.581950421338796	51.83	0.0
C 	41.811706494712695	51.11999999999999	0.0
C 	43.041462568086594	51.82999999999999	0.0
C 	44.2712186414605	51.12	0.0
C 	45.5009747148344	51.82999999999999	0.0
C 	46.73073078820831	51.11999999999999	0.0
C 	47.96048686158221	51.82999999999999	0.0
C 	49.19024293495611	51.11999999999999	0.0
C 	50.41999900833002	51.82999999999999	0.0
C 	51.649755081703915	51.11999999999998	0.0
C 	52.879511155077815	51.829999999999984	0.0
C 	54.10926722845171	51.11999999999999	0.0
C 	55.33902330182563	51.83	0.0
C 	56.568779375199526	51.11999999999999	0.0
C 	57.79853544857343	51.82999999999999	0.0
C 	59.02829152194733	51.11999999999999	0.0
C 	60.25804759532124	51.82999999999999	0.0
C 	61.48780366869514	51.11999999999999	0.0
C 	62.717559742069035	51.829999999999984	0.0
C 	63.94731581544295	51.11999999999999	0.0
C 	65.17707188881685	51.82999999999999	0.0
C 	66.40682796219075	51.11999999999999	0.0
C 	67.63658403556465	51.82999999999999	0.0
C 	68.86634010893854	51.11999999999998	0.0
C 	70.09609618231246	51.82999999999999	0.0
C 	71.32585225568636	51.11999999999999	0.0
C 	72.55560832906026	51.82999999999999	0.0
C 	73.78536440243417	51.11999999999999	0.0
C 	75.01512047580806	51.82999999999999	0.0
C 	76.24487654918198	51.11999999999999	0.0
C 	77.47463262255587	51.829999999999984	0.0
C 	78.70438869592978	51.11999999999999	0.0
C 	79.93414476930367	51.829999999999984	0.0
C 	81.16390084267758	51.11999999999999	0.0
C 	82.39365691605148	51.82999999999999	0.0
C 	83.62341298942538	51.11999999999998	0.0
C 	84.8531690627993	51.82999999999999	0.0
C 	86.08292513617319	51.11999999999998	0.0
C 	87.3126812095471	51.82999999999999	0.0
C 	88.542437282921	51.11999999999998	0.0
C 	89.7721933562949	51.829999999999984	0.0
C 	54.12117031644298	0.8533015753944131	2.15
C 	55.35829392823365	1.5503849055279064	2.15
C 	55.37316386167872	2.9703070460269356	2.15
C 	56.61028747346939	3.667390376160436	2.15
C 	56.62515740691446	5.087312516659465	2.15
C 	57.86228101870513	5.7843958467929655	2.15
C 	57.8771509521502	7.2043179872919945	2.15
C 	59.114274563940874	7.901401317425488	2.15
C 	59.129144497385944	9.321323457924516	2.15
C 	60.3662681091766	10.018406788058018	2.15
C 	60.38113804262167	11.438328928557047	2.15
C 	61.61826165441234	12.135412258690547	2.15
C 	61.63313158785741	13.555334399189576	2.15
C 	62.870255199648085	14.252417729323069	2.15
C 	62.885125133093155	15.672339869822098	2.15
C 	64.12224874488382	16.369423199955598	2.15
C 	64.13711867832889	17.789345340454627	2.15
C 	65.37424229011955	18.48642867058813	2.15
C 	65.38911222356462	19.906350811087158	2.15
C 	66.6262358353553	20.60343414122065	2.15
C 	66.64110576880037	22.02335628171968	2.15
C 	67.87822938059104	22.720439611853173	2.15
C 	67.8930993140361	24.140361752352202	2.15
C 	69.13022292582679	24.837445082485708	2.15
C 	69.14509285927186	26.257367222984737	2.15
C 	70.38221647106252	26.95445055311823	2.15
C 	70.39708640450759	28.37437269361726	2.15
C 	71.63421001629825	29.071456023750752	2.15
C 	71.64907994974332	30.49137816424978	2.15
C 	72.88620356153399	31.18846149438329	2.15
C 	72.90107349497906	32.608383634882316	2.15
C 	74.13819710676974	33.30546696501581	2.15
C 	74.15306704021481	34.72538910551484	2.15
C 	51.66179302630671	0.8790570556264411	2.15
C 	52.89891663809738	1.5761403857599414	2.15
C 	52.91378657154245	2.9960625262589704	2.15
C 	54.15091018333312	3.693145856392464	2.15
C 	54.16578011677819	5.113067996891493	2.15
C 	55.402903728568866	5.810151327024993	2.15
C 	55.417773662013936	7.230073467524022	2.15
C 	56.6548972738046	7.927156797657523	2.15
C 	56.66976720724967	9.347078938156551	2.15
C 	57.90689081904034	10.044162268290044	2.15
C 	57.92176075248541	11.464084408789073	2.15
C 	59.158884364276076	12.161167738922575	2.15
C 	59.173754297721146	13.581089879421603	2.15
C 	60.41087790951182	14.278173209555105	2.15
C 	60.42574784295689	15.698095350054134	2.15
C 	61.66287145474755	16.395178680187627	2.15
C 	61.67774138819262	17.815100820686656	2.15
C 	62.914864999983294	18.512184150820154	2.15
C 	62.92973493342836	19.932106291319183	2.15
C 	64.16685854521903	20.629189621452685	2.15
C 	64.1817284786641	22.049111761951714	2.15
C 	65.41885209045476	22.74619509208521	2.15
C 	65.43372202389983	24.166117232584238	2.15
C 	66.67084563569053	24.86320056271773	2.15
C 	66.6857155691356	26.28312270321676	2.15
C 	67.92283918092625	26.980206033350267	2.15
C 	67.93770911437132	28.400128173849296	2.15
C 	69.174832726162	29.097211503982788	2.15
C 	69.18970265960706	30.517133644481817	2.15
C 	70.42682627139773	31.21421697461531	2.15
C 	70.4416962048428	32.63413911511434	2.15
C 	71.67881981663346	33.331222445247846	2.15
C 	71.69368975007853	34.75114458574688	2.15
C 	72.9308133618692	35.448227915880366	2.15
C 	72.94568329531427	36.8681500563794	2.15
C 	74.18280690710495	37.565233386512894	2.15
C 	74.19767684055	38.98515552701192	2.15
C 	49.202415736170444	0.9048125358584691	2.15
C 	50.43953934796111	1.6018958659919695	2.15
C 	50.45440928140618	3.0218180064909985	2.15
C 	51.69153289319685	3.718901336624499	2.15
C 	51.70640282664192	5.138823477123528	2.15
C 	52.94352643843259	5.835906807257021	2.15
C 	52.95839637187766	7.25582894775605	2.15
C 	54.19551998366833	7.952912277889551	2.15
C 	54.2103899171134	9.37283441838858	2.15
C 	55.447513528904075	10.06991774852208	2.15
C 	55.462383462349145	11.489839889021109	2.15
C 	56.69950707413981	12.186923219154602	2.15
C 	56.71437700758488	13.606845359653631	2.15
C 	57.95150061937555	14.303928689787131	2.15
C 	57.96637055282062	15.72385083028616	2.15
C 	59.20349416461129	16.420934160419662	2.15
C 	59.21836409805636	17.84085630091869	2.15
C 	60.45548770984702	18.537939631052183	2.15
C 	60.47035764329208	19.95786177155121	2.15
C 	61.707481255082755	20.654945101684714	2.15
C 	61.722351188527824	22.074867242183743	2.15
C 	62.959474800318496	22.77195057231724	2.15
C 	62.974344733763566	24.19187271281627	2.15
C 	64.21146834555424	24.888956042949765	2.15
C 	64.22633827899931	26.308878183448794	2.15
C 	65.46346189078999	27.00596151358229	2.15
C 	65.47833182423506	28.425883654081318	2.15
C 	66.71545543602572	29.122966984214823	2.15
C 	66.73032536947079	30.542889124713852	2.15
C 	67.96744898126146	31.239972454847347	2.15
C 	67.98231891470652	32.65989459534637	2.15
C 	69.2194425264972	33.35697792547987	2.15
C 	69.23431245994227	34.7769000659789	2.15
C 	70.47143607173294	35.4739833961124	2.15
C 	70.48630600517801	36.893905536611435	2.15
C 	71.72342961696867	37.59098886674493	2.15
C 	71.73829955041373	39.010911007243955	2.15
C 	72.97542316220441	39.70799433737745	2.15
C 	72.99029309564948	41.127916477876475	2.15
C 	46.74303844603418	0.9305680160904971	2.15
C 	47.98016205782485	1.6276513462239903	2.15
C 	47.99503199126992	3.0475734867230195	2.15
C 	49.23215560306058	3.7446568168565197	2.15
C 	49.24702553650565	5.164578957355549	2.15
C 	50.48414914829632	5.861662287489049	2.15
C 	50.49901908174139	7.281584427988078	2.15
C 	51.73614269353206	7.9786677581215715	2.15
C 	51.75101262697713	9.398589898620601	2.15
C 	52.9881362387678	10.095673228754102	2.15
C 	53.00300617221287	11.51559536925313	2.15
C 	54.24012978400354	12.21267869938663	2.15
C 	54.25499971744861	13.63260083988566	2.15
C 	55.492123329239284	14.329684170019153	2.15
C 	55.506993262684354	15.749606310518182	2.15
C 	56.74411687447502	16.446689640651684	2.15
C 	56.75898680792009	17.866611781150713	2.15
C 	57.99611041971076	18.56369511128421	2.15
C 	58.01098035315582	19.98361725178324	2.15
C 	59.24810396494649	20.680700581916735	2.15
C 	59.26297389839156	22.100622722415764	2.15
C 	60.50009751018223	22.797706052549263	2.15
C 	60.5149674436273	24.21762819304829	2.15
C 	61.752091055417964	24.914711523181793	2.15
C 	61.76696098886303	26.334633663680822	2.15
C 	63.004084600653705	27.031716993814314	2.15
C 	63.018954534098775	28.451639134313343	2.15
C 	64.25607814588945	29.148722464446838	2.15
C 	64.27094807933452	30.568644604945867	2.15
C 	65.50807169112518	31.265727935079376	2.15
C 	65.52294162457025	32.6856500755784	2.15
C 	66.76006523636094	33.382733405711896	2.15
C 	66.77493516980601	34.80265554621093	2.15
C 	68.01205878159666	35.499738876344416	2.15
C 	68.02692871504173	36.91966101684345	2.15
C 	69.26405232683241	37.61674434697696	2.15
C 	69.27892226027747	39.03666648747598	2.15
C 	70.51604587206815	39.73374981760948	2.15
C 	70.53091580551322	41.153671958108504	2.15
C 	71.76803941730387	41.850755288242	2.15
C 	71.78290935074894	43.27067742874103	2.15
C 	44.28366115589791	0.9563234963225251	2.15
C 	45.520784767688575	1.6534068264560255	2.15
C 	45.535654701133645	3.0733289669550543	2.15
C 	46.772778312924316	3.770412297088548	2.15
C 	46.787648246369386	5.190334437587577	2.15
C 	48.02477185816006	5.887417767721077	2.15
C 	48.03964179160513	7.307339908220106	2.15
C 	49.27676540339579	8.004423238353606	2.15
C 	49.29163533684086	9.424345378852635	2.15
C 	50.52875894863153	10.121428708986128	2.15
C 	50.5436288820766	11.541350849485157	2.15
C 	51.78075249386727	12.23843417961866	2.15
C 	51.79562242731234	13.658356320117687	2.15
C 	53.03274603910301	14.355439650251189	2.15
C 	53.04761597254808	15.775361790750217	2.15
C 	54.28473958433875	16.47244512088371	2.15
C 	54.29960951778382	17.892367261382738	2.15
C 	55.536733129574486	18.58945059151624	2.15
C 	55.55160306301955	20.00937273201527	2.15
C 	56.78872667481022	20.70645606214877	2.15
C 	56.80359660825529	22.1263782026478	2.15
C 	58.04072022004596	22.82346153278129	2.15
C 	58.05559015349103	24.24338367328032	2.15
C 	59.292713765281704	24.940467003413822	2.15
C 	59.30758369872677	26.36038914391285	2.15
C 	60.54470731051743	27.05747247404635	2.15
C 	60.5595772439625	28.47739461454538	2.15
C 	61.79670085575317	29.174477944678873	2.15
C 	61.81157078919824	30.594400085177902	2.15
C 	63.048694400988914	31.291483415311394	2.15
C 	63.063564334433984	32.71140555581042	2.15
C 	64.30068794622466	33.40848888594393	2.15
C 	64.31555787966973	34.82841102644296	2.15
C 	65.5526814914604	35.52549435657645	2.15
C 	65.56755142490547	36.945416497075485	2.15
C 	66.80467503669614	37.64249982720898	2.15
C 	66.8195449701412	39.062421967708005	2.15
C 	68.05666858193187	39.759505297841514	2.15
C 	68.07153851537694	41.17942743834054	2.15
C 	69.30866212716761	41.876510768474034	2.15
C 	69.32353206061268	43.29643290897307	2.15
C 	70.56065567240336	43.993516239106555	2.15
C 	70.57552560584843	45.41343837960559	2.15
C 	41.824283865761636	0.982078976554553	2.15
C 	43.061407477552315	1.6791623066880463	2.15
C 	43.076277410997385	3.0990844471870753	2.15
C 	44.31340102278805	3.796167777320576	2.15
C 	44.32827095623312	5.2160899178196045	2.15
C 	45.565394568023784	5.9131732479530985	2.15
C 	45.580264501468854	7.3330953884521275	2.15
C 	46.817388113259526	8.030178718585628	2.15
C 	46.832258046704595	9.450100859084657	2.15
C 	48.06938165849527	10.147184189218157	2.15
C 	48.08425159194034	11.567106329717186	2.15
C 	49.321375203731	12.264189659850679	2.15
C 	49.33624513717607	13.684111800349708	2.15
C 	50.57336874896674	14.381195130483208	2.15
C 	50.58823868241181	15.801117270982237	2.15
C 	51.82536229420248	16.498200601115737	2.15
C 	51.84023222764755	17.918122741614766	2.15
C 	53.07735583943822	18.61520607174826	2.15
C 	53.09222577288328	20.03512821224729	2.15
C 	54.32934938467395	20.73221154238079	2.15
C 	54.344219318119016	22.152133682879818	2.15
C 	55.581342929909695	22.84921701301332	2.15
C 	55.596212863354765	24.26913915351235	2.15
C 	56.83333647514543	24.966222483645844	2.15
C 	56.8482064085905	26.38614462414487	2.15
C 	58.08533002038117	27.08322795427837	2.15
C 	58.10019995382624	28.5031500947774	2.15
C 	59.337323565616906	29.200233424910902	2.15
C 	59.352193499061976	30.62015556540993	2.15
C 	60.58931711085265	31.317238895543422	2.15
C 	60.60418704429772	32.73716103604245	2.15
C 	61.84131065608839	33.434244366175946	2.15
C 	61.85618058953346	34.85416650667497	2.15
C 	63.09330420132412	35.55124983680848	2.15
C 	63.10817413476919	36.97117197730751	2.15
C 	64.34529774655987	37.668255307441	2.15
C 	64.36016768000493	39.08817744794003	2.15
C 	65.5972912917956	39.78526077807353	2.15
C 	65.61216122524067	41.205182918572554	2.15
C 	66.84928483703135	41.90226624870606	2.15
C 	66.86415477047642	43.32218838920509	2.15
C 	68.10127838226708	44.01927171933858	2.15
C 	68.11614831571215	45.439193859837616	2.15
C 	69.35327192750282	46.13627718997111	2.15
C 	39.36490657562537	1.0078344567865811	2.15
C 	40.602030187416034	1.7049177869200816	2.15
C 	40.616900120861104	3.1248399274191105	2.15
C 	41.854023732651775	3.8219232575526036	2.15
C 	41.868893666096845	5.241845398051633	2.15
C 	43.106017277887524	5.938928728185133	2.15
C 	43.120887211332594	7.358850868684162	2.15
C 	44.35801082312326	8.055934198817656	2.15
C 	44.37288075656833	9.475856339316685	2.15
C 	45.61000436835899	10.172939669450185	2.15
C 	45.62487430180406	11.592861809949214	2.15
C 	46.861997913594735	12.289945140082715	2.15
C 	46.876867847039804	13.709867280581744	2.15
C 	48.113991458830476	14.406950610715237	2.15
C 	48.128861392275546	15.826872751214266	2.15
C 	49.36598500406622	16.523956081347766	2.15
C 	49.38085493751129	17.943878221846795	2.15
C 	50.61797854930195	18.640961551980297	2.15
C 	50.632848482747015	20.060883692479326	2.15
C 	51.86997209453768	20.757967022612817	2.15
C 	51.88484202798275	22.177889163111846	2.15
C 	53.12196563977342	22.874972493245348	2.15
C 	53.13683557321849	24.294894633744377	2.15
C 	54.37395918500916	24.991977963877876	2.15
C 	54.38882911845423	26.411900104376905	2.15
C 	55.6259527302449	27.1089834345104	2.15
C 	55.64082266368997	28.52890557500943	2.15
C 	56.87794627548064	29.225988905142927	2.15
C 	56.89281620892571	30.645911045641956	2.15
C 	58.12993982071638	31.342994375775458	2.15
C 	58.14480975416145	32.76291651627449	2.15
C 	59.38193336595212	33.45999984640798	2.15
C 	59.39680329939719	34.87992198690701	2.15
C 	60.633926911187864	35.5770053170405	2.15
C 	60.64879684463293	36.996927457539535	2.15
C 	61.88592045642359	37.69401078767304	2.15
C 	61.90079038986866	39.11393292817207	2.15
C 	63.13791400165933	39.811016258305564	2.15
C 	63.1527839351044	41.23093839880459	2.15
C 	64.38990754689507	41.928021728938084	2.15
C 	64.40477748034014	43.34794386943711	2.15
C 	65.64190109213082	44.04502719957062	2.15
C 	65.65677102557589	45.46494934006965	2.15
C 	66.89389463736654	46.16203267020314	2.15
C 	36.9055292854891	1.0335899370186055	2.15
C 	38.142652897279774	1.730673267152106	2.15
C 	38.157522830724844	3.150595407651131	2.15
C 	39.39464644251551	3.8476787377846353	2.15
C 	39.40951637596058	5.267600878283661	2.15
C 	40.64663998775124	5.964684208417157	2.15
C 	40.66150992119631	7.384606348916183	2.15
C 	41.898633532986985	8.081689679049687	2.15
C 	41.913503466432054	9.501611819548712	2.15
C 	43.15062707822273	10.198695149682209	2.15
C 	43.1654970116678	11.618617290181234	2.15
C 	44.40262062345847	12.31570062031474	2.15
C 	44.41749055690354	13.735622760813765	2.15
C 	45.6546141686942	14.432706090947269	2.15
C 	45.66948410213927	15.852628231446294	2.15
C 	46.906607713929944	16.54971156157979	2.15
C 	46.92147764737501	17.969633702078816	2.15
C 	48.158601259165685	18.66671703221232	2.15
C 	48.17347119261075	20.086639172711344	2.15
C 	49.41059480440142	20.78372250284485	2.15
C 	49.42546473784649	22.203644643343875	2.15
C 	50.662588349637154	22.900727973477373	2.15
C 	50.677458283082224	24.3206501139764	2.15
C 	51.91458189487289	25.0177334441099	2.15
C 	51.92945182831796	26.437655584608926	2.15
C 	53.16657544010863	27.13473891474243	2.15
C 	53.1814453735537	28.554661055241457	2.15
C 	54.418568985344365	29.251744385374952	2.15
C 	54.433438918789435	30.671666525873977	2.15
C 	55.67056253058011	31.368749856007483	2.15
C 	55.68543246402518	32.78867199650651	2.15
C 	56.92255607581585	33.48575532664001	2.15
C 	56.93742600926092	34.905677467139036	2.15
C 	58.17454962105159	35.60276079727253	2.15
C 	58.18941955449666	37.022682937771556	2.15
C 	59.42654316628733	37.71976626790505	2.15
C 	59.4414130997324	39.13968840840408	2.15
C 	60.678536711523066	39.83677173853759	2.15
C 	60.693406644968135	41.25669387903662	2.15
C 	61.93053025675881	41.95377720917011	2.15
C 	61.94540019020388	43.37369934966914	2.15
C 	63.18252380199454	44.07078267980263	2.15
C 	63.19739373543961	45.490704820301666	2.15
C 	64.43451734723028	46.18778815043517	2.15
C 	34.446151995352835	1.0593454172506371	2.15
C 	35.6832756071435	1.756428747384134	2.15
C 	35.69814554058857	3.1763508878831628	2.15
C 	36.93526915237924	3.87343421801666	2.15
C 	36.95013908582431	5.293356358515688	2.15
C 	38.18726269761498	5.9904396886491895	2.15
C 	38.20213263106005	7.4103618291482185	2.15
C 	39.43925624285072	8.107445159281712	2.15
C 	39.45412617629579	9.52736729978074	2.15
C 	40.69124978808645	10.22445062991424	2.15
C 	40.70611972153152	11.64437277041327	2.15
C 	41.943243333322194	12.341456100546763	2.15
C 	41.95811326676726	13.761378241045792	2.15
C 	43.19523687855794	14.458461571179292	2.15
C 	43.21010681200301	15.878383711678321	2.15
C 	44.44723042379368	16.575467041811823	2.15
C 	44.46210035723875	17.995389182310852	2.15
C 	45.69922396902941	18.692472512444343	2.15
C 	45.714093902474474	20.112394652943372	2.15
C 	46.951217514265146	20.809477983076874	2.15
C 	46.966087447710215	22.229400123575903	2.15
C 	48.20321105950089	22.9264834537094	2.15
C 	48.21808099294596	24.34640559420843	2.15
C 	49.45520460473663	25.043488924341926	2.15
C 	49.4700745381817	26.463411064840955	2.15
C 	50.707198149972356	27.160494394974457	2.15
C 	50.722068083417426	28.580416535473486	2.15
C 	51.9591916952081	29.277499865606984	2.15
C 	51.97406162865317	30.697422006106013	2.15
C 	53.21118524044384	31.394505336239508	2.15
C 	53.22605517388891	32.81442747673854	2.15
C 	54.46317878567958	33.51151080687204	2.15
C 	54.47804871912465	34.931432947371064	2.15
C 	55.715172330915316	35.628516277504566	2.15
C 	55.730042264360385	37.04843841800359	2.15
C 	56.96716587615106	37.74552174813709	2.15
C 	56.98203580959613	39.16544388863612	2.15
C 	58.2191594213868	39.86252721876961	2.15
C 	58.23402935483187	41.28244935926864	2.15
C 	59.47115296662254	41.97953268940215	2.15
C 	59.48602290006761	43.399454829901174	2.15
C 	60.72314651185828	44.09653816003467	2.15
C 	60.73801644530335	45.5164603005337	2.15
C 	61.97514005709401	46.21354363066719	2.15
C 	31.986774705216565	1.085100897482665	2.15
C 	33.22389831700724	1.7821842276161655	2.15
C 	33.23876825045231	3.2021063681151944	2.15
C 	34.475891862242975	3.8991896982486915	2.15
C 	34.490761795688044	5.3191118387477205	2.15
C 	35.72788540747871	6.016195168881217	2.15
C 	35.74275534092378	7.436117309380246	2.15
C 	36.97987895271445	8.133200639513747	2.15
C 	36.99474888615952	9.553122780012776	2.15
C 	38.23187249795019	10.25020611014627	2.15
C 	38.24674243139526	11.670128250645298	2.15
C 	39.48386604318593	12.367211580778799	2.15
C 	39.498735976630996	13.787133721277828	2.15
C 	40.73585958842166	14.48421705141132	2.15
C 	40.75072952186673	15.90413919191035	2.15
C 	41.9878531336574	16.60122252204385	2.15
C 	42.00272306710247	18.02114466254288	2.15
C 	43.23984667889315	18.71822799267638	2.15
C 	43.254716612338214	20.138150133175408	2.15
C 	44.49184022412888	20.835233463308903	2.15
C 	44.50671015757395	22.255155603807932	2.15
C 	45.74383376936462	22.95223893394143	2.15
C 	45.75870370280969	24.37216107444046	2.15
C 	46.995827314600355	25.06924440457396	2.15
C 	47.010697248045425	26.48916654507299	2.15
C 	48.2478208598361	27.18624987520648	2.15
C 	48.262690793281166	28.60617201570551	2.15
C 	49.49981440507183	29.303255345839013	2.15
C 	49.5146843385169	30.72317748633804	2.15
C 	50.75180795030757	31.420260816471544	2.15
C 	50.76667788375264	32.84018295697057	2.15
C 	52.00380149554331	33.53726628710407	2.15
C 	52.01867142898838	34.95718842760309	2.15
C 	53.25579504077905	35.654271757736595	2.15
C 	53.27066497422412	37.07419389823562	2.15
C 	54.50778858601478	37.77127722836912	2.15
C 	54.52265851945985	39.191199368868155	2.15
C 	55.75978213125053	39.88828269900164	2.15
C 	55.7746520646956	41.308204839500675	2.15
C 	57.01177567648627	42.00528816963417	2.15
C 	57.02664560993134	43.425210310133195	2.15
C 	58.26376922172201	44.122293640266705	2.15
C 	58.27863915516708	45.54221578076573	2.15
C 	59.51576276695775	46.239299110899225	2.15
C 	29.527397415080298	1.1108563777146894	2.15
C 	30.764521026870966	1.80793970784819	2.15
C 	30.779390960316036	3.2278618483472155	2.15
C 	32.0165145721067	3.924945178480719	2.15
C 	32.03138450555177	5.344867318979745	2.15
C 	33.26850811734245	6.041950649113245	2.15
C 	33.28337805078752	7.46187278961227	2.15
C 	34.520501662578184	8.15895611974577	2.15
C 	34.53537159602325	9.578878260244796	2.15
C 	35.77249520781392	10.2759615903783	2.15
C 	35.78736514125899	11.695883730877325	2.15
C 	37.02448875304966	12.392967061010824	2.15
C 	37.03935868649473	13.812889201509849	2.15
C 	38.2764822982854	14.509972531643353	2.15
C 	38.29135223173047	15.929894672142378	2.15
C 	39.528475843521136	16.626978002275873	2.15
C 	39.543345776966206	18.0469001427749	2.15
C 	40.78046938875687	18.743983472908404	2.15
C 	40.79533932220193	20.16390561340743	2.15
C 	42.032462933992605	20.860988943540935	2.15
C 	42.047332867437675	22.28091108403996	2.15
C 	43.28445647922835	22.977994414173455	2.15
C 	43.29932641267342	24.39791655467248	2.15
C 	44.536450024464095	25.094999884805986	2.15
C 	44.551319957909165	26.51492202530501	2.15
C 	45.78844356969983	27.212005355438514	2.15
C 	45.8033135031449	28.63192749593754	2.15
C 	47.040437114935564	29.329010826071038	2.15
C 	47.055307048380634	30.748932966570063	2.15
C 	48.292430660171306	31.446016296703565	2.15
C 	48.307300593616375	32.865938437202594	2.15
C 	49.54442420540705	33.56302176733609	2.15
C 	49.55929413885212	34.98294390783512	2.15
C 	50.796417750642775	35.680027237968616	2.15
C 	50.811287684087844	37.09994937846764	2.15
C 	52.048411295878516	37.79703270860115	2.15
C 	52.063281229323586	39.216954849100176	2.15
C 	53.30040484111426	39.91403817923367	2.15
C 	53.31527477455933	41.333960319732704	2.15
C 	54.55239838635	42.0310436498662	2.15
C 	54.56726831979507	43.450965790365224	2.15
C 	55.80439193158575	44.14804912049872	2.15
C 	55.81926186503082	45.567971260997744	2.15
C 	57.056385476821475	46.26505459113125	2.15
C 	25.816026579708286	-0.9803936126858084	2.15
C 	27.053150191498954	-0.28331028255230795	2.15
C 	27.068020124944024	1.136611857946721	2.15
C 	28.305143736734696	1.833695188080218	2.15
C 	28.320013670179765	3.253617328579247	2.15
C 	29.557137281970437	3.950700658712744	2.15
C 	29.572007215415507	5.370622799211772	2.15
C 	30.80913082720617	6.067706129345273	2.15
C 	30.82400076065124	7.487628269844302	2.15
C 	32.06112437244191	8.184711599977799	2.15
C 	32.07599430588698	9.604633740476828	2.15
C 	33.31311791767765	10.301717070610325	2.15
C 	33.32798785112272	11.721639211109354	2.15
C 	34.56511146291339	12.418722541242854	2.15
C 	34.57998139635846	13.838644681741883	2.15
C 	35.81710500814913	14.535728011875376	2.15
C 	35.8319749415942	15.955650152374405	2.15
C 	37.06909855338487	16.652733482507905	2.15
C 	37.08396848682994	18.072655623006934	2.15
C 	38.3210920986206	18.76973895314043	2.15
C 	38.335962032065666	20.189661093639458	2.15
C 	39.57308564385634	20.886744423772956	2.15
C 	39.58795557730141	22.306666564271985	2.15
C 	40.82507918909207	23.003749894405487	2.15
C 	40.83994912253714	24.423672034904516	2.15
C 	42.077072734327814	25.12075536503801	2.15
C 	42.091942667772884	26.54067750553704	2.15
C 	43.32906627956356	27.23776083567054	2.15
C 	43.34393621300863	28.657682976169568	2.15
C 	44.5810598247993	29.35476630630307	2.15
C 	44.59592975824437	30.7746884468021	2.15
C 	45.83305337003504	31.47177177693559	2.15
C 	45.84792330348011	32.89169391743462	2.15
C 	47.08504691527077	33.58877724756812	2.15
C 	47.09991684871584	35.00869938806715	2.15
C 	48.337040460506515	35.70578271820065	2.15
C 	48.351910393951584	37.12570485869968	2.15
C 	49.58903400574225	37.82278818883317	2.15
C 	49.60390393918732	39.2427103293322	2.15
C 	50.84102755097799	39.9397936594657	2.15
C 	50.85589748442306	41.35971579996473	2.15
C 	52.093021096213725	42.056799130098234	2.15
C 	52.107891029658795	43.47672127059726	2.15
C 	53.34501464144947	44.173804600730755	2.15
C 	53.35988457489454	45.59372674122978	2.15
C 	54.59700818668521	46.290810071363275	2.15
C 	23.35664928957202	-0.9546381324537768	2.15
C 	24.593772901362687	-0.25755480232027994	2.15
C 	24.608642834807757	1.162367338178749	2.15
C 	25.845766446598425	1.8594506683122496	2.15
C 	25.860636380043495	3.2793728088112784	2.15
C 	27.097759991834167	3.9764561389447755	2.15
C 	27.112629925279236	5.396378279443804	2.15
C 	28.349753537069905	6.093461609577301	2.15
C 	28.364623470514974	7.51338375007633	2.15
C 	29.601747082305646	8.210467080209831	2.15
C 	29.616617015750716	9.63038922070886	2.15
C 	30.853740627541377	10.327472550842357	2.15
C 	30.868610560986447	11.747394691341386	2.15
C 	32.10573417277712	12.444478021474882	2.15
C 	32.12060410622219	13.864400161973911	2.15
C 	33.35772771801286	14.561483492107412	2.15
C 	33.37259765145793	15.98140563260644	2.15
C 	34.6097212632486	16.678488962739934	2.15
C 	34.62459119669367	18.098411103238963	2.15
C 	35.86171480848434	18.795494433372465	2.15
C 	35.8765847419294	20.215416573871494	2.15
C 	37.11370835372007	20.912499904004985	2.15
C 	37.12857828716514	22.332422044504014	2.15
C 	38.365701898955805	23.029505374637516	2.15
C 	38.380571832400875	24.449427515136545	2.15
C 	39.61769544419155	25.146510845270043	2.15
C 	39.63256537763662	26.566432985769072	2.15
C 	40.86968898942728	27.263516315902567	2.15
C 	40.88455892287235	28.683438456401596	2.15
C 	42.12168253466302	29.380521786535095	2.15
C 	42.13655246810809	30.800443927034124	2.15
C 	43.37367607989877	31.497527257167626	2.15
C 	43.38854601334384	32.91744939766666	2.15
C 	44.625669625134506	33.614532727800146	2.15
C 	44.640539558579576	35.03445486829918	2.15
C 	45.87766317037024	35.73153819843268	2.15
C 	45.89253310381531	37.151460338931706	2.15
C 	47.12965671560598	37.84854366906521	2.15
C 	47.14452664905105	39.26846580956423	2.15
C 	48.38165026084172	39.96554913969773	2.15
C 	48.396520194286786	41.38547128019676	2.15
C 	49.63364380607746	42.082554610330256	2.15
C 	49.64851373952253	43.50247675082929	2.15
C 	50.88563735131319	44.19956008096279	2.15
C 	50.90050728475826	45.619482221461816	2.15
C 	52.137630896548934	46.31656555159531	2.15
C 	20.89727199943575	-0.9288826522217525	2.15
C 	22.13439561122642	-0.23179932208825194	2.15
C 	22.14926554467149	1.1881228184107735	2.15
C 	23.386389156462158	1.885206148544274	2.15
C 	23.401259089907228	3.3051282890432994	2.15
C 	24.638382701697896	4.002211619176803	2.15
C 	24.653252635142966	5.422133759675829	2.15
C 	25.890376246933634	6.11921708980933	2.15
C 	25.905246180378704	7.539139230308354	2.15
C 	27.142369792169376	8.236222560441854	2.15
C 	27.157239725614442	9.65614470094088	2.15
C 	28.39436333740511	10.353228031074385	2.15
C 	28.40923327085018	11.77315017157341	2.15
C 	29.646356882640852	12.470233501706911	2.15
C 	29.66122681608592	13.890155642205936	2.15
C 	30.898350427876586	14.587238972339437	2.15
C 	30.913220361321656	16.00716111283846	2.15
C 	32.15034397311233	16.704244442971966	2.15
C 	32.1652139065574	18.12416658347099	2.15
C 	33.40233751834807	18.82124991360449	2.15
C 	33.41720745179313	20.241172054103515	2.15
C 	34.654331063583804	20.938255384237017	2.15
C 	34.669200997028874	22.358177524736043	2.15
C 	35.90632460881954	23.05526085486954	2.15
C 	35.92119454226461	24.475182995368566	2.15
C 	37.15831815405528	25.17226632550207	2.15
C 	37.17318808750035	26.592188466001094	2.15
C 	38.410311699291015	27.2892717961346	2.15
C 	38.425181632736084	28.709193936633625	2.15
C 	39.662305244526756	29.40627726676712	2.15
C 	39.677175177971826	30.826199407266145	2.15
C 	40.9142987897625	31.52328273739965	2.15
C 	40.92916872320757	32.94320487789867	2.15
C 	42.16629233499823	33.640288208032175	2.15
C 	42.1811622684433	35.06021034853121	2.15
C 	43.41828588023398	35.7572936786647	2.15
C 	43.43315581367905	37.17721581916373	2.15
C 	44.670279425469715	37.87429914929724	2.15
C 	44.685149358914785	39.294221289796255	2.15
C 	45.92227297070546	39.99130461992976	2.15
C 	45.93714290415053	41.41122676042879	2.15
C 	47.17426651594119	42.10831009056228	2.15
C 	47.18913644938626	43.52823223106131	2.15
C 	48.42626006117693	44.22531556119482	2.15
C 	48.441129994622	45.64523770169384	2.15
C 	49.67825360641267	46.34232103182734	2.15
C 	18.43789470929948	-0.9031271719897227	2.15
C 	19.67501832109015	-0.20604384185622396	2.15
C 	19.68988825453522	1.2138782986428032	2.15
C 	20.927011866325888	1.9109616287763018	2.15
C 	20.941881799770957	3.3308837692753293	2.15
C 	22.17900541156163	4.027967099408828	2.15
C 	22.1938753450067	5.447889239907855	2.15
C 	23.430998956797367	6.144972570041357	2.15
C 	23.445868890242437	7.5648947105403845	2.15
C 	24.68299250203311	8.261978040673883	2.15
C 	24.697862435478175	9.68190018117291	2.15
C 	25.93498604726884	10.378983511306409	2.15
C 	25.94985598071391	11.798905651805436	2.15
C 	27.18697959250458	12.495988981938938	2.15
C 	27.20184952594965	13.915911122437965	2.15
C 	28.43897313774032	14.612994452571463	2.15
C 	28.45384307118539	16.03291659307049	2.15
C 	29.69096668297606	16.72999992320399	2.15
C 	29.70583661642113	18.14992206370302	2.15
C 	30.942960228211795	18.84700539383652	2.15
C 	30.957830161656865	20.266927534335547	2.15
C 	32.19495377344754	20.964010864469042	2.15
C 	32.20982370689261	22.38393300496807	2.15
C 	33.44694731868327	23.08101633510157	2.15
C 	33.46181725212834	24.5009384756006	2.15
C 	34.69894086391901	25.198021805734093	2.15
C 	34.71381079736408	26.617943946233122	2.15
C 	35.95093440915475	27.315027276366624	2.15
C 	35.96580434259982	28.734949416865653	2.15
C 	37.20292795439049	29.432032746999152	2.15
C 	37.21779788783556	30.85195488749818	2.15
C 	38.454921499626224	31.549038217631676	2.15
C 	38.46979143307129	32.9689603581307	2.15
C 	39.706915044861965	33.6660436882642	2.15
C 	39.721784978307035	35.085965828763236	2.15
C 	40.95890859009771	35.78304915889673	2.15
C 	40.97377852354278	37.20297129939576	2.15
C 	42.21090213533344	37.90005462952926	2.15
C 	42.22577206877851	39.31997677002828	2.15
C 	43.46289568056918	40.017060100161785	2.15
C 	43.47776561401425	41.43698224066082	2.15
C 	44.714889225804924	42.13406557079431	2.15
C 	44.729759159249994	43.553987711293345	2.15
C 	45.96688277104066	44.25107104142684	2.15
C 	45.98175270448573	45.670993181925866	2.15
C 	47.2188763162764	46.36807651205937	2.15
C 	15.978517419163213	-0.8773716917576965	2.15
C 	17.215641030953883	-0.18028836162419595	2.15
C 	17.230510964398952	1.2396337788748313	2.15
C 	18.46763457618962	1.93671710900833	2.15
C 	18.48250450963469	3.356639249507357	2.15
C 	19.71962812142536	4.053722579640856	2.15
C 	19.73449805487043	5.473644720139883	2.15
C 	20.971621666661097	6.1707280502733814	2.15
C 	20.986491600106167	7.590650190772409	2.15
C 	22.22361521189684	8.287733520905912	2.15
C 	22.238485145341905	9.707655661404939	2.15
C 	23.475608757132573	10.404738991538437	2.15
C 	23.490478690577643	11.824661132037464	2.15
C 	24.727602302368314	12.521744462170963	2.15
C 	24.742472235813384	13.94166660266999	2.15
C 	25.97959584760405	14.638749932803492	2.15
C 	25.99446578104912	16.058672073302517	2.15
C 	27.23158939283979	16.75575540343602	2.15
C 	27.24645932628486	18.17567754393505	2.15
C 	28.48358293807553	18.872760874068543	2.15
C 	28.4984528715206	20.29268301456757	2.15
C 	29.73557648331127	20.989766344701074	2.15
C 	29.75044641675634	22.4096884852001	2.15
C 	30.987570028547005	23.106771815333595	2.15
C 	31.002439961992074	24.52669395583262	2.15
C 	32.239563573782746	25.223777285966126	2.15
C 	32.254433507227816	26.64369942646515	2.15
C 	33.49155711901848	27.340782756598646	2.15
C 	33.50642705246355	28.76070489709767	2.15
C 	34.74355066425422	29.457788227231177	2.15
C 	34.75842059769929	30.877710367730202	2.15
C 	35.99554420948996	31.574793697863708	2.15
C 	36.010414142935026	32.99471583836273	2.15
C 	37.2475377547257	33.69179916849623	2.15
C 	37.26240768817077	35.11172130899526	2.15
C 	38.49953129996144	35.80880463912875	2.15
C 	38.51440123340651	37.228726779627785	2.15
C 	39.751524845197174	37.925810109761294	2.15
C 	39.766394778642244	39.34573225026031	2.15
C 	41.003518390432916	40.042815580393814	2.15
C 	41.018388323877986	41.46273772089283	2.15
C 	42.25551193566865	42.159821051026334	2.15
C 	42.27038186911372	43.57974319152537	2.15
C 	43.5075054809044	44.27682652165887	2.15
C 	43.52237541434947	45.696748662157894	2.15
C 	44.75949902614013	46.393831992291396	2.15
C 	13.519140129026944	-0.8516162115256685	2.15
C 	14.756263740817614	-0.15453288139216798	2.15
C 	14.771133674262684	1.2653892591068592	2.15
C 	16.00825728605335	1.9624725892403596	2.15
C 	16.02312721949842	3.382394729739387	2.15
C 	17.260250831289092	4.079478059872885	2.15
C 	17.27512076473416	5.4994002003719125	2.15
C 	18.51224437652483	6.196483530505412	2.15
C 	18.5271143099699	7.616405671004439	2.15
C 	19.764237921760568	8.313489001137937	2.15
C 	19.779107855205634	9.733411141636964	2.15
C 	21.016231466996302	10.430494471770468	2.15
C 	21.031101400441372	11.850416612269495	2.15
C 	22.268225012232048	12.547499942402993	2.15
C 	22.283094945677117	13.96742208290202	2.15
C 	23.520218557467782	14.664505413035519	2.15
C 	23.53508849091285	16.084427553534546	2.15
C 	24.772212102703524	16.781510883668044	2.15
C 	24.787082036148593	18.201433024167073	2.15
C 	26.024205647939258	18.898516354300575	2.15
C 	26.039075581384328	20.3184384947996	2.15
C 	27.276199193175	21.0155218249331	2.15
C 	27.29106912662007	22.43544396543213	2.15
C 	28.528192738410738	23.132527295565627	2.15
C 	28.543062671855807	24.552449436064656	2.15
C 	29.78018628364648	25.24953276619815	2.15
C 	29.79505621709155	26.66945490669718	2.15
C 	31.032179828882214	27.366538236830678	2.15
C 	31.047049762327283	28.786460377329707	2.15
C 	32.284173374117955	29.483543707463202	2.15
C 	32.299043307563025	30.90346584796223	2.15
C 	33.53616691935369	31.60054917809573	2.15
C 	33.55103685279876	33.02047131859476	2.15
C 	34.78816046458943	33.71755464872826	2.15
C 	34.8030303980345	35.137476789227286	2.15
C 	36.040154009825166	35.83456011936078	2.15
C 	36.055023943270236	37.25448225985981	2.15
C 	37.29214755506091	37.951565589993315	2.15
C 	37.30701748850598	39.37148773049234	2.15
C 	38.54414110029665	40.06857106062584	2.15
C 	38.55901103374172	41.48849320112487	2.15
C 	39.79613464553238	42.18557653125836	2.15
C 	39.81100457897745	43.605498671757395	2.15
C 	41.04812819076812	44.30258200189089	2.15
C 	41.06299812421319	45.72250414238992	2.15
C 	42.30012173600386	46.419587472523425	2.15
C 	11.059762838890675	-0.8258607312936387	2.15
C 	12.296886450681344	-0.12877740116013997	2.15
C 	12.311756384126413	1.2911447393388873	2.15
C 	13.548879995917083	1.9882280694723877	2.15
C 	13.563749929362153	3.408150209971415	2.15
C 	14.800873541152823	4.105233540104916	2.15
C 	14.815743474597891	5.525155680603943	2.15
C 	16.05286708638856	6.222239010737441	2.15
C 	16.06773701983363	7.642161151236468	2.15
C 	17.3048606316243	8.339244481369967	2.15
C 	17.319730565069367	9.759166621868994	2.15
C 	18.556854176860035	10.456249952002493	2.15
C 	18.571724110305105	11.87617209250152	2.15
C 	19.808847722095773	12.573255422635022	2.15
C 	19.823717655540843	13.993177563134049	2.15
C 	21.06084126733151	14.690260893267547	2.15
C 	21.07571120077658	16.110183033766575	2.15
C 	22.312834812567253	16.807266363900073	2.15
C 	22.327704746012323	18.227188504399102	2.15
C 	23.56482835780299	18.924271834532604	2.15
C 	23.57969829124806	20.344193975031633	2.15
C 	24.81682190303873	21.041277305165128	2.15
C 	24.8316918364838	22.461199445664153	2.15
C 	26.068815448274467	23.158282775797655	2.15
C 	26.083685381719537	24.578204916296684	2.15
C 	27.320808993510205	25.275288246430186	2.15
C 	27.335678926955275	26.695210386929215	2.15
C 	28.572802538745947	27.392293717062707	2.15
C 	28.587672472191016	28.812215857561736	2.15
C 	29.82479608398168	29.509299187695238	2.15
C 	29.83966601742675	30.929221328194267	2.15
C 	31.07678962921742	31.626304658327758	2.15
C 	31.09165956266249	33.04622679882679	2.15
C 	32.32878317445316	33.74331012896029	2.15
C 	32.34365310789823	35.163232269459314	2.15
C 	33.5807767196889	35.860315599592816	2.15
C 	33.59564665313397	37.28023774009185	2.15
C 	34.83277026492464	37.97732107022534	2.15
C 	34.84764019836971	39.39724321072437	2.15
C 	36.08476381016038	40.09432654085787	2.15
C 	36.09963374360545	41.5142486813569	2.15
C 	37.33675735539612	42.2113320114904	2.15
C 	37.351627288841186	43.63125415198943	2.15
C 	38.58875090063186	44.32833748212292	2.15
C 	38.60362083407693	45.74825962262195	2.15
C 	39.84074444586759	46.44534295275545	2.15
C 	8.600385548754407	-0.8001052510616116	2.15
C 	9.837509160545075	-0.10302192092811198	2.15
C 	9.852379093990145	1.3169002195709152	2.15
C 	11.089502705780815	2.013983549704414	2.15
C 	11.104372639225884	3.4339056902034413	2.15
C 	12.341496251016554	4.1309890203369415	2.15
C 	12.356366184461622	5.550911160835969	2.15
C 	13.59348979625229	6.247994490969469	2.15
C 	13.60835972969736	7.667916631468496	2.15
C 	14.84548334148803	8.364999961601995	2.15
C 	14.8603532749331	9.784922102101023	2.15
C 	16.09747688672377	10.482005432234521	2.15
C 	16.11234682016884	11.901927572733548	2.15
C 	17.349470431959507	12.599010902867047	2.15
C 	17.364340365404576	14.018933043366074	2.15
C 	18.601463977195245	14.716016373499576	2.15
C 	18.616333910640314	16.135938513998603	2.15
C 	19.853457522430983	16.8330218441321	2.15
C 	19.868327455876052	18.25294398463113	2.15
C 	21.10545106766672	18.95002731476463	2.15
C 	21.12032100111179	20.369949455263654	2.15
C 	22.357444612902462	21.067032785397156	2.15
C 	22.372314546347532	22.486954925896182	2.15
C 	23.6094381581382	23.184038256029684	2.15
C 	23.62430809158327	24.603960396528713	2.15
C 	24.86143170337394	25.301043726662208	2.15
C 	24.876301636819008	26.720965867161233	2.15
C 	26.113425248609676	27.41804919729474	2.15
C 	26.128295182054746	28.837971337793764	2.15
C 	27.36541879384541	29.535054667927263	2.15
C 	27.38028872729048	30.954976808426288	2.15
C 	28.617412339081152	31.65206013855979	2.15
C 	28.632282272526222	33.071982279058815	2.15
C 	29.86940588431689	33.76906560919232	2.15
C 	29.88427581776196	35.188987749691336	2.15
C 	31.12139942955263	35.88607107982484	2.15
C 	31.136269362997698	37.30599322032387	2.15
C 	32.373392974788366	38.00307655045737	2.15
C 	32.388262908233436	39.4229986909564	2.15
C 	33.62538652002411	40.1200820210899	2.15
C 	33.64025645346918	41.54000416158892	2.15
C 	34.87738006525985	42.23708749172242	2.15
C 	34.89224999870492	43.657009632221445	2.15
C 	36.12937361049559	44.354092962354954	2.15
C 	36.14424354394066	45.77401510285398	2.15
C 	37.381367155731326	46.47109843298748	2.15
C 	6.141008258618138	-0.7743497708295836	2.15
C 	7.378131870408807	-0.07726644069608399	2.15
C 	7.393001803853877	1.342655699802943	2.15
C 	8.630125415644546	2.0397390299364426	2.15
C 	8.644995349089616	3.45966117043547	2.15
C 	9.882118960880284	4.156744500568968	2.15
C 	9.896988894325352	5.5766666410679955	2.15
C 	11.134112506116024	6.273749971201497	2.15
C 	11.148982439561093	7.693672111700524	2.15
C 	12.386106051351762	8.390755441834022	2.15
C 	12.400975984796831	9.810677582333051	2.15
C 	13.6380995965875	10.50776091246655	2.15
C 	13.65296953003257	11.927683052965579	2.15
C 	14.89009314182324	12.624766383099075	2.15
C 	14.90496307526831	14.044688523598104	2.15
C 	16.142086687058978	14.741771853731601	2.15
C 	16.156956620504047	16.161693994230628	2.15
C 	17.394080232294716	16.85877732436413	2.15
C 	17.408950165739785	18.27869946486316	2.15
C 	18.646073777530454	18.975782794996658	2.15
C 	18.660943710975523	20.395704935495687	2.15
C 	19.89806732276619	21.09278826562918	2.15
C 	19.91293725621126	22.51271040612821	2.15
C 	21.15006086800193	23.209793736261712	2.15
C 	21.164930801447	24.62971587676074	2.15
C 	22.40205441323767	25.326799206894236	2.15
C 	22.41692434668274	26.746721347393265	2.15
C 	23.65404795847341	27.443804677526764	2.15
C 	23.66891789191848	28.863726818025793	2.15
C 	24.906041503709144	29.56081014815929	2.15
C 	24.920911437154214	30.98073228865832	2.15
C 	26.158035048944882	31.677815618791815	2.15
C 	26.17290498238995	33.097737759290844	2.15
C 	27.41002859418062	33.794821089424346	2.15
C 	27.42489852762569	35.21474322992337	2.15
C 	28.66202213941636	35.911826560056866	2.15
C 	28.67689207286143	37.3317487005559	2.15
C 	29.9140156846521	38.028832030689394	2.15
C 	29.92888561809717	39.448754171188426	2.15
C 	31.166009229887838	40.14583750132193	2.15
C 	31.180879163332907	41.565759641820954	2.15
C 	32.418002775123576	42.26284297195445	2.15
C 	32.432872708568645	43.682765112453474	2.15
C 	33.669996320359324	44.379848442586976	2.15
C 	33.684866253804394	45.79977058308601	2.15
C 	34.92198986559506	46.4968539132195	2.15
C 	3.6816309684818687	-0.7485942905975556	2.15
C 	4.918754580272537	-0.05151096046405599	2.15
C 	4.933624513717607	1.3684111800349712	2.15
C 	6.170748125508277	2.0654945101684707	2.15
C 	6.185618058953346	3.485416650667498	2.15
C 	7.422741670744015	4.182499980800998	2.15
C 	7.437611604189085	5.602422121300025	2.15
C 	8.674735215979753	6.299505451433523	2.15
C 	8.689605149424823	7.719427591932551	2.15
C 	9.926728761215491	8.41651092206605	2.15
C 	9.941598694660561	9.836433062565078	2.15
C 	11.178722306451231	10.533516392698578	2.15
C 	11.1935922398963	11.953438533197605	2.15
C 	12.43071585168697	12.650521863331104	2.15
C 	12.445585785132039	14.070444003830131	2.15
C 	13.682709396922705	14.767527333963631	2.15
C 	13.697579330367775	16.187449474462657	2.15
C 	14.934702942158445	16.88453280459616	2.15
C 	14.949572875603515	18.304454945095184	2.15
C 	16.186696487394183	19.001538275228686	2.15
C 	16.201566420839253	20.42146041572771	2.15
C 	17.438690032629925	21.11854374586121	2.15
C 	17.453559966074994	22.53846588636024	2.15
C 	18.690683577865663	23.23554921649374	2.15
C 	18.705553511310733	24.655471356992766	2.15
C 	19.9426771231014	25.35255468712627	2.15
C 	19.95754705654647	26.772476827625294	2.15
C 	21.19467066833714	27.469560157758792	2.15
C 	21.20954060178221	28.88948229825782	2.15
C 	22.446664213572877	29.58656562839132	2.15
C 	22.461534147017947	31.006487768890345	2.15
C 	23.698657758808615	31.70357109902385	2.15
C 	23.713527692253685	33.12349323952288	2.15
C 	24.950651304044353	33.820576569656374	2.15
C 	24.965521237489423	35.2404987101554	2.15
C 	26.20264484928009	35.9375820402889	2.15
C 	26.21751478272516	37.35750418078792	2.15
C 	27.45463839451583	38.05458751092142	2.15
C 	27.4695083279609	39.47450965142045	2.15
C 	28.70663193975157	40.17159298155396	2.15
C 	28.72150187319664	41.59151512205298	2.15
C 	29.95862548498731	42.288598452186484	2.15
C 	29.97349541843238	43.7085205926855	2.15
C 	31.210619030223047	44.405603922819004	2.15
C 	31.225488963668116	45.82552606331803	2.15
C 	32.462612575458785	46.52260939345153	2.15
C 	2.4593772901362687	-0.025755480232027995	2.15
C 	2.474247223581338	1.394166660266999	2.15
C 	3.7113708353720076	2.091249990400499	2.15
C 	3.7262407688170773	3.511172130899526	2.15
C 	4.963364380607746	4.208255461033025	2.15
C 	4.978234314052815	5.628177601532053	2.15
C 	6.215357925843485	6.325260931665552	2.15
C 	6.230227859288553	7.745183072164579	2.15
C 	7.467351471079223	8.44226640229808	2.15
C 	7.482221404524292	9.862188542797105	2.15
C 	8.719345016314962	10.559271872930605	2.15
C 	8.734214949760032	11.979194013429634	2.15
C 	9.9713385615507	12.676277343563134	2.15
C 	9.98620849499577	14.09619948406216	2.15
C 	11.223332106786438	14.79328281419566	2.15
C 	11.238202040231508	16.213204954694685	2.15
C 	12.475325652022176	16.910288284828187	2.15
C 	12.490195585467246	18.330210425327213	2.15
C 	13.727319197257914	19.02729375546071	2.15
C 	13.742189130702984	20.447215895959737	2.15
C 	14.979312742493654	21.144299226093242	2.15
C 	14.994182675938724	22.564221366592268	2.15
C 	16.231306287729392	23.261304696725766	2.15
C 	16.246176221174462	24.68122683722479	2.15
C 	17.483299832965134	25.378310167358293	2.15
C 	17.498169766410204	26.79823230785732	2.15
C 	18.735293378200872	27.495315637990824	2.15
C 	18.75016331164594	28.915237778489846	2.15
C 	19.987286923436606	29.612321108623348	2.15
C 	20.002156856881676	31.032243249122374	2.15
C 	21.239280468672344	31.729326579255876	2.15
C 	21.254150402117414	33.1492487197549	2.15
C 	22.491274013908086	33.8463320498884	2.15
C 	22.506143947353156	35.26625419038743	2.15
C 	23.743267559143824	35.96333752052092	2.15
C 	23.758137492588894	37.38325966101995	2.15
C 	24.995261104379562	38.08034299115345	2.15
C 	25.01013103782463	39.50026513165248	2.15
C 	26.2472546496153	40.19734846178597	2.15
C 	26.26212458306037	41.617270602285004	2.15
C 	27.499248194851038	42.314353932418506	2.15
C 	27.514118128296108	43.73427607291753	2.15
C 	28.75124174008678	44.43135940305103	2.15
C 	28.76611167353185	45.851281543550066	2.15
C 	30.003235285322518	46.54836487368355	2.15
C 	16.2759160880646	27.521071118222846	2.15
C 	16.29078602150967	28.940993258721875	2.15
C 	17.52790963330034	29.638076588855377	2.15
C 	17.54277956674541	31.057998729354406	2.15
C 	18.779903178536077	31.7550820594879	2.15
C 	18.794773111981147	33.17500419998693	2.15
C 	20.031896723771816	33.87208753012043	2.15
C 	20.046766657216885	35.29200967061946	2.15
C 	21.283890269007554	35.98909300075296	2.15
C 	21.298760202452623	37.409015141251984	2.15
C 	22.535883814243295	38.10609847138548	2.15
C 	22.550753747688365	39.52602061188451	2.15
C 	23.787877359479033	40.22310394201801	2.15
C 	23.802747292924103	41.64302608251704	2.15
C 	25.03987090471477	42.340109412650534	2.15
C 	25.05474083815984	43.76003155314956	2.15
C 	26.29186444995051	44.45711488328306	2.15
C 	26.30673438339558	45.87703702378209	2.15
C 	27.543857995186247	46.57412035391559	2.15
H 	54.10975607175627	-0.2366386592139953	2.15
H 	56.29650273766794	0.9955297623599951	2.15
H 	57.54849628290369	3.112535232992533	2.15
H 	58.80048982813943	5.229540703625058	2.15
H 	60.052483373375175	7.346546174257581	2.15
H 	61.3044769186109	9.463551644890112	2.15
H 	62.556470463846644	11.580557115522643	2.15
H 	63.80846400908238	13.697562586155158	2.15
H 	65.06045755431812	15.81456805678769	2.15
H 	66.31245109955385	17.931573527420223	2.15
H 	67.5644446447896	20.048578998052736	2.15
H 	68.81643819002534	22.165584468685264	2.15
H 	70.06843173526109	24.282589939317813	2.15
H 	71.32042528049682	26.39959540995032	2.15
H 	72.57241882573256	28.51660088058284	2.15
H 	73.82441237096829	30.63360635121539	2.15
H 	75.07640591620402	32.7506118218479	2.15
H 	75.10269009433581	35.26047419695535	2.15
H 	51.650378781620006	-0.2108831789819673	2.15
H 	75.12101571653925	37.010378243344995	2.15
H 	75.14729989467101	39.520240618452426	2.15
H 	49.19100149148374	-0.18512769874993928	2.15
H 	73.93991614977048	41.66300156931698	2.15
H 	46.73162420134747	-0.15937221851791128	2.15
H 	72.73253240486994	43.805762520181545	2.15
H 	44.272246911211205	-0.13361673828588327	2.15
H 	71.52514865996943	45.948523471046094	2.15
H 	41.81286962107493	-0.10786125805385538	2.15
H 	69.36468617218951	47.22621742457952	2.15
H 	39.353492330938664	-0.08210577782182726	2.15
H 	66.90530888205322	47.251972904811545	2.15
H 	36.8941150408024	-0.0563502975898027	2.15
H 	64.44593159191697	47.277728385043574	2.15
H 	34.43473775066613	-0.03059481735777103	2.15
H 	61.98655430178071	47.303483865275595	2.15
H 	31.97536046052985	-0.004839337125743137	2.15
H 	59.52717701164446	47.32923934550763	2.15
H 	29.515983170393596	0.020916143106281204	2.15
H 	57.06779972150817	47.35499482573966	2.15
H 	25.804612335021577	-2.0703338472942168	2.15
H 	27.99135900093325	-0.8381654257202125	2.15
H 	54.60842243137191	47.38075030597168	2.15
H 	23.34523504488531	-2.044578367062185	2.15
H 	52.14904514123564	47.40650578620372	2.15
H 	20.885857754749033	-2.0188228868301605	2.15
H 	49.68966785109937	47.432261266435745	2.15
H 	18.426480464612773	-1.9930674065981309	2.15
H 	47.230290560963105	47.458016746667774	2.15
H 	15.967103174476502	-1.9673119263661047	2.15
H 	44.77091327082684	47.4837722268998	2.15
H 	13.507725884340235	-1.9415564461340766	2.15
H 	42.31153598069056	47.50952770713183	2.15
H 	11.04834859420397	-1.9158009659020467	2.15
H 	39.8521586905543	47.53528318736386	2.15
H 	8.588971304067698	-1.89004548567002	2.15
H 	37.39278140041802	47.56103866759589	2.15
H 	6.129594013931429	-1.8642900054379918	2.15
H 	34.933404110281764	47.58679414782791	2.15
H 	3.670216723795161	-1.838534525205964	2.15
H 	32.47402682014548	47.61254962805994	2.15
H 	1.509754236015262	-0.5608405716725312	2.15
H 	1.5360384141470393	1.9490218034349036	2.15
H 	2.7880319593827796	4.066027274067432	2.15
H 	4.040025504618518	6.1830327446999584	2.15
H 	5.292019049854255	8.300038215332483	2.15
H 	6.544012595089993	10.417043685965009	2.15
H 	7.796006140325735	12.534049156597542	2.15
H 	9.047999685561471	14.651054627230064	2.15
H 	10.299993230797208	16.768060097862588	2.15
H 	11.551986776032946	18.885065568495115	2.15
H 	12.803980321268682	21.002071039127635	2.15
H 	14.055973866504424	23.11907650976017	2.15
H 	15.307967411740162	25.236081980392694	2.15
H 	30.014649530009226	47.63830510829196	2.15
H 	15.326293033943594	26.985986026782342	2.15
H 	15.352577212075373	29.49584840188978	2.15
H 	16.604570757311116	31.61285387252232	2.15
H 	17.85656430254685	33.729859343154835	2.15
H 	19.10855784778259	35.84686481378736	2.15
H 	20.360551393018326	37.96387028441989	2.15
H 	21.612544938254068	40.08087575505242	2.15
H 	22.86453848348981	42.19788122568495	2.15
H 	24.116532028725537	44.31488669631746	2.15
H 	25.368525573961282	46.43189216694999	2.15
H 	27.55527223987295	47.664060588523995	2.15
