2296

C 	0.0	0.0	0.0
C 	1.2297560733739028	0.7099999999999999	0.0
C 	2.4595121467478056	-2.3647750424515833e-16	0.0
C 	3.689268220121708	0.7099999999999995	0.0
C 	4.919024293495611	-4.729550084903167e-16	0.0
C 	6.148780366869514	0.7099999999999993	0.0
C 	7.378536440243416	-7.09432512735475e-16	0.0
C 	8.60829251361732	0.7099999999999991	0.0
C 	9.838048586991222	-9.459100169806333e-16	0.0
C 	11.067804660365125	0.7099999999999989	0.0
C 	12.297560733739026	-1.1823875212257916e-15	0.0
C 	13.527316807112928	0.7099999999999986	0.0
C 	14.757072880486833	-1.41886502547095e-15	0.0
C 	15.986828953860735	0.7099999999999984	0.0
C 	17.21658502723464	-7.671641100159832e-16	0.0
C 	18.44634110060854	0.7099999999999982	0.0
C 	19.676097173982445	-1.8918200339612667e-15	0.0
C 	20.905853247356347	0.7099999999999989	0.0
C 	22.135609320730246	-2.128297538206425e-15	0.0
C 	23.36536539410415	0.7099999999999967	0.0
C 	24.59512146747805	-2.364775042451583e-15	0.0
C 	25.824877540851954	0.7099999999999983	0.0
C 	27.05463361422586	-8.248957072964913e-16	0.0
C 	28.284389687599763	0.7099999999999999	0.0
C 	29.514145760973665	-2.8377300509419e-15	0.0
C 	30.743901834347565	0.7099999999999961	0.0
C 	31.97365790772147	-3.0742075551870582e-15	0.0
C 	33.20341398109537	0.7099999999999976	0.0
C 	34.43317005446928	-1.5343282200319664e-15	0.0
C 	35.66292612784318	0.7099999999999992	0.0
C 	36.892682201217085	-1.7708057242771246e-15	0.0
C 	38.122438274590984	0.7099999999999972	0.0
C 	39.35219434796489	-3.783640067922533e-15	0.0
C 	40.58195042133879	0.7099999999999969	0.0
C 	41.811706494712695	-4.67403893367191e-16	0.0
C 	43.0414625680866	0.7100000000000002	0.0
C 	44.27121864146049	-4.25659507641285e-15	0.0
C 	45.5009747148344	0.7099999999999964	0.0
C 	46.730730788208305	-9.403589018575075e-16	0.0
C 	47.96048686158221	0.7099999999999997	0.0
C 	49.1902429349561	-4.729550084903166e-15	0.0
C 	50.41999900833001	0.709999999999996	0.0
C 	51.64975508170391	-1.413313910347824e-15	0.0
C 	52.879511155077815	0.7099999999999993	0.0
C 	54.10926722845172	-1.6497914145929826e-15	0.0
C 	55.33902330182562	0.7099999999999991	0.0
C 	56.56877937519952	-5.438982597638641e-15	0.0
C 	57.798535448573425	0.7099999999999953	0.0
C 	59.02829152194733	-5.6754601018838e-15	0.0
C 	60.25804759532124	0.709999999999995	0.0
C 	1.2297560733739028	2.1299999999999994	0.0
C 	2.4595121467478056	2.8399999999999994	0.0
C 	3.689268220121708	2.1299999999999994	0.0
C 	4.919024293495611	2.8399999999999994	0.0
C 	6.148780366869514	2.129999999999999	0.0
C 	7.378536440243416	2.839999999999999	0.0
C 	8.60829251361732	2.1299999999999986	0.0
C 	9.838048586991222	2.8399999999999985	0.0
C 	11.067804660365123	2.129999999999998	0.0
C 	12.297560733739028	2.839999999999999	0.0
C 	13.527316807112928	2.1299999999999977	0.0
C 	14.757072880486833	2.839999999999998	0.0
C 	15.986828953860735	2.129999999999998	0.0
C 	17.216585027234636	2.839999999999997	0.0
C 	18.446341100608542	2.129999999999998	0.0
C 	19.676097173982445	2.8399999999999985	0.0
C 	20.905853247356344	2.1299999999999977	0.0
C 	22.13560932073025	2.8399999999999985	0.0
C 	23.36536539410415	2.129999999999997	0.0
C 	24.595121467478055	2.839999999999997	0.0
C 	25.824877540851954	2.1299999999999963	0.0
C 	27.05463361422586	2.839999999999997	0.0
C 	28.284389687599763	2.129999999999998	0.0
C 	29.514145760973665	2.8399999999999985	0.0
C 	30.743901834347568	2.129999999999996	0.0
C 	31.97365790772147	2.8399999999999967	0.0
C 	33.20341398109537	2.129999999999996	0.0
C 	34.43317005446928	2.8399999999999963	0.0
C 	35.66292612784318	2.1299999999999972	0.0
C 	36.89268220121708	2.8399999999999963	0.0
C 	38.122438274590984	2.129999999999997	0.0
C 	39.35219434796489	2.8399999999999976	0.0
C 	40.58195042133879	2.1299999999999986	0.0
C 	41.81170649471269	2.839999999999996	0.0
C 	43.0414625680866	2.129999999999998	0.0
C 	44.2712186414605	2.8399999999999954	0.0
C 	45.5009747148344	2.129999999999998	0.0
C 	46.7307307882083	2.8399999999999954	0.0
C 	47.96048686158221	2.1299999999999977	0.0
C 	49.19024293495611	2.839999999999995	0.0
C 	50.41999900833001	2.1299999999999977	0.0
C 	51.64975508170391	2.8399999999999945	0.0
C 	52.879511155077815	2.1299999999999972	0.0
C 	54.10926722845171	2.8399999999999945	0.0
C 	55.33902330182563	2.130000000000001	0.0
C 	56.56877937519952	2.8399999999999976	0.0
C 	57.798535448573425	2.129999999999997	0.0
C 	59.028291521947324	2.839999999999994	0.0
C 	60.25804759532124	2.129999999999997	0.0
C 	61.487803668695136	2.8399999999999936	0.0
C 	2.4595121467478056	4.259999999999999	0.0
C 	3.689268220121708	4.969999999999999	0.0
C 	4.919024293495611	4.259999999999999	0.0
C 	6.148780366869514	4.969999999999999	0.0
C 	7.378536440243416	4.259999999999999	0.0
C 	8.60829251361732	4.969999999999999	0.0
C 	9.83804858699122	4.259999999999998	0.0
C 	11.067804660365125	4.969999999999999	0.0
C 	12.297560733739028	4.259999999999998	0.0
C 	13.52731680711293	4.969999999999998	0.0
C 	14.757072880486831	4.259999999999998	0.0
C 	15.986828953860735	4.969999999999998	0.0
C 	17.21658502723464	4.259999999999997	0.0
C 	18.446341100608542	4.969999999999998	0.0
C 	19.676097173982445	4.259999999999999	0.0
C 	20.905853247356347	4.969999999999997	0.0
C 	22.135609320730246	4.259999999999996	0.0
C 	23.365365394104153	4.969999999999997	0.0
C 	24.595121467478055	4.259999999999998	0.0
C 	25.824877540851958	4.969999999999997	0.0
C 	27.054633614225857	4.259999999999995	0.0
C 	28.28438968759976	4.969999999999996	0.0
C 	29.514145760973665	4.259999999999997	0.0
C 	30.743901834347568	4.969999999999997	0.0
C 	31.97365790772147	4.259999999999996	0.0
C 	33.20341398109537	4.969999999999995	0.0
C 	34.43317005446927	4.2599999999999945	0.0
C 	35.66292612784318	4.969999999999995	0.0
C 	36.892682201217085	4.259999999999996	0.0
C 	38.122438274590984	4.969999999999997	0.0
C 	39.35219434796489	4.259999999999997	0.0
C 	40.58195042133879	4.969999999999994	0.0
C 	41.81170649471269	4.259999999999995	0.0
C 	43.041462568086594	4.969999999999996	0.0
C 	44.2712186414605	4.259999999999997	0.0
C 	45.500974714834406	4.969999999999998	0.0
C 	46.7307307882083	4.259999999999994	0.0
C 	47.960486861582204	4.9699999999999935	0.0
C 	49.19024293495611	4.259999999999996	0.0
C 	50.41999900833001	4.969999999999997	0.0
C 	51.64975508170391	4.259999999999993	0.0
C 	52.879511155077815	4.9699999999999935	0.0
C 	54.10926722845171	4.259999999999996	0.0
C 	55.33902330182562	4.969999999999997	0.0
C 	56.568779375199526	4.259999999999996	0.0
C 	57.798535448573425	4.969999999999996	0.0
C 	59.028291521947324	4.259999999999995	0.0
C 	60.25804759532123	4.969999999999996	0.0
C 	61.487803668695136	4.259999999999992	0.0
C 	62.717559742069035	4.969999999999993	0.0
C 	3.6892682201217086	6.389999999999999	0.0
C 	4.919024293495611	7.099999999999999	0.0
C 	6.148780366869514	6.389999999999999	0.0
C 	7.378536440243416	7.099999999999999	0.0
C 	8.608292513617318	6.389999999999998	0.0
C 	9.838048586991222	7.099999999999999	0.0
C 	11.067804660365125	6.389999999999998	0.0
C 	12.297560733739028	7.099999999999998	0.0
C 	13.52731680711293	6.389999999999999	0.0
C 	14.757072880486833	7.099999999999998	0.0
C 	15.986828953860735	6.389999999999998	0.0
C 	17.216585027234636	7.099999999999997	0.0
C 	18.44634110060854	6.389999999999997	0.0
C 	19.676097173982445	7.099999999999998	0.0
C 	20.905853247356347	6.389999999999998	0.0
C 	22.13560932073025	7.099999999999997	0.0
C 	23.365365394104153	6.389999999999998	0.0
C 	24.59512146747805	7.099999999999997	0.0
C 	25.824877540851958	6.389999999999998	0.0
C 	27.054633614225857	7.099999999999997	0.0
C 	28.28438968759976	6.389999999999999	0.0
C 	29.514145760973662	7.099999999999997	0.0
C 	30.743901834347568	6.389999999999999	0.0
C 	31.97365790772147	7.099999999999998	0.0
C 	33.20341398109537	6.389999999999995	0.0
C 	34.43317005446928	7.099999999999994	0.0
C 	35.66292612784318	6.389999999999995	0.0
C 	36.892682201217085	7.099999999999996	0.0
C 	38.122438274590984	6.389999999999996	0.0
C 	39.35219434796489	7.099999999999997	0.0
C 	40.58195042133879	6.389999999999994	0.0
C 	41.811706494712695	7.099999999999995	0.0
C 	43.041462568086594	6.389999999999996	0.0
C 	44.2712186414605	7.099999999999997	0.0
C 	45.500974714834406	6.389999999999998	0.0
C 	46.730730788208305	7.099999999999998	0.0
C 	47.960486861582204	6.389999999999995	0.0
C 	49.19024293495611	7.099999999999996	0.0
C 	50.41999900833001	6.389999999999995	0.0
C 	51.649755081703915	7.099999999999996	0.0
C 	52.879511155077815	6.389999999999995	0.0
C 	54.10926722845172	7.099999999999996	0.0
C 	55.33902330182562	6.389999999999995	0.0
C 	56.568779375199526	7.099999999999995	0.0
C 	57.79853544857343	6.389999999999998	0.0
C 	59.02829152194733	7.099999999999999	0.0
C 	60.25804759532123	6.389999999999994	0.0
C 	61.487803668695136	7.099999999999995	0.0
C 	62.71755974206904	6.389999999999994	0.0
C 	63.94731581544294	7.099999999999995	0.0
C 	4.919024293495611	8.519999999999998	0.0
C 	6.148780366869514	9.229999999999999	0.0
C 	7.378536440243416	8.519999999999998	0.0
C 	8.60829251361732	9.229999999999999	0.0
C 	9.838048586991222	8.519999999999998	0.0
C 	11.067804660365125	9.229999999999999	0.0
C 	12.297560733739028	8.519999999999998	0.0
C 	13.52731680711293	9.229999999999997	0.0
C 	14.757072880486833	8.519999999999998	0.0
C 	15.986828953860737	9.229999999999999	0.0
C 	17.216585027234636	8.519999999999998	0.0
C 	18.44634110060854	9.229999999999997	0.0
C 	19.67609717398244	8.519999999999996	0.0
C 	20.905853247356347	9.229999999999997	0.0
C 	22.13560932073025	8.519999999999998	0.0
C 	23.365365394104153	9.229999999999999	0.0
C 	24.595121467478055	8.519999999999996	0.0
C 	25.824877540851954	9.229999999999995	0.0
C 	27.05463361422586	8.519999999999996	0.0
C 	28.284389687599763	9.229999999999997	0.0
C 	29.514145760973662	8.519999999999996	0.0
C 	30.743901834347565	9.229999999999995	0.0
C 	31.97365790772147	8.52	0.0
C 	33.20341398109537	9.229999999999997	0.0
C 	34.43317005446928	8.519999999999994	0.0
C 	35.66292612784318	9.229999999999995	0.0
C 	36.89268220121708	8.519999999999992	0.0
C 	38.122438274590984	9.229999999999993	0.0
C 	39.35219434796489	8.519999999999998	0.0
C 	40.58195042133879	9.229999999999995	0.0
C 	41.811706494712695	8.519999999999994	0.0
C 	43.0414625680866	9.229999999999995	0.0
C 	44.27121864146049	8.519999999999992	0.0
C 	45.5009747148344	9.229999999999993	0.0
C 	46.730730788208305	8.519999999999998	0.0
C 	47.960486861582204	9.229999999999995	0.0
C 	49.19024293495611	8.519999999999996	0.0
C 	50.41999900833001	9.229999999999993	0.0
C 	51.64975508170391	8.519999999999994	0.0
C 	52.879511155077815	9.229999999999995	0.0
C 	54.10926722845171	8.51999999999999	0.0
C 	55.33902330182562	9.229999999999992	0.0
C 	56.568779375199526	8.519999999999998	0.0
C 	57.798535448573425	9.229999999999995	0.0
C 	59.02829152194733	8.519999999999994	0.0
C 	60.25804759532123	9.229999999999993	0.0
C 	61.48780366869513	8.519999999999992	0.0
C 	62.717559742069035	9.229999999999993	0.0
C 	63.94731581544294	8.519999999999992	0.0
C 	65.17707188881684	9.22999999999999	0.0
C 	6.148780366869514	10.649999999999997	0.0
C 	7.378536440243416	11.359999999999998	0.0
C 	8.608292513617318	10.649999999999997	0.0
C 	9.838048586991222	11.359999999999998	0.0
C 	11.067804660365125	10.649999999999997	0.0
C 	12.297560733739028	11.359999999999996	0.0
C 	13.52731680711293	10.649999999999997	0.0
C 	14.757072880486831	11.359999999999996	0.0
C 	15.986828953860735	10.649999999999997	0.0
C 	17.216585027234636	11.359999999999996	0.0
C 	18.44634110060854	10.649999999999997	0.0
C 	19.676097173982445	11.359999999999998	0.0
C 	20.905853247356347	10.649999999999997	0.0
C 	22.13560932073025	11.359999999999996	0.0
C 	23.365365394104153	10.649999999999997	0.0
C 	24.595121467478055	11.359999999999996	0.0
C 	25.824877540851958	10.649999999999997	0.0
C 	27.05463361422586	11.359999999999996	0.0
C 	28.284389687599763	10.649999999999995	0.0
C 	29.514145760973662	11.359999999999994	0.0
C 	30.743901834347565	10.649999999999995	0.0
C 	31.97365790772147	11.359999999999996	0.0
C 	33.20341398109537	10.649999999999997	0.0
C 	34.43317005446928	11.359999999999998	0.0
C 	35.66292612784318	10.649999999999991	0.0
C 	36.89268220121708	11.359999999999992	0.0
C 	38.122438274590984	10.649999999999993	0.0
C 	39.35219434796489	11.359999999999994	0.0
C 	40.58195042133879	10.649999999999993	0.0
C 	41.811706494712695	11.359999999999994	0.0
C 	43.041462568086594	10.649999999999991	0.0
C 	44.2712186414605	11.359999999999992	0.0
C 	45.5009747148344	10.649999999999993	0.0
C 	46.730730788208305	11.359999999999994	0.0
C 	47.960486861582204	10.649999999999995	0.0
C 	49.19024293495611	11.359999999999996	0.0
C 	50.41999900833001	10.649999999999993	0.0
C 	51.649755081703915	11.359999999999994	0.0
C 	52.879511155077815	10.649999999999995	0.0
C 	54.10926722845172	11.359999999999996	0.0
C 	55.33902330182562	10.649999999999993	0.0
C 	56.568779375199526	11.359999999999994	0.0
C 	57.798535448573425	10.649999999999993	0.0
C 	59.02829152194733	11.359999999999992	0.0
C 	60.25804759532124	10.649999999999995	0.0
C 	61.487803668695136	11.359999999999996	0.0
C 	62.717559742069035	10.649999999999991	0.0
C 	63.94731581544294	11.359999999999992	0.0
C 	65.17707188881684	10.649999999999991	0.0
C 	66.40682796219075	11.359999999999992	0.0
C 	7.378536440243417	12.779999999999998	0.0
C 	8.60829251361732	13.489999999999998	0.0
C 	9.838048586991222	12.78	0.0
C 	11.067804660365125	13.489999999999997	0.0
C 	12.297560733739028	12.779999999999998	0.0
C 	13.527316807112932	13.489999999999998	0.0
C 	14.757072880486833	12.779999999999998	0.0
C 	15.986828953860737	13.489999999999997	0.0
C 	17.216585027234636	12.779999999999996	0.0
C 	18.446341100608542	13.489999999999997	0.0
C 	19.676097173982445	12.779999999999998	0.0
C 	20.905853247356347	13.489999999999997	0.0
C 	22.13560932073025	12.779999999999996	0.0
C 	23.36536539410415	13.489999999999995	0.0
C 	24.595121467478055	12.779999999999996	0.0
C 	25.824877540851958	13.489999999999997	0.0
C 	27.05463361422586	12.779999999999998	0.0
C 	28.284389687599763	13.489999999999997	0.0
C 	29.514145760973662	12.779999999999996	0.0
C 	30.743901834347568	13.489999999999997	0.0
C 	31.97365790772147	12.779999999999996	0.0
C 	33.20341398109537	13.489999999999997	0.0
C 	34.43317005446928	12.779999999999998	0.0
C 	35.66292612784318	13.489999999999995	0.0
C 	36.89268220121708	12.779999999999994	0.0
C 	38.122438274590984	13.489999999999995	0.0
C 	39.35219434796489	12.779999999999996	0.0
C 	40.581950421338796	13.489999999999997	0.0
C 	41.811706494712695	12.779999999999996	0.0
C 	43.041462568086594	13.489999999999993	0.0
C 	44.2712186414605	12.779999999999994	0.0
C 	45.5009747148344	13.489999999999995	0.0
C 	46.730730788208305	12.779999999999996	0.0
C 	47.96048686158221	13.489999999999997	0.0
C 	49.19024293495611	12.779999999999998	0.0
C 	50.41999900833001	13.489999999999995	0.0
C 	51.649755081703915	12.779999999999996	0.0
C 	52.879511155077815	13.489999999999993	0.0
C 	54.10926722845172	12.779999999999998	0.0
C 	55.33902330182563	13.489999999999998	0.0
C 	56.56877937519952	12.779999999999998	0.0
C 	57.798535448573425	13.489999999999997	0.0
C 	59.02829152194733	12.779999999999994	0.0
C 	60.25804759532123	13.489999999999991	0.0
C 	61.487803668695136	12.779999999999998	0.0
C 	62.71755974206904	13.489999999999998	0.0
C 	63.94731581544294	12.779999999999994	0.0
C 	65.17707188881684	13.489999999999995	0.0
C 	66.40682796219075	12.77999999999999	0.0
C 	67.63658403556465	13.489999999999988	0.0
C 	8.60829251361732	14.909999999999998	0.0
C 	9.838048586991222	15.619999999999996	0.0
C 	11.067804660365125	14.909999999999997	0.0
C 	12.297560733739026	15.619999999999996	0.0
C 	13.527316807112934	14.909999999999998	0.0
C 	14.757072880486831	15.619999999999996	0.0
C 	15.986828953860737	14.909999999999998	0.0
C 	17.21658502723464	15.619999999999997	0.0
C 	18.446341100608542	14.909999999999997	0.0
C 	19.676097173982445	15.619999999999996	0.0
C 	20.905853247356347	14.909999999999997	0.0
C 	22.135609320730246	15.619999999999996	0.0
C 	23.365365394104153	14.909999999999995	0.0
C 	24.595121467478055	15.619999999999996	0.0
C 	25.824877540851958	14.909999999999997	0.0
C 	27.05463361422586	15.619999999999996	0.0
C 	28.284389687599763	14.909999999999997	0.0
C 	29.514145760973665	15.619999999999996	0.0
C 	30.743901834347568	14.909999999999997	0.0
C 	31.973657907721474	15.619999999999997	0.0
C 	33.203413981095366	14.909999999999993	0.0
C 	34.43317005446927	15.619999999999994	0.0
C 	35.662926127843185	14.909999999999998	0.0
C 	36.892682201217085	15.619999999999996	0.0
C 	38.122438274590984	14.909999999999995	0.0
C 	39.35219434796489	15.619999999999996	0.0
C 	40.58195042133879	14.909999999999993	0.0
C 	41.811706494712695	15.619999999999994	0.0
C 	43.0414625680866	14.909999999999998	0.0
C 	44.2712186414605	15.619999999999996	0.0
C 	45.5009747148344	14.909999999999995	0.0
C 	46.730730788208305	15.619999999999996	0.0
C 	47.960486861582204	14.909999999999993	0.0
C 	49.19024293495611	15.619999999999994	0.0
C 	50.41999900833002	14.909999999999998	0.0
C 	51.649755081703915	15.619999999999996	0.0
C 	52.87951115507782	14.909999999999997	0.0
C 	54.10926722845171	15.619999999999994	0.0
C 	55.33902330182562	14.909999999999995	0.0
C 	56.568779375199526	15.619999999999994	0.0
C 	57.798535448573425	14.909999999999991	0.0
C 	59.028291521947324	15.619999999999992	0.0
C 	60.25804759532124	14.909999999999998	0.0
C 	61.487803668695136	15.619999999999996	0.0
C 	62.717559742069035	14.909999999999993	0.0
C 	63.94731581544294	15.619999999999994	0.0
C 	65.17707188881684	14.909999999999993	0.0
C 	66.40682796219075	15.619999999999994	0.0
C 	67.63658403556465	14.909999999999997	0.0
C 	68.86634010893854	15.61999999999999	0.0
C 	9.838048586991222	17.039999999999996	0.0
C 	11.067804660365127	17.749999999999996	0.0
C 	12.297560733739028	17.039999999999996	0.0
C 	13.527316807112932	17.749999999999996	0.0
C 	14.757072880486833	17.039999999999996	0.0
C 	15.986828953860735	17.749999999999996	0.0
C 	17.21658502723464	17.039999999999996	0.0
C 	18.446341100608546	17.749999999999996	0.0
C 	19.676097173982445	17.039999999999996	0.0
C 	20.905853247356347	17.749999999999996	0.0
C 	22.13560932073025	17.039999999999996	0.0
C 	23.365365394104153	17.749999999999996	0.0
C 	24.595121467478055	17.039999999999996	0.0
C 	25.82487754085196	17.749999999999996	0.0
C 	27.05463361422586	17.039999999999996	0.0
C 	28.28438968759977	17.75	0.0
C 	29.514145760973665	17.039999999999996	0.0
C 	30.74390183434757	17.749999999999996	0.0
C 	31.973657907721467	17.039999999999992	0.0
C 	33.20341398109537	17.749999999999993	0.0
C 	34.43317005446927	17.039999999999996	0.0
C 	35.66292612784318	17.749999999999996	0.0
C 	36.892682201217085	17.039999999999996	0.0
C 	38.122438274590984	17.749999999999996	0.0
C 	39.35219434796488	17.039999999999992	0.0
C 	40.58195042133879	17.749999999999993	0.0
C 	41.811706494712695	17.039999999999992	0.0
C 	43.041462568086594	17.749999999999993	0.0
C 	44.2712186414605	17.039999999999996	0.0
C 	45.500974714834406	17.749999999999996	0.0
C 	46.7307307882083	17.039999999999992	0.0
C 	47.960486861582204	17.749999999999993	0.0
C 	49.19024293495611	17.039999999999992	0.0
C 	50.41999900833002	17.749999999999993	0.0
C 	51.649755081703915	17.039999999999996	0.0
C 	52.87951115507782	17.749999999999996	0.0
C 	54.10926722845172	17.039999999999992	0.0
C 	55.33902330182562	17.749999999999993	0.0
C 	56.568779375199526	17.039999999999996	0.0
C 	57.79853544857343	17.749999999999996	0.0
C 	59.028291521947324	17.039999999999992	0.0
C 	60.25804759532123	17.749999999999993	0.0
C 	61.487803668695136	17.039999999999996	0.0
C 	62.71755974206904	17.749999999999996	0.0
C 	63.94731581544294	17.04	0.0
C 	65.17707188881684	17.749999999999993	0.0
C 	66.40682796219075	17.039999999999996	0.0
C 	67.63658403556464	17.74999999999999	0.0
C 	68.86634010893856	17.03999999999999	0.0
C 	70.09609618231246	17.74999999999999	0.0
C 	11.067804660365125	19.169999999999995	0.0
C 	12.297560733739026	19.879999999999995	0.0
C 	13.52731680711293	19.169999999999995	0.0
C 	14.757072880486831	19.879999999999995	0.0
C 	15.986828953860737	19.169999999999998	0.0
C 	17.216585027234636	19.879999999999992	0.0
C 	18.446341100608542	19.169999999999995	0.0
C 	19.676097173982445	19.879999999999995	0.0
C 	20.905853247356347	19.169999999999995	0.0
C 	22.135609320730246	19.879999999999995	0.0
C 	23.365365394104153	19.169999999999995	0.0
C 	24.59512146747805	19.879999999999995	0.0
C 	25.824877540851958	19.169999999999995	0.0
C 	27.05463361422586	19.879999999999995	0.0
C 	28.284389687599763	19.169999999999995	0.0
C 	29.51414576097367	19.879999999999995	0.0
C 	30.743901834347565	19.16999999999999	0.0
C 	31.97365790772147	19.879999999999992	0.0
C 	33.20341398109537	19.169999999999995	0.0
C 	34.43317005446927	19.879999999999992	0.0
C 	35.66292612784318	19.169999999999995	0.0
C 	36.89268220121708	19.879999999999992	0.0
C 	38.122438274590984	19.169999999999995	0.0
C 	39.35219434796488	19.879999999999992	0.0
C 	40.58195042133879	19.16999999999999	0.0
C 	41.81170649471269	19.87999999999999	0.0
C 	43.0414625680866	19.169999999999995	0.0
C 	44.27121864146049	19.879999999999992	0.0
C 	45.5009747148344	19.16999999999999	0.0
C 	46.730730788208305	19.879999999999992	0.0
C 	47.960486861582204	19.169999999999995	0.0
C 	49.1902429349561	19.879999999999992	0.0
C 	50.41999900833002	19.169999999999995	0.0
C 	51.649755081703915	19.879999999999992	0.0
C 	52.879511155077815	19.16999999999999	0.0
C 	54.10926722845172	19.879999999999992	0.0
C 	55.33902330182562	19.16999999999999	0.0
C 	56.56877937519952	19.879999999999992	0.0
C 	57.79853544857343	19.169999999999995	0.0
C 	59.02829152194733	19.879999999999992	0.0
C 	60.25804759532123	19.169999999999995	0.0
C 	61.48780366869513	19.879999999999992	0.0
C 	62.717559742069035	19.16999999999999	0.0
C 	63.94731581544294	19.879999999999992	0.0
C 	65.17707188881684	19.169999999999995	0.0
C 	66.40682796219075	19.87999999999999	0.0
C 	67.63658403556465	19.169999999999995	0.0
C 	68.86634010893854	19.87999999999999	0.0
C 	70.09609618231245	19.16999999999999	0.0
C 	71.32585225568636	19.879999999999992	0.0
C 	12.297560733739028	21.299999999999994	0.0
C 	13.527316807112932	22.009999999999994	0.0
C 	14.757072880486831	21.299999999999994	0.0
C 	15.986828953860735	22.009999999999994	0.0
C 	17.216585027234636	21.299999999999994	0.0
C 	18.44634110060854	22.009999999999994	0.0
C 	19.676097173982445	21.299999999999994	0.0
C 	20.905853247356347	22.009999999999994	0.0
C 	22.13560932073025	21.299999999999994	0.0
C 	23.365365394104153	22.009999999999994	0.0
C 	24.595121467478055	21.299999999999994	0.0
C 	25.824877540851958	22.009999999999994	0.0
C 	27.05463361422586	21.299999999999994	0.0
C 	28.284389687599766	22.009999999999994	0.0
C 	29.514145760973662	21.29999999999999	0.0
C 	30.743901834347568	22.00999999999999	0.0
C 	31.97365790772147	21.299999999999994	0.0
C 	33.20341398109537	22.009999999999994	0.0
C 	34.43317005446928	21.299999999999994	0.0
C 	35.662926127843185	22.009999999999994	0.0
C 	36.89268220121708	21.299999999999994	0.0
C 	38.122438274590984	22.009999999999994	0.0
C 	39.35219434796489	21.299999999999994	0.0
C 	40.58195042133879	22.009999999999994	0.0
C 	41.811706494712695	21.299999999999994	0.0
C 	43.0414625680866	22.009999999999994	0.0
C 	44.2712186414605	21.29999999999999	0.0
C 	45.5009747148344	22.00999999999999	0.0
C 	46.730730788208305	21.299999999999994	0.0
C 	47.96048686158221	22.009999999999994	0.0
C 	49.19024293495611	21.299999999999994	0.0
C 	50.41999900833002	22.009999999999994	0.0
C 	51.649755081703915	21.299999999999994	0.0
C 	52.879511155077815	22.00999999999999	0.0
C 	54.10926722845172	21.299999999999994	0.0
C 	55.33902330182563	22.009999999999994	0.0
C 	56.568779375199526	21.29999999999999	0.0
C 	57.798535448573425	22.00999999999999	0.0
C 	59.02829152194733	21.299999999999994	0.0
C 	60.25804759532124	22.009999999999994	0.0
C 	61.48780366869513	21.29999999999999	0.0
C 	62.717559742069035	22.00999999999999	0.0
C 	63.94731581544294	21.299999999999994	0.0
C 	65.17707188881684	22.009999999999987	0.0
C 	66.40682796219075	21.299999999999994	0.0
C 	67.63658403556465	22.009999999999994	0.0
C 	68.86634010893854	21.29999999999999	0.0
C 	70.09609618231245	22.00999999999999	0.0
C 	71.32585225568636	21.299999999999983	0.0
C 	72.55560832906026	22.00999999999999	0.0
C 	13.527316807112932	23.429999999999996	0.0
C 	14.757072880486836	24.139999999999997	0.0
C 	15.986828953860737	23.429999999999996	0.0
C 	17.216585027234643	24.139999999999997	0.0
C 	18.446341100608542	23.429999999999996	0.0
C 	19.676097173982445	24.139999999999997	0.0
C 	20.90585324735635	23.429999999999996	0.0
C 	22.135609320730254	24.139999999999997	0.0
C 	23.365365394104156	23.429999999999993	0.0
C 	24.595121467478062	24.139999999999997	0.0
C 	25.824877540851958	23.429999999999993	0.0
C 	27.054633614225864	24.139999999999993	0.0
C 	28.284389687599766	23.429999999999996	0.0
C 	29.514145760973673	24.139999999999997	0.0
C 	30.743901834347575	23.429999999999996	0.0
C 	31.973657907721478	24.139999999999997	0.0
C 	33.20341398109537	23.429999999999993	0.0
C 	34.43317005446928	24.139999999999993	0.0
C 	35.66292612784318	23.429999999999993	0.0
C 	36.892682201217085	24.139999999999993	0.0
C 	38.122438274590984	23.429999999999993	0.0
C 	39.35219434796489	24.139999999999993	0.0
C 	40.58195042133879	23.429999999999996	0.0
C 	41.811706494712695	24.139999999999993	0.0
C 	43.041462568086594	23.42999999999999	0.0
C 	44.2712186414605	24.13999999999999	0.0
C 	45.5009747148344	23.429999999999993	0.0
C 	46.730730788208305	24.139999999999993	0.0
C 	47.96048686158221	23.429999999999993	0.0
C 	49.19024293495611	24.139999999999993	0.0
C 	50.41999900833001	23.429999999999993	0.0
C 	51.649755081703915	24.13999999999999	0.0
C 	52.87951115507782	23.429999999999993	0.0
C 	54.10926722845172	24.139999999999993	0.0
C 	55.33902330182563	23.429999999999993	0.0
C 	56.56877937519953	24.139999999999993	0.0
C 	57.798535448573425	23.429999999999993	0.0
C 	59.02829152194733	24.139999999999993	0.0
C 	60.25804759532124	23.429999999999993	0.0
C 	61.487803668695136	24.13999999999999	0.0
C 	62.71755974206904	23.429999999999993	0.0
C 	63.947315815442934	24.139999999999986	0.0
C 	65.17707188881684	23.429999999999993	0.0
C 	66.40682796219075	24.139999999999993	0.0
C 	67.63658403556464	23.42999999999999	0.0
C 	68.86634010893856	24.139999999999997	0.0
C 	70.09609618231245	23.42999999999999	0.0
C 	71.32585225568636	24.139999999999997	0.0
C 	72.55560832906026	23.42999999999999	0.0
C 	73.78536440243417	24.13999999999999	0.0
C 	14.757072880486835	25.559999999999995	0.0
C 	15.986828953860735	26.269999999999996	0.0
C 	17.21658502723464	25.559999999999995	0.0
C 	18.44634110060854	26.269999999999996	0.0
C 	19.676097173982445	25.56	0.0
C 	20.905853247356344	26.269999999999996	0.0
C 	22.13560932073025	25.56	0.0
C 	23.365365394104153	26.269999999999996	0.0
C 	24.595121467478055	25.559999999999995	0.0
C 	25.824877540851958	26.269999999999996	0.0
C 	27.054633614225857	25.559999999999995	0.0
C 	28.28438968759976	26.269999999999996	0.0
C 	29.514145760973665	25.559999999999995	0.0
C 	30.743901834347568	26.269999999999996	0.0
C 	31.973657907721474	25.559999999999995	0.0
C 	33.20341398109538	26.269999999999996	0.0
C 	34.43317005446927	25.55999999999999	0.0
C 	35.66292612784318	26.269999999999992	0.0
C 	36.892682201217085	25.559999999999995	0.0
C 	38.12243827459098	26.269999999999992	0.0
C 	39.35219434796489	25.559999999999995	0.0
C 	40.58195042133879	26.269999999999992	0.0
C 	41.81170649471269	25.55999999999999	0.0
C 	43.041462568086594	26.269999999999992	0.0
C 	44.2712186414605	25.55999999999999	0.0
C 	45.5009747148344	26.26999999999999	0.0
C 	46.730730788208305	25.559999999999995	0.0
C 	47.960486861582204	26.269999999999992	0.0
C 	49.19024293495611	25.55999999999999	0.0
C 	50.41999900833001	26.269999999999992	0.0
C 	51.649755081703915	25.559999999999995	0.0
C 	52.879511155077815	26.269999999999992	0.0
C 	54.10926722845172	25.559999999999995	0.0
C 	55.33902330182562	26.269999999999992	0.0
C 	56.568779375199526	25.55999999999999	0.0
C 	57.79853544857343	26.269999999999992	0.0
C 	59.028291521947324	25.55999999999999	0.0
C 	60.25804759532123	26.269999999999992	0.0
C 	61.487803668695136	25.559999999999995	0.0
C 	62.717559742069035	26.26999999999999	0.0
C 	63.94731581544294	25.55999999999999	0.0
C 	65.17707188881683	26.269999999999985	0.0
C 	66.40682796219075	25.55999999999999	0.0
C 	67.63658403556465	26.269999999999992	0.0
C 	68.86634010893856	25.559999999999995	0.0
C 	70.09609618231246	26.269999999999996	0.0
C 	71.32585225568636	25.559999999999995	0.0
C 	72.55560832906026	26.269999999999996	0.0
C 	73.78536440243415	25.559999999999988	0.0
C 	75.01512047580806	26.26999999999999	0.0
C 	15.986828953860735	27.689999999999994	0.0
C 	17.21658502723464	28.399999999999995	0.0
C 	18.446341100608542	27.689999999999994	0.0
C 	19.676097173982445	28.399999999999995	0.0
C 	20.905853247356344	27.689999999999994	0.0
C 	22.13560932073025	28.399999999999995	0.0
C 	23.365365394104153	27.689999999999994	0.0
C 	24.59512146747806	28.399999999999995	0.0
C 	25.824877540851954	27.689999999999994	0.0
C 	27.054633614225857	28.399999999999995	0.0
C 	28.284389687599763	27.689999999999994	0.0
C 	29.514145760973665	28.399999999999995	0.0
C 	30.74390183434757	27.689999999999994	0.0
C 	31.973657907721474	28.399999999999995	0.0
C 	33.20341398109537	27.68999999999999	0.0
C 	34.43317005446928	28.39999999999999	0.0
C 	35.66292612784318	27.689999999999994	0.0
C 	36.892682201217085	28.399999999999995	0.0
C 	38.122438274590984	27.689999999999994	0.0
C 	39.35219434796489	28.399999999999995	0.0
C 	40.58195042133879	27.689999999999994	0.0
C 	41.811706494712695	28.399999999999995	0.0
C 	43.041462568086594	27.689999999999994	0.0
C 	44.2712186414605	28.399999999999995	0.0
C 	45.500974714834406	27.689999999999994	0.0
C 	46.730730788208305	28.399999999999995	0.0
C 	47.960486861582204	27.68999999999999	0.0
C 	49.19024293495611	28.39999999999999	0.0
C 	50.41999900833002	27.689999999999994	0.0
C 	51.649755081703915	28.399999999999995	0.0
C 	52.87951115507782	27.689999999999994	0.0
C 	54.10926722845173	28.399999999999995	0.0
C 	55.33902330182562	27.68999999999999	0.0
C 	56.568779375199526	28.39999999999999	0.0
C 	57.79853544857343	27.689999999999994	0.0
C 	59.02829152194733	28.39999999999999	0.0
C 	60.25804759532124	27.689999999999994	0.0
C 	61.48780366869513	28.399999999999988	0.0
C 	62.717559742069035	27.689999999999994	0.0
C 	63.94731581544294	28.399999999999995	0.0
C 	65.17707188881684	27.68999999999999	0.0
C 	66.40682796219075	28.39999999999999	0.0
C 	67.63658403556464	27.689999999999987	0.0
C 	68.86634010893856	28.399999999999995	0.0
C 	70.09609618231245	27.689999999999994	0.0
C 	71.32585225568636	28.399999999999995	0.0
C 	72.55560832906026	27.68999999999999	0.0
C 	73.78536440243415	28.39999999999999	0.0
C 	75.01512047580808	27.689999999999994	0.0
C 	76.24487654918197	28.399999999999984	0.0
C 	17.21658502723464	29.819999999999997	0.0
C 	18.446341100608546	30.529999999999998	0.0
C 	19.676097173982445	29.819999999999997	0.0
C 	20.905853247356355	30.529999999999998	0.0
C 	22.13560932073025	29.819999999999993	0.0
C 	23.365365394104156	30.529999999999994	0.0
C 	24.59512146747806	29.819999999999997	0.0
C 	25.82487754085196	30.529999999999998	0.0
C 	27.054633614225867	29.819999999999997	0.0
C 	28.28438968759977	30.529999999999998	0.0
C 	29.514145760973665	29.819999999999997	0.0
C 	30.74390183434757	30.529999999999998	0.0
C 	31.973657907721474	29.819999999999997	0.0
C 	33.20341398109538	30.529999999999998	0.0
C 	34.43317005446928	29.819999999999997	0.0
C 	35.662926127843185	30.529999999999998	0.0
C 	36.892682201217085	29.819999999999993	0.0
C 	38.12243827459099	30.529999999999994	0.0
C 	39.35219434796488	29.819999999999993	0.0
C 	40.58195042133879	30.529999999999994	0.0
C 	41.811706494712695	29.819999999999993	0.0
C 	43.0414625680866	30.529999999999994	0.0
C 	44.2712186414605	29.819999999999993	0.0
C 	45.500974714834406	30.529999999999994	0.0
C 	46.730730788208305	29.81999999999999	0.0
C 	47.960486861582204	30.52999999999999	0.0
C 	49.19024293495611	29.819999999999993	0.0
C 	50.41999900833002	30.529999999999994	0.0
C 	51.649755081703915	29.819999999999993	0.0
C 	52.87951115507782	30.529999999999994	0.0
C 	54.10926722845172	29.819999999999993	0.0
C 	55.33902330182563	30.52999999999999	0.0
C 	56.568779375199526	29.819999999999993	0.0
C 	57.798535448573425	30.52999999999999	0.0
C 	59.02829152194734	29.819999999999993	0.0
C 	60.25804759532124	30.529999999999994	0.0
C 	61.487803668695136	29.819999999999993	0.0
C 	62.71755974206904	30.529999999999994	0.0
C 	63.947315815442934	29.81999999999999	0.0
C 	65.17707188881685	30.529999999999998	0.0
C 	66.40682796219073	29.819999999999986	0.0
C 	67.63658403556465	30.529999999999994	0.0
C 	68.86634010893856	29.819999999999993	0.0
C 	70.09609618231245	30.529999999999994	0.0
C 	71.32585225568637	29.819999999999997	0.0
C 	72.55560832906026	30.52999999999999	0.0
C 	73.78536440243417	29.819999999999997	0.0
C 	75.01512047580806	30.529999999999987	0.0
C 	76.24487654918197	29.81999999999999	0.0
C 	77.47463262255587	30.52999999999999	0.0
C 	18.446341100608542	31.949999999999996	0.0
C 	19.676097173982445	32.65999999999999	0.0
C 	20.905853247356347	31.949999999999992	0.0
C 	22.135609320730254	32.66	0.0
C 	23.365365394104156	31.949999999999996	0.0
C 	24.595121467478055	32.65999999999999	0.0
C 	25.824877540851958	31.949999999999992	0.0
C 	27.05463361422586	32.66	0.0
C 	28.284389687599766	31.949999999999996	0.0
C 	29.51414576097367	32.66	0.0
C 	30.743901834347568	31.949999999999992	0.0
C 	31.97365790772147	32.66	0.0
C 	33.20341398109537	31.949999999999992	0.0
C 	34.43317005446928	32.66	0.0
C 	35.66292612784318	31.949999999999996	0.0
C 	36.892682201217085	32.66	0.0
C 	38.122438274590984	31.949999999999992	0.0
C 	39.35219434796489	32.65999999999999	0.0
C 	40.58195042133879	31.949999999999992	0.0
C 	41.81170649471269	32.65999999999999	0.0
C 	43.0414625680866	31.949999999999996	0.0
C 	44.2712186414605	32.65999999999999	0.0
C 	45.5009747148344	31.949999999999992	0.0
C 	46.730730788208305	32.65999999999999	0.0
C 	47.96048686158221	31.949999999999992	0.0
C 	49.1902429349561	32.65999999999999	0.0
C 	50.41999900833002	31.949999999999992	0.0
C 	51.649755081703915	32.65999999999999	0.0
C 	52.879511155077815	31.949999999999992	0.0
C 	54.10926722845172	32.65999999999999	0.0
C 	55.33902330182563	31.949999999999992	0.0
C 	56.568779375199526	32.65999999999999	0.0
C 	57.79853544857343	31.949999999999992	0.0
C 	59.028291521947324	32.65999999999999	0.0
C 	60.25804759532124	31.949999999999992	0.0
C 	61.487803668695136	32.65999999999999	0.0
C 	62.717559742069035	31.94999999999999	0.0
C 	63.94731581544294	32.65999999999999	0.0
C 	65.17707188881685	31.949999999999992	0.0
C 	66.40682796219076	32.66	0.0
C 	67.63658403556465	31.949999999999992	0.0
C 	68.86634010893856	32.65999999999999	0.0
C 	70.09609618231245	31.94999999999999	0.0
C 	71.32585225568636	32.65999999999999	0.0
C 	72.55560832906026	31.949999999999996	0.0
C 	73.78536440243415	32.65999999999999	0.0
C 	75.01512047580806	31.949999999999992	0.0
C 	76.24487654918195	32.65999999999998	0.0
C 	77.47463262255587	31.949999999999985	0.0
C 	78.70438869592978	32.65999999999999	0.0
C 	19.676097173982445	34.07999999999999	0.0
C 	20.90585324735635	34.78999999999999	0.0
C 	22.135609320730254	34.07999999999999	0.0
C 	23.365365394104156	34.78999999999999	0.0
C 	24.595121467478055	34.07999999999999	0.0
C 	25.824877540851958	34.78999999999999	0.0
C 	27.054633614225864	34.07999999999999	0.0
C 	28.284389687599766	34.78999999999999	0.0
C 	29.514145760973665	34.07999999999999	0.0
C 	30.743901834347568	34.78999999999999	0.0
C 	31.97365790772147	34.07999999999999	0.0
C 	33.20341398109537	34.78999999999999	0.0
C 	34.43317005446928	34.07999999999999	0.0
C 	35.662926127843185	34.78999999999999	0.0
C 	36.89268220121708	34.07999999999999	0.0
C 	38.122438274590984	34.78999999999999	0.0
C 	39.35219434796489	34.07999999999999	0.0
C 	40.581950421338796	34.78999999999999	0.0
C 	41.811706494712695	34.07999999999999	0.0
C 	43.0414625680866	34.78999999999999	0.0
C 	44.2712186414605	34.07999999999999	0.0
C 	45.5009747148344	34.78999999999999	0.0
C 	46.730730788208305	34.07999999999999	0.0
C 	47.96048686158221	34.78999999999999	0.0
C 	49.19024293495611	34.07999999999999	0.0
C 	50.41999900833002	34.78999999999999	0.0
C 	51.649755081703915	34.07999999999999	0.0
C 	52.87951115507782	34.78999999999999	0.0
C 	54.10926722845172	34.07999999999999	0.0
C 	55.33902330182562	34.78999999999999	0.0
C 	56.56877937519953	34.07999999999999	0.0
C 	57.79853544857343	34.78999999999999	0.0
C 	59.02829152194733	34.07999999999999	0.0
C 	60.25804759532124	34.78999999999999	0.0
C 	61.487803668695136	34.07999999999999	0.0
C 	62.71755974206905	34.79	0.0
C 	63.947315815442934	34.079999999999984	0.0
C 	65.17707188881685	34.78999999999999	0.0
C 	66.40682796219075	34.07999999999999	0.0
C 	67.63658403556465	34.78999999999999	0.0
C 	68.86634010893854	34.07999999999999	0.0
C 	70.09609618231245	34.78999999999999	0.0
C 	71.32585225568636	34.07999999999999	0.0
C 	72.55560832906025	34.789999999999985	0.0
C 	73.78536440243417	34.07999999999999	0.0
C 	75.01512047580808	34.78999999999999	0.0
C 	76.24487654918197	34.07999999999999	0.0
C 	77.47463262255587	34.78999999999999	0.0
C 	78.70438869592977	34.079999999999984	0.0
C 	79.93414476930369	34.78999999999999	0.0
C 	20.90585324735635	36.209999999999994	0.0
C 	22.135609320730254	36.919999999999995	0.0
C 	23.36536539410416	36.209999999999994	0.0
C 	24.595121467478062	36.919999999999995	0.0
C 	25.82487754085196	36.209999999999994	0.0
C 	27.054633614225864	36.919999999999995	0.0
C 	28.284389687599766	36.209999999999994	0.0
C 	29.514145760973673	36.919999999999995	0.0
C 	30.743901834347575	36.209999999999994	0.0
C 	31.973657907721478	36.919999999999995	0.0
C 	33.20341398109537	36.209999999999994	0.0
C 	34.43317005446928	36.919999999999995	0.0
C 	35.662926127843185	36.209999999999994	0.0
C 	36.89268220121709	36.919999999999995	0.0
C 	38.12243827459099	36.209999999999994	0.0
C 	39.3521943479649	36.919999999999995	0.0
C 	40.581950421338796	36.209999999999994	0.0
C 	41.811706494712695	36.919999999999995	0.0
C 	43.041462568086594	36.209999999999994	0.0
C 	44.2712186414605	36.919999999999995	0.0
C 	45.500974714834406	36.209999999999994	0.0
C 	46.730730788208305	36.919999999999995	0.0
C 	47.96048686158221	36.209999999999994	0.0
C 	49.19024293495612	36.919999999999995	0.0
C 	50.41999900833002	36.20999999999999	0.0
C 	51.649755081703915	36.91999999999999	0.0
C 	52.87951115507782	36.209999999999994	0.0
C 	54.10926722845172	36.91999999999999	0.0
C 	55.33902330182563	36.209999999999994	0.0
C 	56.56877937519953	36.919999999999995	0.0
C 	57.79853544857343	36.20999999999999	0.0
C 	59.02829152194733	36.91999999999999	0.0
C 	60.25804759532123	36.20999999999999	0.0
C 	61.48780366869515	36.919999999999995	0.0
C 	62.71755974206904	36.209999999999994	0.0
C 	63.94731581544295	36.919999999999995	0.0
C 	65.17707188881684	36.209999999999994	0.0
C 	66.40682796219075	36.919999999999995	0.0
C 	67.63658403556467	36.209999999999994	0.0
C 	68.86634010893856	36.91999999999999	0.0
C 	70.09609618231246	36.209999999999994	0.0
C 	71.32585225568636	36.91999999999999	0.0
C 	72.55560832906026	36.209999999999994	0.0
C 	73.78536440243417	36.919999999999995	0.0
C 	75.01512047580806	36.20999999999999	0.0
C 	76.24487654918198	36.919999999999995	0.0
C 	77.47463262255586	36.20999999999999	0.0
C 	78.70438869592978	36.919999999999995	0.0
C 	79.93414476930369	36.20999999999999	0.0
C 	81.16390084267759	36.91999999999999	0.0
C 	22.13560932073025	38.33999999999999	0.0
C 	23.365365394104153	39.04999999999999	0.0
C 	24.59512146747806	38.33999999999999	0.0
C 	25.82487754085196	39.04999999999999	0.0
C 	27.05463361422586	38.33999999999999	0.0
C 	28.284389687599763	39.04999999999999	0.0
C 	29.514145760973665	38.33999999999999	0.0
C 	30.74390183434757	39.04999999999999	0.0
C 	31.973657907721474	38.339999999999996	0.0
C 	33.20341398109538	39.04999999999999	0.0
C 	34.43317005446927	38.33999999999999	0.0
C 	35.66292612784318	39.04999999999999	0.0
C 	36.892682201217085	38.33999999999999	0.0
C 	38.12243827459099	39.04999999999999	0.0
C 	39.35219434796489	38.33999999999999	0.0
C 	40.581950421338796	39.04999999999999	0.0
C 	41.811706494712695	38.33999999999999	0.0
C 	43.0414625680866	39.04999999999999	0.0
C 	44.27121864146049	38.33999999999999	0.0
C 	45.5009747148344	39.04999999999999	0.0
C 	46.730730788208305	38.33999999999999	0.0
C 	47.960486861582204	39.04999999999999	0.0
C 	49.19024293495611	38.33999999999999	0.0
C 	50.41999900833002	39.04999999999999	0.0
C 	51.649755081703915	38.33999999999999	0.0
C 	52.879511155077815	39.04999999999999	0.0
C 	54.10926722845173	38.33999999999999	0.0
C 	55.33902330182562	39.04999999999998	0.0
C 	56.568779375199526	38.33999999999999	0.0
C 	57.79853544857343	39.04999999999999	0.0
C 	59.02829152194733	38.33999999999999	0.0
C 	60.25804759532123	39.04999999999999	0.0
C 	61.48780366869513	38.33999999999998	0.0
C 	62.71755974206905	39.04999999999999	0.0
C 	63.94731581544294	38.33999999999999	0.0
C 	65.17707188881685	39.04999999999999	0.0
C 	66.40682796219075	38.33999999999999	0.0
C 	67.63658403556465	39.04999999999999	0.0
C 	68.86634010893856	38.33999999999999	0.0
C 	70.09609618231245	39.04999999999998	0.0
C 	71.32585225568636	38.33999999999999	0.0
C 	72.55560832906025	39.04999999999998	0.0
C 	73.78536440243415	38.33999999999999	0.0
C 	75.01512047580806	39.04999999999999	0.0
C 	76.24487654918197	38.33999999999999	0.0
C 	77.47463262255587	39.05	0.0
C 	78.70438869592977	38.33999999999998	0.0
C 	79.93414476930369	39.04999999999999	0.0
C 	81.16390084267758	38.33999999999998	0.0
C 	82.39365691605148	39.04999999999998	0.0
C 	23.365365394104156	40.46999999999999	0.0
C 	24.59512146747806	41.17999999999999	0.0
C 	25.82487754085196	40.46999999999999	0.0
C 	27.054633614225867	41.17999999999999	0.0
C 	28.284389687599763	40.46999999999999	0.0
C 	29.51414576097367	41.17999999999999	0.0
C 	30.74390183434757	40.46999999999999	0.0
C 	31.973657907721474	41.17999999999999	0.0
C 	33.20341398109537	40.46999999999999	0.0
C 	34.43317005446928	41.17999999999999	0.0
C 	35.66292612784318	40.46999999999999	0.0
C 	36.892682201217085	41.17999999999999	0.0
C 	38.12243827459099	40.46999999999999	0.0
C 	39.3521943479649	41.17999999999999	0.0
C 	40.58195042133879	40.46999999999999	0.0
C 	41.811706494712695	41.17999999999999	0.0
C 	43.0414625680866	40.46999999999999	0.0
C 	44.2712186414605	41.17999999999999	0.0
C 	45.500974714834406	40.46999999999999	0.0
C 	46.73073078820831	41.17999999999999	0.0
C 	47.960486861582204	40.46999999999999	0.0
C 	49.19024293495611	41.17999999999999	0.0
C 	50.41999900833002	40.46999999999999	0.0
C 	51.649755081703915	41.179999999999986	0.0
C 	52.87951115507782	40.46999999999999	0.0
C 	54.10926722845173	41.17999999999999	0.0
C 	55.33902330182563	40.46999999999999	0.0
C 	56.568779375199526	41.17999999999999	0.0
C 	57.798535448573425	40.469999999999985	0.0
C 	59.028291521947345	41.17999999999999	0.0
C 	60.25804759532124	40.46999999999999	0.0
C 	61.48780366869514	41.17999999999999	0.0
C 	62.71755974206904	40.46999999999999	0.0
C 	63.94731581544295	41.17999999999999	0.0
C 	65.17707188881685	40.46999999999999	0.0
C 	66.40682796219075	41.179999999999986	0.0
C 	67.63658403556465	40.46999999999999	0.0
C 	68.86634010893854	41.179999999999986	0.0
C 	70.09609618231246	40.46999999999999	0.0
C 	71.32585225568636	41.17999999999999	0.0
C 	72.55560832906026	40.469999999999985	0.0
C 	73.78536440243417	41.179999999999986	0.0
C 	75.01512047580806	40.469999999999985	0.0
C 	76.24487654918198	41.17999999999999	0.0
C 	77.47463262255587	40.46999999999999	0.0
C 	78.70438869592978	41.17999999999999	0.0
C 	79.93414476930367	40.469999999999985	0.0
C 	81.16390084267758	41.179999999999986	0.0
C 	82.3936569160515	40.46999999999999	0.0
C 	83.62341298942539	41.179999999999986	0.0
C 	24.595121467478055	42.59999999999999	0.0
C 	25.82487754085196	43.30999999999999	0.0
C 	27.05463361422586	42.59999999999999	0.0
C 	28.284389687599766	43.30999999999999	0.0
C 	29.514145760973662	42.59999999999999	0.0
C 	30.743901834347568	43.30999999999999	0.0
C 	31.97365790772147	42.59999999999999	0.0
C 	33.20341398109537	43.30999999999999	0.0
C 	34.43317005446927	42.59999999999999	0.0
C 	35.66292612784318	43.30999999999999	0.0
C 	36.89268220121708	42.59999999999999	0.0
C 	38.122438274590984	43.30999999999999	0.0
C 	39.35219434796489	42.59999999999999	0.0
C 	40.581950421338796	43.30999999999999	0.0
C 	41.81170649471269	42.59999999999999	0.0
C 	43.041462568086594	43.30999999999999	0.0
C 	44.2712186414605	42.59999999999999	0.0
C 	45.5009747148344	43.30999999999999	0.0
C 	46.730730788208305	42.59999999999999	0.0
C 	47.96048686158221	43.30999999999999	0.0
C 	49.19024293495611	42.59999999999999	0.0
C 	50.41999900833001	43.30999999999999	0.0
C 	51.64975508170392	42.599999999999994	0.0
C 	52.879511155077815	43.30999999999999	0.0
C 	54.10926722845172	42.59999999999999	0.0
C 	55.33902330182563	43.30999999999999	0.0
C 	56.568779375199526	42.59999999999999	0.0
C 	57.798535448573425	43.30999999999999	0.0
C 	59.028291521947324	42.59999999999998	0.0
C 	60.258047595321244	43.30999999999999	0.0
C 	61.487803668695136	42.59999999999999	0.0
C 	62.71755974206904	43.30999999999999	0.0
C 	63.94731581544294	42.59999999999999	0.0
C 	65.17707188881684	43.30999999999999	0.0
C 	66.40682796219076	42.599999999999994	0.0
C 	67.63658403556465	43.30999999999999	0.0
C 	68.86634010893856	42.59999999999999	0.0
C 	70.09609618231245	43.30999999999998	0.0
C 	71.32585225568636	42.59999999999999	0.0
C 	72.55560832906026	43.30999999999999	0.0
C 	73.78536440243415	42.59999999999999	0.0
C 	75.01512047580806	43.30999999999999	0.0
C 	76.24487654918197	42.59999999999998	0.0
C 	77.47463262255587	43.30999999999999	0.0
C 	78.70438869592978	42.59999999999999	0.0
C 	79.93414476930367	43.30999999999999	0.0
C 	81.16390084267758	42.59999999999999	0.0
C 	82.39365691605148	43.30999999999999	0.0
C 	83.62341298942539	42.59999999999999	0.0
C 	84.85316906279928	43.30999999999998	0.0
C 	25.82487754085196	44.72999999999999	0.0
C 	27.054633614225864	45.43999999999999	0.0
C 	28.284389687599766	44.72999999999999	0.0
C 	29.514145760973673	45.43999999999999	0.0
C 	30.743901834347568	44.72999999999999	0.0
C 	31.97365790772147	45.43999999999999	0.0
C 	33.20341398109537	44.72999999999999	0.0
C 	34.43317005446928	45.43999999999999	0.0
C 	35.662926127843185	44.72999999999999	0.0
C 	36.892682201217085	45.43999999999999	0.0
C 	38.122438274590984	44.72999999999999	0.0
C 	39.35219434796489	45.43999999999999	0.0
C 	40.581950421338796	44.72999999999999	0.0
C 	41.811706494712695	45.43999999999999	0.0
C 	43.0414625680866	44.72999999999999	0.0
C 	44.27121864146051	45.43999999999999	0.0
C 	45.500974714834406	44.72999999999999	0.0
C 	46.730730788208305	45.43999999999999	0.0
C 	47.960486861582204	44.72999999999999	0.0
C 	49.19024293495611	45.43999999999998	0.0
C 	50.41999900833002	44.72999999999999	0.0
C 	51.64975508170391	45.43999999999998	0.0
C 	52.87951115507782	44.72999999999999	0.0
C 	54.10926722845172	45.43999999999999	0.0
C 	55.33902330182562	44.72999999999998	0.0
C 	56.568779375199526	45.43999999999998	0.0
C 	57.798535448573425	44.72999999999998	0.0
C 	59.02829152194734	45.43999999999999	0.0
C 	60.25804759532124	44.72999999999999	0.0
C 	61.48780366869514	45.43999999999999	0.0
C 	62.717559742069035	44.72999999999998	0.0
C 	63.94731581544294	45.43999999999998	0.0
C 	65.17707188881685	44.72999999999999	0.0
C 	66.40682796219075	45.43999999999998	0.0
C 	67.63658403556465	44.72999999999999	0.0
C 	68.86634010893856	45.43999999999999	0.0
C 	70.09609618231245	44.72999999999999	0.0
C 	71.32585225568636	45.43999999999998	0.0
C 	72.55560832906026	44.72999999999998	0.0
C 	73.78536440243417	45.43999999999999	0.0
C 	75.01512047580806	44.72999999999998	0.0
C 	76.24487654918198	45.43999999999999	0.0
C 	77.47463262255587	44.72999999999999	0.0
C 	78.70438869592978	45.43999999999999	0.0
C 	79.93414476930369	44.72999999999999	0.0
C 	81.16390084267758	45.43999999999998	0.0
C 	82.39365691605148	44.72999999999999	0.0
C 	83.62341298942538	45.43999999999998	0.0
C 	84.8531690627993	44.72999999999998	0.0
C 	86.08292513617319	45.43999999999998	0.0
C 	27.054633614225864	46.85999999999999	0.0
C 	28.28438968759977	47.56999999999999	0.0
C 	29.514145760973673	46.85999999999999	0.0
C 	30.74390183434758	47.56999999999999	0.0
C 	31.973657907721474	46.85999999999999	0.0
C 	33.20341398109538	47.56999999999999	0.0
C 	34.43317005446928	46.85999999999999	0.0
C 	35.662926127843185	47.56999999999999	0.0
C 	36.892682201217085	46.85999999999999	0.0
C 	38.122438274590984	47.56999999999999	0.0
C 	39.35219434796489	46.85999999999999	0.0
C 	40.581950421338796	47.56999999999999	0.0
C 	41.8117064947127	46.85999999999999	0.0
C 	43.0414625680866	47.56999999999999	0.0
C 	44.2712186414605	46.85999999999999	0.0
C 	45.500974714834406	47.56999999999999	0.0
C 	46.73073078820831	46.859999999999985	0.0
C 	47.960486861582204	47.569999999999986	0.0
C 	49.19024293495612	46.85999999999999	0.0
C 	50.41999900833002	47.56999999999999	0.0
C 	51.649755081703915	46.859999999999985	0.0
C 	52.87951115507782	47.569999999999986	0.0
C 	54.10926722845172	46.859999999999985	0.0
C 	55.339023301825634	47.56999999999999	0.0
C 	56.56877937519953	46.85999999999999	0.0
C 	57.79853544857344	47.56999999999999	0.0
C 	59.02829152194733	46.859999999999985	0.0
C 	60.25804759532124	47.569999999999986	0.0
C 	61.48780366869515	46.85999999999999	0.0
C 	62.71755974206904	47.569999999999986	0.0
C 	63.94731581544295	46.85999999999999	0.0
C 	65.17707188881685	47.56999999999999	0.0
C 	66.40682796219075	46.859999999999985	0.0
C 	67.63658403556465	47.569999999999986	0.0
C 	68.86634010893856	46.859999999999985	0.0
C 	70.09609618231246	47.56999999999999	0.0
C 	71.32585225568636	46.859999999999985	0.0
C 	72.55560832906028	47.56999999999999	0.0
C 	73.78536440243417	46.859999999999985	0.0
C 	75.01512047580808	47.569999999999986	0.0
C 	76.24487654918197	46.859999999999985	0.0
C 	77.47463262255587	47.569999999999986	0.0
C 	78.70438869592978	46.85999999999999	0.0
C 	79.93414476930367	47.569999999999986	0.0
C 	81.16390084267758	46.85999999999999	0.0
C 	82.39365691605148	47.56999999999999	0.0
C 	83.62341298942539	46.859999999999985	0.0
C 	84.8531690627993	47.569999999999986	0.0
C 	86.08292513617319	46.85999999999998	0.0
C 	87.31268120954711	47.569999999999986	0.0
C 	28.284389687599763	48.98999999999999	0.0
C 	29.51414576097367	49.69999999999999	0.0
C 	30.74390183434757	48.98999999999999	0.0
C 	31.973657907721478	49.69999999999999	0.0
C 	33.20341398109537	48.98999999999999	0.0
C 	34.43317005446928	49.69999999999999	0.0
C 	35.66292612784318	48.98999999999999	0.0
C 	36.892682201217085	49.69999999999999	0.0
C 	38.122438274590984	48.98999999999999	0.0
C 	39.35219434796488	49.69999999999999	0.0
C 	40.58195042133879	48.98999999999999	0.0
C 	41.811706494712695	49.69999999999999	0.0
C 	43.041462568086594	48.98999999999999	0.0
C 	44.2712186414605	49.69999999999999	0.0
C 	45.5009747148344	48.98999999999999	0.0
C 	46.730730788208305	49.69999999999998	0.0
C 	47.96048686158221	48.98999999999999	0.0
C 	49.1902429349561	49.69999999999998	0.0
C 	50.41999900833002	48.98999999999999	0.0
C 	51.64975508170392	49.69999999999999	0.0
C 	52.879511155077815	48.98999999999999	0.0
C 	54.10926722845172	49.69999999999999	0.0
C 	55.33902330182562	48.98999999999998	0.0
C 	56.56877937519953	49.69999999999999	0.0
C 	57.79853544857343	48.98999999999999	0.0
C 	59.02829152194734	49.69999999999999	0.0
C 	60.25804759532124	48.98999999999999	0.0
C 	61.487803668695136	49.69999999999999	0.0
C 	62.71755974206905	48.98999999999999	0.0
C 	63.94731581544294	49.69999999999998	0.0
C 	65.17707188881685	48.98999999999999	0.0
C 	66.40682796219075	49.69999999999999	0.0
C 	67.63658403556465	48.98999999999999	0.0
C 	68.86634010893856	49.69999999999999	0.0
C 	70.09609618231245	48.98999999999998	0.0
C 	71.32585225568637	49.69999999999999	0.0
C 	72.55560832906025	48.98999999999998	0.0
C 	73.78536440243417	49.69999999999999	0.0
C 	75.01512047580806	48.98999999999999	0.0
C 	76.24487654918197	49.69999999999999	0.0
C 	77.47463262255587	48.98999999999998	0.0
C 	78.70438869592978	49.69999999999998	0.0
C 	79.93414476930369	48.98999999999999	0.0
C 	81.16390084267758	49.69999999999998	0.0
C 	82.39365691605148	48.98999999999999	0.0
C 	83.62341298942539	49.69999999999999	0.0
C 	84.85316906279928	48.98999999999998	0.0
C 	86.08292513617319	49.69999999999998	0.0
C 	87.3126812095471	48.98999999999998	0.0
C 	88.542437282921	49.69999999999999	0.0
C 	29.51414576097367	51.11999999999999	0.0
C 	30.74390183434757	51.82999999999999	0.0
C 	31.973657907721474	51.11999999999999	0.0
C 	33.20341398109538	51.82999999999999	0.0
C 	34.43317005446928	51.11999999999999	0.0
C 	35.66292612784318	51.82999999999999	0.0
C 	36.892682201217085	51.11999999999999	0.0
C 	38.12243827459099	51.82999999999999	0.0
C 	39.35219434796489	51.12	0.0
C 	40.581950421338796	51.83	0.0
C 	41.811706494712695	51.11999999999999	0.0
C 	43.041462568086594	51.82999999999999	0.0
C 	44.2712186414605	51.12	0.0
C 	45.5009747148344	51.82999999999999	0.0
C 	46.73073078820831	51.11999999999999	0.0
C 	47.96048686158221	51.82999999999999	0.0
C 	49.19024293495611	51.11999999999999	0.0
C 	50.41999900833002	51.82999999999999	0.0
C 	51.649755081703915	51.11999999999998	0.0
C 	52.879511155077815	51.829999999999984	0.0
C 	54.10926722845171	51.11999999999999	0.0
C 	55.33902330182563	51.83	0.0
C 	56.568779375199526	51.11999999999999	0.0
C 	57.79853544857343	51.82999999999999	0.0
C 	59.02829152194733	51.11999999999999	0.0
C 	60.25804759532124	51.82999999999999	0.0
C 	61.48780366869514	51.11999999999999	0.0
C 	62.717559742069035	51.829999999999984	0.0
C 	63.94731581544295	51.11999999999999	0.0
C 	65.17707188881685	51.82999999999999	0.0
C 	66.40682796219075	51.11999999999999	0.0
C 	67.63658403556465	51.82999999999999	0.0
C 	68.86634010893854	51.11999999999998	0.0
C 	70.09609618231246	51.82999999999999	0.0
C 	71.32585225568636	51.11999999999999	0.0
C 	72.55560832906026	51.82999999999999	0.0
C 	73.78536440243417	51.11999999999999	0.0
C 	75.01512047580806	51.82999999999999	0.0
C 	76.24487654918198	51.11999999999999	0.0
C 	77.47463262255587	51.829999999999984	0.0
C 	78.70438869592978	51.11999999999999	0.0
C 	79.93414476930367	51.829999999999984	0.0
C 	81.16390084267758	51.11999999999999	0.0
C 	82.39365691605148	51.82999999999999	0.0
C 	83.62341298942538	51.11999999999998	0.0
C 	84.8531690627993	51.82999999999999	0.0
C 	86.08292513617319	51.11999999999998	0.0
C 	87.3126812095471	51.82999999999999	0.0
C 	88.542437282921	51.11999999999998	0.0
C 	89.7721933562949	51.829999999999984	0.0
C 	52.992834267507114	0.7776350664183334	2.15
C 	54.2580635318546	1.422301576048484	2.15
C 	54.332380589719584	2.8403555153999807	2.15
C 	55.597609854067066	3.485022025030138	2.15
C 	55.67192691193205	4.903075964381634	2.15
C 	56.93715617627952	5.547742474011792	2.15
C 	57.0114732341445	6.965796413363289	2.15
C 	58.27670249849199	7.610462922993439	2.15
C 	58.35101955635697	9.028516862344937	2.15
C 	59.61624882070445	9.673183371975094	2.15
C 	59.69056587856943	11.09123731132659	2.15
C 	60.95579514291691	11.735903820956747	2.15
C 	61.03011220078189	13.153957760308243	2.15
C 	62.295341465129376	13.798624269938395	2.15
C 	62.36965852299435	15.216678209289892	2.15
C 	63.63488778734184	15.86134471892005	2.15
C 	63.70920484520682	17.279398658271546	2.15
C 	64.9744341095543	17.924065167901702	2.15
C 	65.04875116741928	19.3421191072532	2.15
C 	66.31398043176675	19.98678561688335	2.15
C 	66.38829748963173	21.404839556234847	2.15
C 	50.53669279667712	0.9063559865095152	2.15
C 	51.80192206102461	1.5510224961396728	2.15
C 	51.87623911888959	2.9690764354911696	2.15
C 	53.141468383237076	3.6137429451213197	2.15
C 	53.21578544110206	5.031796884472817	2.15
C 	54.481014705449546	5.676463394102973	2.15
C 	54.55533176331453	7.09451733345447	2.15
C 	55.82056102766201	7.739183843084628	2.15
C 	55.89487808552699	9.157237782436125	2.15
C 	57.160107349874465	9.801904292066276	2.15
C 	57.234424407739446	11.219958231417772	2.15
C 	58.49965367208693	11.86462474104793	2.15
C 	58.57397072995191	13.282678680399426	2.15
C 	59.8391999942994	13.927345190029582	2.15
C 	59.91351705216437	15.34539912938108	2.15
C 	61.17874631651185	15.990065639011231	2.15
C 	61.25306337437683	17.408119578362726	2.15
C 	62.51829263872431	18.052786087992885	2.15
C 	62.59260969658929	19.47084002734438	2.15
C 	63.85783896093678	20.11550653697454	2.15
C 	63.932156018801756	21.533560476326034	2.15
C 	65.19738528314925	22.178226985956186	2.15
C 	65.27170234101422	23.59628092530768	2.15
C 	66.5369316053617	24.240947434937834	2.15
C 	66.61124866322668	25.65900137428933	2.15
C 	67.87647792757416	26.303667883919495	2.15
C 	67.95079498543915	27.72172182327099	2.15
C 	69.21602424978661	28.366388332901142	2.15
C 	69.2903413076516	29.784442272252637	2.15
C 	70.5555705719991	30.42910878188279	2.15
C 	70.62988762986407	31.847162721234284	2.15
C 	71.89511689421155	32.49182923086445	2.15
C 	71.96943395207653	33.90988317021595	2.15
C 	73.23466321642401	34.5545496798461	2.15
C 	73.30898027428898	35.97260361919759	2.15
C 	74.57420953863648	36.61727012882774	2.15
C 	74.64852659650145	38.03532406817924	2.15
C 	48.080551325847146	1.0350769066006895	2.15
C 	49.34578059019463	1.6797434162308473	2.15
C 	49.42009764805961	3.097797355582344	2.15
C 	50.685326912407085	3.7424638652125015	2.15
C 	50.759643970272066	5.160517804563998	2.15
C 	52.02487323461955	5.805184314194149	2.15
C 	52.09919029248453	7.223238253545645	2.15
C 	53.36441955683202	7.867904763175803	2.15
C 	53.43873661469699	9.2859587025273	2.15
C 	54.70396587904449	9.930625212157457	2.15
C 	54.77828293690947	11.348679151508954	2.15
C 	56.043512201256945	11.993345661139104	2.15
C 	56.117829259121926	13.4113996004906	2.15
C 	57.38305852346941	14.056066110120758	2.15
C 	57.45737558133438	15.474120049472255	2.15
C 	58.72260484568187	16.11878655910241	2.15
C 	58.79692190354685	17.53684049845391	2.15
C 	60.06215116789433	18.181507008084058	2.15
C 	60.13646822575931	19.599560947435556	2.15
C 	61.40169749010679	20.244227457065712	2.15
C 	61.47601454797177	21.66228139641721	2.15
C 	62.741243812319254	22.306947906047366	2.15
C 	62.815560870184235	23.725001845398864	2.15
C 	64.08079013453172	24.369668355029013	2.15
C 	64.1551071923967	25.78772229438051	2.15
C 	65.42033645674418	26.43238880401066	2.15
C 	65.49465351460917	27.85044274336216	2.15
C 	66.75988277895662	28.495109252992325	2.15
C 	66.83419983682161	29.91316319234382	2.15
C 	68.09942910116912	30.55782970197397	2.15
C 	68.1737461590341	31.975883641325467	2.15
C 	69.43897542338156	32.620550150955616	2.15
C 	69.51329248124654	34.03860409030711	2.15
C 	70.77852174559403	34.68327059993728	2.15
C 	70.85283880345901	36.101324539288775	2.15
C 	72.11806806780649	36.745991048918924	2.15
C 	72.19238512567146	38.16404498827042	2.15
C 	73.45761439001895	38.808711497900575	2.15
C 	73.53193144788393	40.22676543725207	2.15
C 	44.2848635328047	-0.8989226222897754	2.15
C 	45.550092797152175	-0.25425611265961773	2.15
C 	45.624409855017156	1.163797826691879	2.15
C 	46.889639119364645	1.8084643363220292	2.15
C 	46.963956177229626	3.226518275673526	2.15
C 	48.22918544157711	3.871184785303683	2.15
C 	48.30350249944209	5.2892387246551795	2.15
C 	49.568731763789565	5.933905234285337	2.15
C 	49.643048821654546	7.351959173636834	2.15
C 	50.90827808600203	7.996625683266984	2.15
C 	50.982595143867	9.41467962261848	2.15
C 	52.24782440821449	10.059346132248638	2.15
C 	52.32214146607947	11.477400071600135	2.15
C 	53.587370730426954	12.122066581230293	2.15
C 	53.661687788291935	13.54012052058179	2.15
C 	54.92691705263943	14.18478703021194	2.15
C 	55.001234110504406	15.602840969563436	2.15
C 	56.26646337485188	16.247507479193594	2.15
C 	56.34078043271686	17.665561418545092	2.15
C 	57.606009697064344	18.310227928175248	2.15
C 	57.680326754929325	19.728281867526746	2.15
C 	58.94555601927681	20.372948377156895	2.15
C 	59.01987307714179	21.791002316508393	2.15
C 	60.28510234148928	22.43566882613855	2.15
C 	60.35941939935426	23.853722765490044	2.15
C 	61.62464866370173	24.498389275120203	2.15
C 	61.69896572156671	25.916443214471702	2.15
C 	62.96419498591419	26.56110972410185	2.15
C 	63.03851204377917	27.97916366345335	2.15
C 	64.30374130812666	28.623830173083498	2.15
C 	64.37805836599163	30.041884112434996	2.15
C 	65.64328763033913	30.68655062206516	2.15
C 	65.7176046882041	32.10460456141666	2.15
C 	66.98283395255159	32.749271071046806	2.15
C 	67.05715101041656	34.1673250103983	2.15
C 	68.32238027476404	34.81199152002846	2.15
C 	68.39669733262902	36.23004545937995	2.15
C 	69.6619265969765	36.874711969010114	2.15
C 	69.73624365484147	38.29276590836161	2.15
C 	71.00147291918897	38.93743241799176	2.15
C 	71.07578997705396	40.35548635734326	2.15
C 	72.34101924140143	41.00015286697341	2.15
C 	72.41533629926641	42.4182068063249	2.15
C 	41.828722061974716	-0.7702017021985935	2.15
C 	43.0939513263222	-0.12553519256844342	2.15
C 	43.16826838418718	1.2925187467830532	2.15
C 	44.43349764853466	1.937185256413211	2.15
C 	44.50781470639964	3.3552391957647076	2.15
C 	45.77304397074712	3.999905705394858	2.15
C 	45.8473610286121	5.417959644746355	2.15
C 	47.11259029295958	6.062626154376512	2.15
C 	47.18690735082456	7.480680093728009	2.15
C 	48.45213661517205	8.125346603358166	2.15
C 	48.526453673037025	9.543400542709662	2.15
C 	49.79168293738451	10.188067052339813	2.15
C 	49.86599999524949	11.60612099169131	2.15
C 	51.13122925959697	12.250787501321467	2.15
C 	51.20554631746195	13.668841440672963	2.15
C 	52.470775581809434	14.313507950303123	2.15
C 	52.54509263967441	15.73156188965462	2.15
C 	53.8103219040219	16.37622839928477	2.15
C 	53.88463896188688	17.794282338636265	2.15
C 	55.14986822623436	18.438948848266424	2.15
C 	55.22418528409934	19.85700278761792	2.15
C 	56.489414548446824	20.50166929724808	2.15
C 	56.563731606311805	21.919723236599573	2.15
C 	57.82896087065929	22.564389746229725	2.15
C 	57.90327792852427	23.98244368558122	2.15
C 	59.16850719287175	24.62711019521138	2.15
C 	59.24282425073673	26.045164134562874	2.15
C 	60.50805351508421	26.689830644193034	2.15
C 	60.58237057294919	28.10788458354453	2.15
C 	61.84759983729668	28.75255109317468	2.15
C 	61.92191689516166	30.170605032526176	2.15
C 	63.18714615950914	30.815271542156328	2.15
C 	63.26146321737412	32.233325481507826	2.15
C 	64.5266924817216	32.87799199113799	2.15
C 	64.60100953958658	34.296045930489484	2.15
C 	65.86623880393407	34.94071244011963	2.15
C 	65.94055586179904	36.358766379471135	2.15
C 	67.20578512614651	37.00343288910128	2.15
C 	67.28010218401148	38.42148682845278	2.15
C 	68.545331448359	39.06615333808294	2.15
C 	68.61964850622398	40.484207277434436	2.15
C 	69.88487777057144	41.12887378706459	2.15
C 	69.95919482843642	42.54692772641609	2.15
C 	71.2244240927839	43.191594236046235	2.15
C 	71.2987411506489	44.60964817539774	2.15
C 	39.37258059114473	-0.6414807821074121	2.15
C 	40.63780985549221	0.003185727522745537	2.15
C 	40.71212691335719	1.4212396668742422	2.15
C 	41.97735617770468	2.065906176504393	2.15
C 	42.05167323556966	3.4839601158558895	2.15
C 	43.31690249991714	4.128626625486047	2.15
C 	43.39121955778212	5.546680564837543	2.15
C 	44.6564488221296	6.191347074467694	2.15
C 	44.73076587999458	7.60940101381919	2.15
C 	45.99599514434206	8.254067523449349	2.15
C 	46.070312202207035	9.672121462800845	2.15
C 	47.335541466554524	10.316787972431003	2.15
C 	47.409858524419505	11.7348419117825	2.15
C 	48.67508778876699	12.379508421412648	2.15
C 	48.74940484663197	13.797562360764145	2.15
C 	50.01463411097946	14.442228870394302	2.15
C 	50.08895116884443	15.860282809745799	2.15
C 	51.354180433191914	16.504949319375957	2.15
C 	51.428497491056895	17.923003258727455	2.15
C 	52.69372675540437	18.567669768357604	2.15
C 	52.76804381326935	19.985723707709102	2.15
C 	54.03327307761683	20.630390217339258	2.15
C 	54.107590135481814	22.048444156690756	2.15
C 	55.37281939982931	22.693110666320912	2.15
C 	55.44713645769429	24.11116460567241	2.15
C 	56.71236572204176	24.75583111530256	2.15
C 	56.78668277990674	26.173885054654058	2.15
C 	58.05191204425422	26.818551564284213	2.15
C 	58.126229102119204	28.23660550363571	2.15
C 	59.39145836646669	28.881272013265868	2.15
C 	59.465775424331675	30.299325952617366	2.15
C 	60.73100468867916	30.943992462247515	2.15
C 	60.80532174654414	32.36204640159901	2.15
C 	62.07055101089162	33.006712911229165	2.15
C 	62.1448680687566	34.42476685058066	2.15
C 	63.410097333104076	35.06943336021082	2.15
C 	63.48441439096906	36.48748729956232	2.15
C 	64.74964365531653	37.132153809192474	2.15
C 	64.82396071318152	38.55020774854397	2.15
C 	66.089189977529	39.19487425817412	2.15
C 	66.16350703539399	40.61292819752561	2.15
C 	67.42873629974146	41.25759470715578	2.15
C 	67.50305335760645	42.67564864650728	2.15
C 	68.76828262195392	43.320315156137426	2.15
C 	68.8425996798189	44.73836909548892	2.15
C 	70.10782894416639	45.383035605119076	2.15
C 	36.91643912031475	-0.5127598620162336	2.15
C 	38.18166838466223	0.13190664761392362	2.15
C 	38.25598544252721	1.5499605869654167	2.15
C 	39.521214706874694	2.194627096595578	2.15
C 	39.595531764739675	3.612681035947071	2.15
C 	40.86076102908715	4.257347545577225	2.15
C 	40.93507808695213	5.675401484928718	2.15
C 	42.200307351299614	6.32006799455888	2.15
C 	42.274624409164595	7.738121933910373	2.15
C 	43.539853673512084	8.382788443540527	2.15
C 	43.61417073137706	9.80084238289202	2.15
C 	44.87939999572454	10.44550889252218	2.15
C 	44.95371705358952	11.863562831873674	2.15
C 	46.218946317937	12.508229341503835	2.15
C 	46.29326337580198	13.926283280855328	2.15
C 	47.55849264014946	14.570949790485482	2.15
C 	47.63280969801444	15.989003729836975	2.15
C 	48.89803896236193	16.633670239467136	2.15
C 	48.97235602022691	18.051724178818628	2.15
C 	50.23758528457439	18.69639068844879	2.15
C 	50.311902342439375	20.11444462780028	2.15
C 	51.57713160678685	20.759111137430438	2.15
C 	51.65144866465183	22.17716507678193	2.15
C 	52.91667792899931	22.82183158641209	2.15
C 	52.990994986864294	24.239885525763583	2.15
C 	54.256224251211776	24.884552035393746	2.15
C 	54.33054130907676	26.302605974745237	2.15
C 	55.59577057342424	26.947272484375393	2.15
C 	55.67008763128922	28.365326423726884	2.15
C 	56.93531689563671	29.009992933357047	2.15
C 	57.00963395350169	30.42804687270854	2.15
C 	58.274863217849166	31.072713382338698	2.15
C 	58.34918027571415	32.49076732169019	2.15
C 	59.61440954006163	33.13543383132034	2.15
C 	59.68872659792661	34.55348777067184	2.15
C 	60.9539558622741	35.19815428030199	2.15
C 	61.028272920139074	36.61620821965349	2.15
C 	62.293502184486556	37.26087472928365	2.15
C 	62.36781924235154	38.67892866863515	2.15
C 	63.63304850669902	39.3235951782653	2.15
C 	63.707365564564	40.741649117616795	2.15
C 	64.97259482891148	41.386315627246944	2.15
C 	65.04691188677646	42.804369566598446	2.15
C 	66.31214115112394	43.44903607622861	2.15
C 	66.38645820898893	44.867090015580104	2.15
C 	67.6516874733364	45.51175652521025	2.15
C 	34.460297649484765	-0.3840389419250484	2.15
C 	35.72552691383224	0.2606275677051057	2.15
C 	35.79984397169722	1.6786815070566024	2.15
C 	37.06507323604471	2.323348016686756	2.15
C 	37.13939029390969	3.741401956038253	2.15
C 	38.404619558257174	4.38606846566841	2.15
C 	38.478936616122155	5.804122405019907	2.15
C 	39.74416588046963	6.448788914650057	2.15
C 	39.81848293833461	7.866842854001554	2.15
C 	41.083712202682094	8.511509363631712	2.15
C 	41.15802926054707	9.929563302983208	2.15
C 	42.42325852489456	10.574229812613359	2.15
C 	42.49757558275954	11.992283751964855	2.15
C 	43.76280484710702	12.636950261595013	2.15
C 	43.837121904972	14.05500420094651	2.15
C 	45.10235116931948	14.699670710576667	2.15
C 	45.17666822718446	16.117724649928164	2.15
C 	46.44189749153194	16.762391159558316	2.15
C 	46.51621454939692	18.18044509890981	2.15
C 	47.7814438137444	18.825111608539967	2.15
C 	47.855760871609384	20.243165547891465	2.15
C 	49.120990135956866	20.88783205752162	2.15
C 	49.19530719382185	22.30588599687312	2.15
C 	50.46053645816934	22.950552506503268	2.15
C 	50.53485351603432	24.368606445854766	2.15
C 	51.800082780381786	25.013272955484922	2.15
C 	51.87439983824677	26.43132689483642	2.15
C 	53.13962910259425	27.07599340446658	2.15
C 	53.21394616045923	28.494047343818075	2.15
C 	54.47917542480672	29.138713853448223	2.15
C 	54.5534924826717	30.55676779279972	2.15
C 	55.81872174701919	31.201434302429877	2.15
C 	55.89303880488417	32.619488241781376	2.15
C 	57.15826806923164	33.26415475141153	2.15
C 	57.23258512709662	34.682208690763034	2.15
C 	58.49781439144411	35.32687520039318	2.15
C 	58.57213144930909	36.74492913974468	2.15
C 	59.83736071365657	37.389595649374826	2.15
C 	59.91167777152155	38.80764958872632	2.15
C 	61.176907035869036	39.45231609835649	2.15
C 	61.25122409373402	40.870370037707985	2.15
C 	62.516453358081506	41.515036547338134	2.15
C 	62.59077041594648	42.93309048668963	2.15
C 	63.855999680293955	43.577756996319785	2.15
C 	63.930316738158936	44.99581093567128	2.15
C 	65.19554600250642	45.64047744530144	2.15
C 	32.00415617865478	-0.25531802183386654	2.15
C 	33.269385443002264	0.38934848779629067	2.15
C 	33.343702500867245	1.8074024271477873	2.15
C 	34.60893176521473	2.4520689367779416	2.15
C 	34.68324882307971	3.870122876129438	2.15
C 	35.94847808742718	4.514789385759593	2.15
C 	36.022795145292164	5.932843325111089	2.15
C 	37.28802440963965	6.577509834741246	2.15
C 	37.36234146750463	7.995563774092743	2.15
C 	38.62757073185212	8.640230283722893	2.15
C 	38.70188778971709	10.05828422307439	2.15
C 	39.96711705406457	10.702950732704547	2.15
C 	40.041434111929554	12.121004672056044	2.15
C 	41.30666337627703	12.765671181686194	2.15
C 	41.38098043414201	14.183725121037691	2.15
C 	42.6462096984895	14.828391630667848	2.15
C 	42.720526756354474	16.246445570019347	2.15
C 	43.98575602070196	16.891112079649503	2.15
C 	44.060073078566944	18.309166019001	2.15
C 	45.32530234291442	18.95383252863115	2.15
C 	45.3996194007794	20.371886467982648	2.15
C 	46.66484866512688	21.016552977612804	2.15
C 	46.739165722991864	22.434606916964302	2.15
C 	48.004394987339346	23.079273426594458	2.15
C 	48.07871204520433	24.497327365945957	2.15
C 	49.34394130955181	25.141993875576105	2.15
C 	49.41825836741679	26.560047814927604	2.15
C 	50.683487631764265	27.20471432455776	2.15
C 	50.757804689629246	28.622768263909258	2.15
C 	52.023033953976736	29.267434773539414	2.15
C 	52.09735101184172	30.68548871289091	2.15
C 	53.36258027618919	31.33015522252106	2.15
C 	53.43689733405417	32.74820916187256	2.15
C 	54.702126598401655	33.392875671502715	2.15
C 	54.776443656266636	34.81092961085421	2.15
C 	56.041672920614126	35.45559612048437	2.15
C 	56.11598997847911	36.87365005983587	2.15
C 	57.38121924282659	37.518316569466016	2.15
C 	57.45553630069157	38.93637050881751	2.15
C 	58.72076556503905	39.58103701844766	2.15
C 	58.79508262290403	40.99909095779916	2.15
C 	60.060311887251515	41.643757467429324	2.15
C 	60.134628945116496	43.06181140678082	2.15
C 	61.39985820946398	43.70647791641097	2.15
C 	61.47417526732896	45.12453185576247	2.15
C 	62.739404531676435	45.76919836539262	2.15
C 	29.548014707824798	-0.12659710174268846	2.15
C 	30.81324397217228	0.518069407887469	2.15
C 	30.887561030037258	1.936123347238962	2.15
C 	32.152790294384744	2.5807898568691234	2.15
C 	32.227107352249725	3.9988437962206165	2.15
C 	33.49233661659721	4.643510305850774	2.15
C 	33.56665367446219	6.061564245202267	2.15
C 	34.83188293880966	6.706230754832425	2.15
C 	34.906199996674644	8.124284694183917	2.15
C 	36.171429261022126	8.768951203814078	2.15
C 	36.2457463188871	10.187005143165573	2.15
C 	37.51097558323459	10.831671652795725	2.15
C 	37.58529264109957	12.24972559214722	2.15
C 	38.85052190544705	12.89439210177738	2.15
C 	38.924838963312034	14.312446041128872	2.15
C 	40.19006822765951	14.957112550759026	2.15
C 	40.26438528552449	16.37516649011052	2.15
C 	41.52961454987197	17.019832999740682	2.15
C 	41.60393160773695	18.437886939092174	2.15
C 	42.869160872084436	19.082553448722336	2.15
C 	42.94347792994942	20.500607388073828	2.15
C 	44.2087071942969	21.145273897703984	2.15
C 	44.28302425216188	22.563327837055475	2.15
C 	45.54825351650937	23.207994346685638	2.15
C 	45.62257057437435	24.62604828603713	2.15
C 	46.887799838721826	25.270714795667292	2.15
C 	46.96211689658681	26.688768735018783	2.15
C 	48.22734616093428	27.33343524464894	2.15
C 	48.30166321879926	28.75148918400043	2.15
C 	49.56689248314675	29.396155693630593	2.15
C 	49.64120954101173	30.814209632982084	2.15
C 	50.906438805359215	31.458876142612244	2.15
C 	50.980755863224196	32.87693008196374	2.15
C 	52.245985127571664	33.52159659159389	2.15
C 	52.320302185436645	34.939650530945386	2.15
C 	53.585531449784135	35.58431704057555	2.15
C 	53.659848507649116	37.00237097992704	2.15
C 	54.9250777719966	37.6470374895572	2.15
C 	54.99939482986158	39.065091428908694	2.15
C 	56.26462409420907	39.70975793853884	2.15
C 	56.33894115207405	41.127811877890345	2.15
C 	57.60417041642154	41.77247838752049	2.15
C 	57.67848747428651	43.19053232687199	2.15
C 	58.94371673863399	43.83519883650215	2.15
C 	59.01803379649897	45.25325277585365	2.15
C 	60.28326306084645	45.8979192854838	2.15
C 	27.09187323699481	0.002123818348497173	2.15
C 	28.357102501342293	0.6467903279786511	2.15
C 	28.43141955920727	2.0648442673301477	2.15
C 	29.696648823554757	2.7095107769603013	2.15
C 	29.770965881419738	4.127564716311798	2.15
C 	31.036195145767216	4.7722312259419555	2.15
C 	31.110512203632197	6.190285165293452	2.15
C 	32.37574146797968	6.834951674923606	2.15
C 	32.45005852584466	8.253005614275104	2.15
C 	33.71528779019214	8.897672123905258	2.15
C 	33.78960484805712	10.315726063256754	2.15
C 	35.054834112404606	10.960392572886912	2.15
C 	35.12915117026959	12.378446512238408	2.15
C 	36.39438043461706	13.023113021868559	2.15
C 	36.46869749248204	14.441166961220055	2.15
C 	37.73392675682953	15.085833470850213	2.15
C 	37.80824381469451	16.50388741020171	2.15
C 	39.07347307904199	17.14855391983186	2.15
C 	39.14779013690697	18.566607859183357	2.15
C 	40.41301940125445	19.211274368813513	2.15
C 	40.48733645911943	20.62932830816501	2.15
C 	41.75256572346691	21.273994817795167	2.15
C 	41.82688278133189	22.692048757146665	2.15
C 	43.09211204567938	23.336715266776814	2.15
C 	43.16642910354436	24.754769206128312	2.15
C 	44.43165836789184	25.399435715758468	2.15
C 	44.50597542575682	26.817489655109966	2.15
C 	45.7712046901043	27.462156164740122	2.15
C 	45.84552174796928	28.88021010409162	2.15
C 	47.11075101231677	29.52487661372177	2.15
C 	47.18506807018175	30.942930553073268	2.15
C 	48.450297334529225	31.587597062703423	2.15
C 	48.524614392394206	33.00565100205492	2.15
C 	49.78984365674169	33.65031751168508	2.15
C 	49.86416071460667	35.068371451036576	2.15
C 	51.12938997895415	35.713037960666725	2.15
C 	51.20370703681913	37.13109190001822	2.15
C 	52.468936301166615	37.77575840964838	2.15
C 	52.543253359031596	39.19381234899988	2.15
C 	53.80848262337907	39.83847885863003	2.15
C 	53.88279968124405	41.25653279798153	2.15
C 	55.14802894559154	41.901199307611684	2.15
C 	55.222346003456515	43.31925324696318	2.15
C 	56.48757526780401	43.96391975659333	2.15
C 	56.56189232566899	45.38197369594482	2.15
C 	57.82712159001647	46.02664020557499	2.15
C 	24.635731766164824	0.1308447384396788	2.15
C 	25.900961030512306	0.7755112480698364	2.15
C 	25.975278088377284	2.193565187421333	2.15
C 	27.240507352724773	2.8382316970514867	2.15
C 	27.314824410589754	4.256285636402984	2.15
C 	28.580053674937233	4.900952146033138	2.15
C 	28.654370732802214	6.319006085384634	2.15
C 	29.9195999971497	6.963672595014791	2.15
C 	29.993917055014677	8.381726534366289	2.15
C 	31.259146319362156	9.026393043996443	2.15
C 	31.333463377227137	10.44444698334794	2.15
C 	32.59869264157462	11.089113492978093	2.15
C 	32.6730096994396	12.50716743232959	2.15
C 	33.93823896378708	13.151833941959747	2.15
C 	34.01255602165206	14.569887881311244	2.15
C 	35.27778528599955	15.214554390941395	2.15
C 	35.35210234386452	16.63260833029289	2.15
C 	36.617331608212005	17.27727483992305	2.15
C 	36.691648666076986	18.695328779274544	2.15
C 	37.95687793042447	19.339995288904696	2.15
C 	38.03119498828945	20.75804922825619	2.15
C 	39.296424252636925	21.40271573788635	2.15
C 	39.370741310501906	22.820769677237845	2.15
C 	40.635970574849395	23.465436186868004	2.15
C 	40.710287632714376	24.8834901262195	2.15
C 	41.97551689706185	25.52815663584965	2.15
C 	42.04983395492683	26.946210575201146	2.15
C 	43.315063219274315	27.590877084831305	2.15
C 	43.389380277139296	29.0089310241828	2.15
C 	44.654609541486785	29.65359753381296	2.15
C 	44.728926599351766	31.071651473164454	2.15
C 	45.99415586369924	31.716317982794607	2.15
C 	46.06847292156422	33.1343719221461	2.15
C 	47.3337021859117	33.77903843177626	2.15
C 	47.40801924377668	35.19709237112776	2.15
C 	48.67324850812417	35.841758880757915	2.15
C 	48.74756556598915	37.25981282010941	2.15
C 	50.012794830336624	37.90447932973956	2.15
C 	50.087111888201605	39.32253326909106	2.15
C 	51.35234115254909	39.967199778721216	2.15
C 	51.42665821041407	41.38525371807271	2.15
C 	52.69188747476155	42.02992022770287	2.15
C 	52.76620453262653	43.44797416705437	2.15
C 	54.031433796974014	44.09264067668452	2.15
C 	54.105750854838995	45.51069461603601	2.15
C 	55.37098011918648	46.15536112566616	2.15
C 	22.17959029533484	0.2595656585308571	2.15
C 	23.444819559682323	0.9042321681610146	2.15
C 	23.5191366175473	2.322286107512508	2.15
C 	24.784365881894782	2.9669526171426686	2.15
C 	24.858682939759763	4.385006556494162	2.15
C 	26.123912204107246	5.029673066124319	2.15
C 	26.198229261972227	6.447727005475812	2.15
C 	27.463458526319716	7.09239351510597	2.15
C 	27.537775584184693	8.510447454457463	2.15
C 	28.803004848532172	9.155113964087624	2.15
C 	28.877321906397153	10.573167903439117	2.15
C 	30.14255117074464	11.217834413069275	2.15
C 	30.21686822860962	12.635888352420768	2.15
C 	31.482097492957095	13.280554862050925	2.15
C 	31.556414550822076	14.698608801402418	2.15
C 	32.821643815169566	15.34327531103258	2.15
C 	32.89596087303454	16.761329250384073	2.15
C 	34.16119013738202	17.40599576001423	2.15
C 	34.235507195247	18.82404969936572	2.15
C 	35.500736459594485	19.46871620899588	2.15
C 	35.575053517459466	20.886770148347374	2.15
C 	36.84028278180694	21.53143665797753	2.15
C 	36.91459983967192	22.94949059732902	2.15
C 	38.17982910401941	23.594157106959184	2.15
C 	38.25414616188439	25.012211046310675	2.15
C 	39.51937542623187	25.656877555940838	2.15
C 	39.59369248409685	27.07493149529233	2.15
C 	40.85892174844433	27.71959800492248	2.15
C 	40.93323880630931	29.137651944273976	2.15
C 	42.1984680706568	29.782318453904136	2.15
C 	42.27278512852178	31.20037239325563	2.15
C 	43.53801439286926	31.84503890288579	2.15
C 	43.61233145073424	33.263092842237285	2.15
C 	44.87756071508172	33.90775935186743	2.15
C 	44.9518777729467	35.32581329121893	2.15
C 	46.217107037294184	35.9704798008491	2.15
C 	46.291424095159165	37.388533740200586	2.15
C 	47.55665335950665	38.03320024983074	2.15
C 	47.63097041737163	39.45125418918224	2.15
C 	48.896199681719104	40.09592069881239	2.15
C 	48.970516739584085	41.51397463816389	2.15
C 	50.235746003931574	42.15864114779405	2.15
C 	50.31006306179655	43.57669508714554	2.15
C 	51.57529232614403	44.2213615967757	2.15
C 	51.64960938400901	45.639415536127196	2.15
C 	52.91483864835649	46.284082045757344	2.15
C 	19.723448824504857	0.3882865786220405	2.15
C 	20.98867808885234	1.0329530882521964	2.15
C 	21.062995146717316	2.4510070276036915	2.15
C 	22.3282244110648	3.095673537233847	2.15
C 	22.40254146892978	4.513727476585342	2.15
C 	23.667770733277262	5.1583939862155015	2.15
C 	23.742087791142243	6.576447925566996	2.15
C 	25.00731705548973	7.221114435197151	2.15
C 	25.081634113354706	8.639168374548646	2.15
C 	26.346863377702185	9.283834884178802	2.15
C 	26.421180435567166	10.701888823530297	2.15
C 	27.686409699914655	11.346555333160456	2.15
C 	27.760726757779636	12.76460927251195	2.15
C 	29.02595602212711	13.409275782142107	2.15
C 	29.100273079992093	14.8273297214936	2.15
C 	30.36550234433958	15.471996231123757	2.15
C 	30.43981940220456	16.890050170475256	2.15
C 	31.705048666552038	17.53471668010541	2.15
C 	31.779365724417016	18.95277061945691	2.15
C 	33.0445949887645	19.59743712908706	2.15
C 	33.11891204662948	21.015491068438557	2.15
C 	34.38414131097696	21.660157578068713	2.15
C 	34.45845836884194	23.07821151742021	2.15
C 	35.72368763318943	23.72287802705036	2.15
C 	35.79800469105441	25.14093196640186	2.15
C 	37.063233955401884	25.785598476032014	2.15
C 	37.137551013266865	27.203652415383512	2.15
C 	38.40278027761435	27.84831892501367	2.15
C 	38.47709733547933	29.266372864365167	2.15
C 	39.74232659982681	29.911039373995315	2.15
C 	39.81664365769179	31.329093313346814	2.15
C 	41.081872922039274	31.97375982297697	2.15
C 	41.156189979904255	33.39181376232847	2.15
C 	42.42141924425174	34.036480271958624	2.15
C 	42.49573630211672	35.45453421131012	2.15
C 	43.7609655664642	36.099200720940274	2.15
C 	43.83528262432918	37.51725466029177	2.15
C 	45.10051188867666	38.161921169921925	2.15
C 	45.17482894654164	39.57997510927342	2.15
C 	46.44005821088912	40.22464161890358	2.15
C 	46.5143752687541	41.64269555825508	2.15
C 	47.77960453310158	42.287362067885226	2.15
C 	47.85392159096656	43.70541600723672	2.15
C 	49.11915085531405	44.350082516866884	2.15
C 	49.19346791317903	45.76813645621838	2.15
C 	50.4586971775265	46.412802965848535	2.15
C 	17.267307353674873	0.5170074987132224	2.15
C 	18.532536618022355	1.161674008343378	2.15
C 	18.606853675887333	2.579727947694873	2.15
C 	19.872082940234815	3.2243944573250287	2.15
C 	19.946399998099796	4.6424483966765235	2.15
C 	21.21162926244728	5.287114906306679	2.15
C 	21.28594632031226	6.705168845658174	2.15
C 	22.55117558465974	7.3498353552883335	2.15
C 	22.62549264252472	8.76788929463983	2.15
C 	23.8907219068722	9.412555804269983	2.15
C 	23.965038964737182	10.83060974362148	2.15
C 	25.23026822908467	11.475276253251634	2.15
C 	25.304585286949646	12.893330192603129	2.15
C 	26.569814551297124	13.53799670223329	2.15
C 	26.644131609162105	14.956050641584783	2.15
C 	27.909360873509595	15.600717151214939	2.15
C 	27.983677931374576	17.018771090566435	2.15
C 	29.248907195722055	17.66343760019659	2.15
C 	29.323224253587032	19.081491539548082	2.15
C 	30.588453517934518	19.726158049178245	2.15
C 	30.6627705757995	21.144211988529737	2.15
C 	31.927999840146978	21.788878498159892	2.15
C 	32.002316898011955	23.206932437511384	2.15
C 	33.267546162359444	23.851598947141547	2.15
C 	33.341863220224425	25.269652886493038	2.15
C 	34.6070924845719	25.914319396123194	2.15
C 	34.68140954243688	27.332373335474685	2.15
C 	35.946638806784364	27.977039845104848	2.15
C 	36.020955864649345	29.39509378445634	2.15
C 	37.28618512899683	30.039760294086502	2.15
C 	37.36050218686181	31.457814233437993	2.15
C 	38.62573145120929	32.10248074306815	2.15
C 	38.70004850907427	33.520534682419644	2.15
C 	39.965277773421754	34.1652011920498	2.15
C 	40.039594831286735	35.583255131401295	2.15
C 	41.30482409563422	36.22792164103146	2.15
C 	41.3791411534992	37.64597558038295	2.15
C 	42.64437041784668	38.29064209001311	2.15
C 	42.71868747571166	39.708696029364596	2.15
C 	43.983916740059136	40.35336253899475	2.15
C 	44.05823379792412	41.771416478346254	2.15
C 	45.32346306227161	42.41608298797642	2.15
C 	45.39778012013658	43.834136927327904	2.15
C 	46.66300938448406	44.47880343695806	2.15
C 	46.737326442349044	45.896857376309555	2.15
C 	48.002555706696526	46.54152388593971	2.15
C 	14.81116588284489	0.6457284188044041	2.15
C 	16.076395147192372	1.2903949284345617	2.15
C 	16.15071220505735	2.7084488677860565	2.15
C 	17.41594146940483	3.3531153774162124	2.15
C 	17.490258527269813	4.771169316767708	2.15
C 	18.755487791617295	5.4158358263978625	2.15
C 	18.829804849482276	6.833889765749358	2.15
C 	20.095034113829755	7.478556275379513	2.15
C 	20.169351171694736	8.896610214731009	2.15
C 	21.434580436042218	9.541276724361168	2.15
C 	21.5088974939072	10.959330663712663	2.15
C 	22.774126758254685	11.603997173342819	2.15
C 	22.848443816119666	13.022051112694314	2.15
C 	24.11367308046714	13.66671762232447	2.15
C 	24.187990138332122	15.084771561675964	2.15
C 	25.453219402679608	15.729438071306122	2.15
C 	25.52753646054459	17.14749201065762	2.15
C 	26.792765724892067	17.792158520287774	2.15
C 	26.867082782757045	19.21021245963927	2.15
C 	28.132312047104534	19.85487896926942	2.15
C 	28.206629104969515	21.27293290862092	2.15
C 	29.471858369316994	21.917599418251076	2.15
C 	29.546175427181975	23.335653357602574	2.15
C 	30.811404691529457	23.980319867232723	2.15
C 	30.88572174939444	25.39837380658422	2.15
C 	32.15095101374192	26.043040316214377	2.15
C 	32.2252680716069	27.461094255565875	2.15
C 	33.49049733595438	28.105760765196024	2.15
C 	33.56481439381936	29.523814704547522	2.15
C 	34.830043658166844	30.168481214177678	2.15
C 	34.904360716031825	31.586535153529177	2.15
C 	36.16958998037931	32.23120166315933	2.15
C 	36.24390703824429	33.64925560251083	2.15
C 	37.50913630259176	34.29392211214098	2.15
C 	37.583453360456744	35.71197605149248	2.15
C 	38.84868262480423	36.356642561122634	2.15
C 	38.922999682669214	37.77469650047413	2.15
C 	40.1882289470167	38.41936301010429	2.15
C 	40.26254600488168	39.837416949455786	2.15
C 	41.52777526922915	40.482083459085935	2.15
C 	41.602092327094134	41.90013739843743	2.15
C 	42.867321591441616	42.54480390806759	2.15
C 	42.94163864930659	43.96285784741909	2.15
C 	44.20686791365408	44.60752435704924	2.15
C 	44.28118497151906	46.02557829640074	2.15
C 	45.546414235866536	46.670244806030894	2.15
C 	12.355024412014902	0.774449338895586	2.15
C 	13.620253676362386	1.4191158485257434	2.15
C 	13.694570734227367	2.8371697878772384	2.15
C 	14.95979999857485	3.4818362975073955	2.15
C 	15.034117056439829	4.899890236858891	2.15
C 	16.29934632078731	5.544556746489047	2.15
C 	16.373663378652292	6.962610685840541	2.15
C 	17.638892642999775	7.607277195470697	2.15
C 	17.713209700864752	9.025331134822192	2.15
C 	18.978438965212234	9.669997644452348	2.15
C 	19.052756023077215	11.088051583803843	2.15
C 	20.317985287424698	11.732718093434002	2.15
C 	20.39230234528968	13.150772032785497	2.15
C 	21.657531609637157	13.795438542415653	2.15
C 	21.73184866750214	15.213492481767146	2.15
C 	22.99707793184962	15.858158991397303	2.15
C 	23.0713949897146	17.276212930748798	2.15
C 	24.336624254062084	17.920879440378958	2.15
C 	24.41094131192706	19.338933379730452	2.15
C 	25.676170576274544	19.983599889360608	2.15
C 	25.750487634139525	21.4016538287121	2.15
C 	27.015716898487007	22.04632033834226	2.15
C 	27.090033956351988	23.464374277693754	2.15
C 	28.355263220699474	24.109040787323913	2.15
C 	28.42958027856445	25.527094726675408	2.15
C 	29.694809542911933	26.17176123630556	2.15
C 	29.769126600776914	27.589815175657055	2.15
C 	31.034355865124397	28.234481685287214	2.15
C 	31.108672922989378	29.65253562463871	2.15
C 	32.37390218733686	30.29720213426886	2.15
C 	32.44821924520184	31.715256073620356	2.15
C 	33.71344850954932	32.359922583250516	2.15
C 	33.7877655674143	33.77797652260201	2.15
C 	35.05299483176178	34.422643032232166	2.15
C 	35.12731188962676	35.84069697158367	2.15
C 	36.39254115397425	36.48536348121382	2.15
C 	36.46685821183923	37.90341742056531	2.15
C 	37.73208747618671	38.54808393019547	2.15
C 	37.806404534051694	39.96613786954697	2.15
C 	39.07163379839917	40.610804379177125	2.15
C 	39.14595085626415	42.02885831852862	2.15
C 	40.41118012061164	42.67352482815877	2.15
C 	40.485497178476614	44.09157876751027	2.15
C 	41.750726442824096	44.736245277140426	2.15
C 	41.82504350068908	46.15429921649192	2.15
C 	43.09027276503656	46.79896572612208	2.15
C 	9.898882941184919	0.9031702589867677	2.15
C 	11.1641122055324	1.5478367686169234	2.15
C 	11.23842926339738	2.9658907079684185	2.15
C 	12.503658527744864	3.6105572175985756	2.15
C 	12.577975585609844	5.02861115695007	2.15
C 	13.843204849957328	5.673277666580228	2.15
C 	13.917521907822307	7.091331605931723	2.15
C 	15.18275117216979	7.735998115561879	2.15
C 	15.25706823003477	9.154052054913373	2.15
C 	16.52229749438225	9.79871856454353	2.15
C 	16.59661455224723	11.216772503895024	2.15
C 	17.861843816594714	11.86143901352518	2.15
C 	17.93616087445969	13.279492952876675	2.15
C 	19.201390138807174	13.924159462506834	2.15
C 	19.275707196672155	15.342213401858327	2.15
C 	20.540936461019637	15.986879911488485	2.15
C 	20.615253518884618	17.40493385083998	2.15
C 	21.8804827832321	18.049600360470137	2.15
C 	21.954799841097078	19.46765429982163	2.15
C 	23.22002910544456	20.11232080945179	2.15
C 	23.29434616330954	21.530374748803283	2.15
C 	24.559575427657023	22.175041258433442	2.15
C 	24.633892485522004	23.593095197784937	2.15
C 	25.899121749869487	24.237761707415093	2.15
C 	25.973438807734464	25.655815646766584	2.15
C 	27.238668072081946	26.300482156396747	2.15
C 	27.312985129946927	27.718536095748238	2.15
C 	28.578214394294413	28.363202605378394	2.15
C 	28.65253145215939	29.781256544729885	2.15
C 	29.917760716506873	30.425923054360048	2.15
C 	29.992077774371854	31.84397699371154	2.15
C 	31.257307038719336	32.4886435033417	2.15
C 	31.331624096584317	33.906697442693186	2.15
C 	32.596853360931796	34.55136395232334	2.15
C 	32.67117041879678	35.969417891674844	2.15
C 	33.93639968314426	36.61408440130501	2.15
C 	34.01071674100924	38.032138340656495	2.15
C 	35.27594600535672	38.67680485028665	2.15
C 	35.3502630632217	40.094858789638145	2.15
C 	36.615492327569186	40.7395252992683	2.15
C 	36.68980938543417	42.157579238619796	2.15
C 	37.955038649781656	42.80224574824996	2.15
C 	38.02935570764663	44.22029968760145	2.15
C 	39.29458497199411	44.86496619723161	2.15
C 	7.442741470354934	1.0318911790779495	2.15
C 	8.707970734702416	1.6765576887081062	2.15
C 	8.782287792567397	3.094611628059601	2.15
C 	10.047517056914877	3.7392781376897566	2.15
C 	10.121834114779858	5.157332077041252	2.15
C 	11.387063379127342	5.801998586671409	2.15
C 	11.461380436992322	7.220052526022904	2.15
C 	12.726609701339804	7.864719035653061	2.15
C 	12.800926759204785	9.282772975004557	2.15
C 	14.066156023552267	9.92743948463471	2.15
C 	14.140473081417248	11.345493423986207	2.15
C 	15.405702345764729	11.990159933616361	2.15
C 	15.48001940362971	13.408213872967858	2.15
C 	16.74524866797719	14.052880382598012	2.15
C 	16.81956572584217	15.470934321949509	2.15
C 	18.084794990189653	16.115600831579666	2.15
C 	18.159112048054634	17.533654770931165	2.15
C 	19.424341312402117	18.178321280561317	2.15
C 	19.498658370267094	19.596375219912815	2.15
C 	20.763887634614576	20.241041729542967	2.15
C 	20.838204692479557	21.659095668894466	2.15
C 	22.10343395682704	22.30376217852462	2.15
C 	22.17775101469202	23.72181611787612	2.15
C 	23.442980279039503	24.366482627506272	2.15
C 	23.51729733690448	25.78453656685777	2.15
C 	24.782526601251963	26.429203076487923	2.15
C 	24.856843659116944	27.84725701583942	2.15
C 	26.122072923464426	28.491923525469577	2.15
C 	26.196389981329407	29.909977464821075	2.15
C 	27.461619245676886	30.554643974451224	2.15
C 	27.535936303541867	31.972697913802723	2.15
C 	28.801165567889353	32.61736442343288	2.15
C 	28.875482625754334	34.03541836278438	2.15
C 	30.140711890101816	34.680084872414525	2.15
C 	30.215028947966793	36.09813881176602	2.15
C 	31.480258212314276	36.74280532139618	2.15
C 	31.554575270179257	38.16085926074768	2.15
C 	32.81980453452674	38.805525770377834	2.15
C 	32.89412159239172	40.22357970972933	2.15
C 	34.1593508567392	40.868246219359484	2.15
C 	34.23366791460418	42.28630015871098	2.15
C 	35.49889717895167	42.930966668341135	2.15
C 	35.573214236816646	44.34902060769263	2.15
C 	36.83844350116413	44.99368711732279	2.15
C 	3.647053677312487	-0.9021083498125202	2.15
C 	4.912282941659969	-0.2574418401823636	2.15
C 	4.986599999524949	1.1606120991691313	2.15
C 	6.251829263872432	1.8052786087992878	2.15
C 	6.326146321737412	3.2233325481507826	2.15
C 	7.591375586084895	3.8679990577809393	2.15
C 	7.665692643949875	5.286052997132434	2.15
C 	8.930921908297357	5.93071950676259	2.15
C 	9.005238966162336	7.348773446114085	2.15
C 	10.270468230509818	7.993439955744242	2.15
C 	10.3447852883748	9.411493895095738	2.15
C 	11.61001455272228	10.056160404725896	2.15
C 	11.684331610587261	11.47421434407739	2.15
C 	12.949560874934743	12.118880853707546	2.15
C 	13.023877932799723	13.536934793059041	2.15
C 	14.289107197147207	14.181601302689197	2.15
C 	14.363424255012186	15.599655242040692	2.15
C 	15.628653519359668	16.24432175167085	2.15
C 	15.702970577224647	17.66237569102234	2.15
C 	16.96819984157213	18.307042200652504	2.15
C 	17.04251689943711	19.725096140003995	2.15
C 	18.307746163784593	20.36976264963415	2.15
C 	18.382063221649574	21.787816588985645	2.15
C 	19.647292485997056	22.432483098615805	2.15
C 	19.721609543862037	23.850537037967296	2.15
C 	20.98683880820952	24.49520354759746	2.15
C 	21.061155866074497	25.91325748694895	2.15
C 	22.32638513042198	26.557923996579106	2.15
C 	22.40070218828696	27.9759779359306	2.15
C 	23.665931452634442	28.62064444556076	2.15
C 	23.740248510499423	30.03869838491225	2.15
C 	25.005477774846902	30.683364894542414	2.15
C 	25.079794832711883	32.10141883389391	2.15
C 	26.345024097059365	32.74608534352406	2.15
C 	26.419341154924346	34.16413928287556	2.15
C 	27.68457041927183	34.808805792505716	2.15
C 	27.758887477136806	36.2268597318572	2.15
C 	29.024116741484292	36.87152624148736	2.15
C 	29.098433799349273	38.289580180838854	2.15
C 	30.363663063696755	38.93424669046902	2.15
C 	30.437980121561736	40.35230062982051	2.15
C 	31.70320938590922	40.99696713945067	2.15
C 	31.777526443774196	42.41502107880216	2.15
C 	33.04275570812168	43.05968758843232	2.15
C 	33.117072765986656	44.477741527783806	2.15
C 	34.382302030334145	45.12240803741397	2.15
C 	2.4561414708299845	-0.1287209200911818	2.15
C 	2.5304585286949646	1.2893330192603132	2.15
C 	3.7956877930424473	1.9339995288904697	2.15
C 	3.8700048509074274	3.3520534682419645	2.15
C 	5.135234115254909	3.996719977872121	2.15
C 	5.209551173119889	5.4147739172236165	2.15
C 	6.474780437467372	6.059440426853773	2.15
C 	6.549097495332352	7.477494366205268	2.15
C 	7.814326759679834	8.122160875835425	2.15
C 	7.888643817544814	9.540214815186918	2.15
C 	9.153873081892296	10.184881324817075	2.15
C 	9.228190139757277	11.602935264168572	2.15
C 	10.49341940410476	12.24760177379873	2.15
C 	10.567736461969739	13.665655713150223	2.15
C 	11.832965726317221	14.31032222278038	2.15
C 	11.9072827841822	15.728376162131873	2.15
C 	13.172512048529683	16.37304267176203	2.15
C 	13.246829106394662	17.791096611113524	2.15
C 	14.512058370742146	18.43576312074368	2.15
C 	14.586375428607127	19.853817060095174	2.15
C 	15.85160469295461	20.498483569725334	2.15
C 	15.925921750819588	21.91653750907683	2.15
C 	17.191151015167073	22.561204018706984	2.15
C 	17.265468073032054	23.97925795805848	2.15
C 	18.530697337379536	24.623924467688635	2.15
C 	18.605014395244513	26.04197840704013	2.15
C 	19.870243659591996	26.68664491667029	2.15
C 	19.944560717456977	28.104698856021784	2.15
C 	21.20978998180446	28.74936536565194	2.15
C 	21.28410703966944	30.167419305003435	2.15
C 	22.54933630401692	30.81208581463359	2.15
C 	22.6236533618819	32.230139753985085	2.15
C 	23.888882626229382	32.87480626361524	2.15
C 	23.963199684094363	34.292860202966736	2.15
C 	25.228428948441845	34.93752671259689	2.15
C 	25.302746006306823	36.35558065194839	2.15
C 	26.567975270654305	37.00024716157854	2.15
C 	26.642292328519286	38.41830110093004	2.15
C 	27.907521592866768	39.06296761056019	2.15
C 	27.98183865073175	40.48102154991169	2.15
C 	29.24706791507923	41.125688059541844	2.15
C 	29.321384972944212	42.54374199889334	2.15
C 	30.586614237291695	43.1884085085235	2.15
C 	30.660931295156676	44.606462447874996	2.15
C 	31.926160559504158	45.251128957505145	2.15
C 	4.018638966637388	6.188161346944955	2.15
C 	4.092956024502368	7.606215286296449	2.15
C 	5.35818528884985	8.250881795926606	2.15
C 	5.43250234671483	9.668935735278101	2.15
C 	6.697731611062311	10.313602244908257	2.15
C 	6.772048668927292	11.731656184259752	2.15
C 	8.037277933274776	12.37632269388991	2.15
C 	8.111594991139755	13.794376633241404	2.15
C 	9.376824255487238	14.439043142871562	2.15
C 	9.451141313352217	15.857097082223055	2.15
C 	10.7163705776997	16.501763591853212	2.15
C 	10.79068763556468	17.919817531204707	2.15
C 	12.05591689991216	18.564484040834863	2.15
C 	12.130233957777142	19.982537980186354	2.15
C 	13.395463222124622	20.627204489816513	2.15
C 	13.469780279989603	22.04525842916801	2.15
C 	14.735009544337087	22.689924938798168	2.15
C 	14.809326602202066	24.107978878149662	2.15
C 	16.074555866549552	24.75264538777982	2.15
C 	16.14887292441453	26.17069932713131	2.15
C 	17.414102188762012	26.81536583676147	2.15
C 	17.488419246626993	28.233419776112964	2.15
C 	18.753648510974475	28.878086285743123	2.15
C 	18.827965568839456	30.296140225094618	2.15
C 	20.093194833186935	30.940806734724774	2.15
C 	20.167511891051916	32.35886067407627	2.15
C 	21.4327411553994	33.003527183706424	2.15
C 	21.50705821326438	34.42158112305792	2.15
C 	22.77228747761186	35.066247632688075	2.15
C 	22.84660453547684	36.48430157203958	2.15
C 	24.11183379982432	37.128968081669726	2.15
C 	24.186150857689302	38.54702202102122	2.15
C 	25.451380122036785	39.191688530651376	2.15
C 	25.525697179901766	40.60974247000288	2.15
C 	26.790926444249244	41.25440897963303	2.15
C 	26.865243502114225	42.67246291898452	2.15
C 	28.130472766461708	43.31712942861468	2.15
C 	28.20478982432669	44.73518336796618	2.15
C 	29.470019088674174	45.379849877596335	2.15
C 	24.334784973419264	41.38312989972422	2.15
C 	24.40910203128424	42.801183839075705	2.15
C 	25.674331295631724	43.44585034870586	2.15
C 	25.748648353496705	44.863904288057356	2.15
C 	27.013877617844187	45.50857079768752	2.15
H 	52.9357880752023	-0.31087112646415194	2.15
H 	55.172214450915114	0.8286450278821028	2.15
H 	56.51176077312758	2.8913654768637604	2.15
H 	57.85130709534003	4.954085925845409	2.15
H 	59.1908534175525	7.016806374827056	2.15
H 	60.53039973976496	9.079526823808717	2.15
H 	61.86994606197742	11.142247272790364	2.15
H 	63.209492384189886	13.204967721772016	2.15
H 	64.54903870640236	15.26768817075367	2.15
H 	65.8885850286148	17.33040861973532	2.15
H 	67.22813135082725	19.393129068716963	2.15
H 	67.35949460099704	21.899689200950963	2.15
H 	50.4796466043723	-0.18215020637296964	2.15
H 	67.4510825244222	23.647290886771447	2.15
H 	68.79062884663468	25.71001133575312	2.15
H 	70.13017516884712	27.772731784734756	2.15
H 	71.46972149105962	29.835452233716417	2.15
H 	72.80926781327206	31.898172682698064	2.15
H 	74.14881413548453	33.96089313167972	2.15
H 	75.488360457697	36.02361358066136	2.15
H 	75.61972370786677	38.530173712895355	2.15
H 	48.02350513354234	-0.05342928628179622	2.15
H 	74.50312855924926	40.721615081968174	2.15
H 	44.2278173404999	-1.9874288151722612	2.15
H 	46.464243716212685	-0.8479126608260004	2.15
H 	73.38653341063174	42.913056451041	2.15
H 	41.77167586966991	-1.8587078950810794	2.15
H 	72.26993826201422	45.10449782011384	2.15
H 	39.31553439883993	-1.729986974989898	2.15
H 	70.16487513647118	46.47154179800156	2.15
H 	36.859392928009946	-1.6012660548987192	2.15
H 	67.70873366564119	46.600262718092736	2.15
H 	34.40325145717996	-1.4725451348075342	2.15
H 	65.25259219481123	46.72898363818393	2.15
H 	31.947109986349968	-1.343824214716352	2.15
H 	62.79645072398124	46.8577045582751	2.15
H 	29.490968515519995	-1.215103294625174	2.15
H 	60.340309253151254	46.986425478366286	2.15
H 	27.03482704469	-1.0863823745339884	2.15
H 	57.88416778232127	47.115146398457476	2.15
H 	24.578685573860014	-0.9576614544428067	2.15
H 	55.42802631149128	47.243867318548645	2.15
H 	22.12254410303003	-0.8289405343516284	2.15
H 	52.97188484066131	47.37258823863983	2.15
H 	19.666402632200047	-0.700219614260445	2.15
H 	50.5157433698313	47.50130915873102	2.15
H 	17.210261161370063	-0.5714986941692634	2.15
H 	48.05960189900134	47.630030078822195	2.15
H 	14.75411969054008	-0.4427777740780814	2.15
H 	45.60346042817133	47.75875099891338	2.15
H 	12.297978219710092	-0.31405685398689975	2.15
H 	40.910892581628566	46.7479557646583	2.15
H 	43.147318957341376	47.88747191900456	2.15
H 	9.841836748880112	-0.18533593389571779	2.15
H 	39.35163116429893	45.953472390114094	2.15
H 	7.385695278050126	-0.05661501380453626	2.15
H 	36.89548969346893	46.08219331020528	2.15
H 	3.5900074850076793	-1.990614542695006	2.15
H 	5.826433860720481	-0.8510983883487434	2.15
H 	34.43934822263896	46.21091423029645	2.15
H 	1.4849443594646634	-0.623570564807288	2.15
H 	1.6163076096344522	1.8829895674266925	2.15
H 	2.955853931846915	3.9457100164083436	2.15
H 	31.983206751808968	46.33963515038763	2.15
H 	3.0474418552720675	5.693311702228848	2.15
H 	3.178805105441856	8.19987183446283	2.15
H 	4.518351427654318	10.262592283444482	2.15
H 	5.85789774986678	12.32531273242613	2.15
H 	7.197444072079241	14.388033181407781	2.15
H 	8.536990394291704	16.450753630389432	2.15
H 	9.876536716504168	18.513474079371086	2.15
H 	11.216083038716627	20.576194528352733	2.15
H 	12.55562936092909	22.638914977334387	2.15
H 	13.895175683141552	24.70163542631604	2.15
H 	15.234722005354016	26.764355875297685	2.15
H 	16.57426832756648	28.82707632427934	2.15
H 	17.913814649778946	30.889796773260997	2.15
H 	19.253360971991405	32.95251722224265	2.15
H 	20.59290729420387	35.0152376712243	2.15
H 	21.932453616416332	37.07795812020596	2.15
H 	23.27199993862879	39.1406785691876	2.15
H 	29.527065280978984	46.46835607047882	2.15
H 	23.36358786205394	40.88828025500812	2.15
H 	23.494951112223728	43.394840387242084	2.15
H 	24.834497434436194	45.457560836223735	2.15
H 	27.070923810148997	46.59707699057	2.15
