2292

C 	0.0	0.0	0.0
C 	1.2297560733739028	0.7099999999999999	0.0
C 	2.4595121467478056	-2.3647750424515833e-16	0.0
C 	3.689268220121708	0.7099999999999995	0.0
C 	4.919024293495611	-4.729550084903167e-16	0.0
C 	6.148780366869514	0.7099999999999993	0.0
C 	7.378536440243416	-7.09432512735475e-16	0.0
C 	8.60829251361732	0.7099999999999991	0.0
C 	9.838048586991222	-9.459100169806333e-16	0.0
C 	11.067804660365125	0.7099999999999989	0.0
C 	12.297560733739026	-1.1823875212257916e-15	0.0
C 	13.527316807112928	0.7099999999999986	0.0
C 	14.757072880486833	-1.41886502547095e-15	0.0
C 	15.986828953860735	0.7099999999999984	0.0
C 	17.21658502723464	-7.671641100159832e-16	0.0
C 	18.44634110060854	0.7099999999999982	0.0
C 	19.676097173982445	-1.8918200339612667e-15	0.0
C 	20.905853247356347	0.7099999999999989	0.0
C 	22.135609320730246	-2.128297538206425e-15	0.0
C 	23.36536539410415	0.7099999999999967	0.0
C 	24.59512146747805	-2.364775042451583e-15	0.0
C 	25.824877540851954	0.7099999999999983	0.0
C 	27.05463361422586	-8.248957072964913e-16	0.0
C 	28.284389687599763	0.7099999999999999	0.0
C 	29.514145760973665	-2.8377300509419e-15	0.0
C 	30.743901834347565	0.7099999999999961	0.0
C 	31.97365790772147	-3.0742075551870582e-15	0.0
C 	33.20341398109537	0.7099999999999976	0.0
C 	34.43317005446928	-1.5343282200319664e-15	0.0
C 	35.66292612784318	0.7099999999999992	0.0
C 	36.892682201217085	-1.7708057242771246e-15	0.0
C 	38.122438274590984	0.7099999999999972	0.0
C 	39.35219434796489	-3.783640067922533e-15	0.0
C 	40.58195042133879	0.7099999999999969	0.0
C 	41.811706494712695	-4.67403893367191e-16	0.0
C 	43.0414625680866	0.7100000000000002	0.0
C 	44.27121864146049	-4.25659507641285e-15	0.0
C 	45.5009747148344	0.7099999999999964	0.0
C 	46.730730788208305	-9.403589018575075e-16	0.0
C 	47.96048686158221	0.7099999999999997	0.0
C 	49.1902429349561	-4.729550084903166e-15	0.0
C 	50.41999900833001	0.709999999999996	0.0
C 	51.64975508170391	-1.413313910347824e-15	0.0
C 	52.879511155077815	0.7099999999999993	0.0
C 	54.10926722845172	-1.6497914145929826e-15	0.0
C 	55.33902330182562	0.7099999999999991	0.0
C 	56.56877937519952	-5.438982597638641e-15	0.0
C 	57.798535448573425	0.7099999999999953	0.0
C 	59.02829152194733	-5.6754601018838e-15	0.0
C 	60.25804759532124	0.709999999999995	0.0
C 	1.2297560733739028	2.1299999999999994	0.0
C 	2.4595121467478056	2.8399999999999994	0.0
C 	3.689268220121708	2.1299999999999994	0.0
C 	4.919024293495611	2.8399999999999994	0.0
C 	6.148780366869514	2.129999999999999	0.0
C 	7.378536440243416	2.839999999999999	0.0
C 	8.60829251361732	2.1299999999999986	0.0
C 	9.838048586991222	2.8399999999999985	0.0
C 	11.067804660365123	2.129999999999998	0.0
C 	12.297560733739028	2.839999999999999	0.0
C 	13.527316807112928	2.1299999999999977	0.0
C 	14.757072880486833	2.839999999999998	0.0
C 	15.986828953860735	2.129999999999998	0.0
C 	17.216585027234636	2.839999999999997	0.0
C 	18.446341100608542	2.129999999999998	0.0
C 	19.676097173982445	2.8399999999999985	0.0
C 	20.905853247356344	2.1299999999999977	0.0
C 	22.13560932073025	2.8399999999999985	0.0
C 	23.36536539410415	2.129999999999997	0.0
C 	24.595121467478055	2.839999999999997	0.0
C 	25.824877540851954	2.1299999999999963	0.0
C 	27.05463361422586	2.839999999999997	0.0
C 	28.284389687599763	2.129999999999998	0.0
C 	29.514145760973665	2.8399999999999985	0.0
C 	30.743901834347568	2.129999999999996	0.0
C 	31.97365790772147	2.8399999999999967	0.0
C 	33.20341398109537	2.129999999999996	0.0
C 	34.43317005446928	2.8399999999999963	0.0
C 	35.66292612784318	2.1299999999999972	0.0
C 	36.89268220121708	2.8399999999999963	0.0
C 	38.122438274590984	2.129999999999997	0.0
C 	39.35219434796489	2.8399999999999976	0.0
C 	40.58195042133879	2.1299999999999986	0.0
C 	41.81170649471269	2.839999999999996	0.0
C 	43.0414625680866	2.129999999999998	0.0
C 	44.2712186414605	2.8399999999999954	0.0
C 	45.5009747148344	2.129999999999998	0.0
C 	46.7307307882083	2.8399999999999954	0.0
C 	47.96048686158221	2.1299999999999977	0.0
C 	49.19024293495611	2.839999999999995	0.0
C 	50.41999900833001	2.1299999999999977	0.0
C 	51.64975508170391	2.8399999999999945	0.0
C 	52.879511155077815	2.1299999999999972	0.0
C 	54.10926722845171	2.8399999999999945	0.0
C 	55.33902330182563	2.130000000000001	0.0
C 	56.56877937519952	2.8399999999999976	0.0
C 	57.798535448573425	2.129999999999997	0.0
C 	59.028291521947324	2.839999999999994	0.0
C 	60.25804759532124	2.129999999999997	0.0
C 	61.487803668695136	2.8399999999999936	0.0
C 	2.4595121467478056	4.259999999999999	0.0
C 	3.689268220121708	4.969999999999999	0.0
C 	4.919024293495611	4.259999999999999	0.0
C 	6.148780366869514	4.969999999999999	0.0
C 	7.378536440243416	4.259999999999999	0.0
C 	8.60829251361732	4.969999999999999	0.0
C 	9.83804858699122	4.259999999999998	0.0
C 	11.067804660365125	4.969999999999999	0.0
C 	12.297560733739028	4.259999999999998	0.0
C 	13.52731680711293	4.969999999999998	0.0
C 	14.757072880486831	4.259999999999998	0.0
C 	15.986828953860735	4.969999999999998	0.0
C 	17.21658502723464	4.259999999999997	0.0
C 	18.446341100608542	4.969999999999998	0.0
C 	19.676097173982445	4.259999999999999	0.0
C 	20.905853247356347	4.969999999999997	0.0
C 	22.135609320730246	4.259999999999996	0.0
C 	23.365365394104153	4.969999999999997	0.0
C 	24.595121467478055	4.259999999999998	0.0
C 	25.824877540851958	4.969999999999997	0.0
C 	27.054633614225857	4.259999999999995	0.0
C 	28.28438968759976	4.969999999999996	0.0
C 	29.514145760973665	4.259999999999997	0.0
C 	30.743901834347568	4.969999999999997	0.0
C 	31.97365790772147	4.259999999999996	0.0
C 	33.20341398109537	4.969999999999995	0.0
C 	34.43317005446927	4.2599999999999945	0.0
C 	35.66292612784318	4.969999999999995	0.0
C 	36.892682201217085	4.259999999999996	0.0
C 	38.122438274590984	4.969999999999997	0.0
C 	39.35219434796489	4.259999999999997	0.0
C 	40.58195042133879	4.969999999999994	0.0
C 	41.81170649471269	4.259999999999995	0.0
C 	43.041462568086594	4.969999999999996	0.0
C 	44.2712186414605	4.259999999999997	0.0
C 	45.500974714834406	4.969999999999998	0.0
C 	46.7307307882083	4.259999999999994	0.0
C 	47.960486861582204	4.9699999999999935	0.0
C 	49.19024293495611	4.259999999999996	0.0
C 	50.41999900833001	4.969999999999997	0.0
C 	51.64975508170391	4.259999999999993	0.0
C 	52.879511155077815	4.9699999999999935	0.0
C 	54.10926722845171	4.259999999999996	0.0
C 	55.33902330182562	4.969999999999997	0.0
C 	56.568779375199526	4.259999999999996	0.0
C 	57.798535448573425	4.969999999999996	0.0
C 	59.028291521947324	4.259999999999995	0.0
C 	60.25804759532123	4.969999999999996	0.0
C 	61.487803668695136	4.259999999999992	0.0
C 	62.717559742069035	4.969999999999993	0.0
C 	3.6892682201217086	6.389999999999999	0.0
C 	4.919024293495611	7.099999999999999	0.0
C 	6.148780366869514	6.389999999999999	0.0
C 	7.378536440243416	7.099999999999999	0.0
C 	8.608292513617318	6.389999999999998	0.0
C 	9.838048586991222	7.099999999999999	0.0
C 	11.067804660365125	6.389999999999998	0.0
C 	12.297560733739028	7.099999999999998	0.0
C 	13.52731680711293	6.389999999999999	0.0
C 	14.757072880486833	7.099999999999998	0.0
C 	15.986828953860735	6.389999999999998	0.0
C 	17.216585027234636	7.099999999999997	0.0
C 	18.44634110060854	6.389999999999997	0.0
C 	19.676097173982445	7.099999999999998	0.0
C 	20.905853247356347	6.389999999999998	0.0
C 	22.13560932073025	7.099999999999997	0.0
C 	23.365365394104153	6.389999999999998	0.0
C 	24.59512146747805	7.099999999999997	0.0
C 	25.824877540851958	6.389999999999998	0.0
C 	27.054633614225857	7.099999999999997	0.0
C 	28.28438968759976	6.389999999999999	0.0
C 	29.514145760973662	7.099999999999997	0.0
C 	30.743901834347568	6.389999999999999	0.0
C 	31.97365790772147	7.099999999999998	0.0
C 	33.20341398109537	6.389999999999995	0.0
C 	34.43317005446928	7.099999999999994	0.0
C 	35.66292612784318	6.389999999999995	0.0
C 	36.892682201217085	7.099999999999996	0.0
C 	38.122438274590984	6.389999999999996	0.0
C 	39.35219434796489	7.099999999999997	0.0
C 	40.58195042133879	6.389999999999994	0.0
C 	41.811706494712695	7.099999999999995	0.0
C 	43.041462568086594	6.389999999999996	0.0
C 	44.2712186414605	7.099999999999997	0.0
C 	45.500974714834406	6.389999999999998	0.0
C 	46.730730788208305	7.099999999999998	0.0
C 	47.960486861582204	6.389999999999995	0.0
C 	49.19024293495611	7.099999999999996	0.0
C 	50.41999900833001	6.389999999999995	0.0
C 	51.649755081703915	7.099999999999996	0.0
C 	52.879511155077815	6.389999999999995	0.0
C 	54.10926722845172	7.099999999999996	0.0
C 	55.33902330182562	6.389999999999995	0.0
C 	56.568779375199526	7.099999999999995	0.0
C 	57.79853544857343	6.389999999999998	0.0
C 	59.02829152194733	7.099999999999999	0.0
C 	60.25804759532123	6.389999999999994	0.0
C 	61.487803668695136	7.099999999999995	0.0
C 	62.71755974206904	6.389999999999994	0.0
C 	63.94731581544294	7.099999999999995	0.0
C 	4.919024293495611	8.519999999999998	0.0
C 	6.148780366869514	9.229999999999999	0.0
C 	7.378536440243416	8.519999999999998	0.0
C 	8.60829251361732	9.229999999999999	0.0
C 	9.838048586991222	8.519999999999998	0.0
C 	11.067804660365125	9.229999999999999	0.0
C 	12.297560733739028	8.519999999999998	0.0
C 	13.52731680711293	9.229999999999997	0.0
C 	14.757072880486833	8.519999999999998	0.0
C 	15.986828953860737	9.229999999999999	0.0
C 	17.216585027234636	8.519999999999998	0.0
C 	18.44634110060854	9.229999999999997	0.0
C 	19.67609717398244	8.519999999999996	0.0
C 	20.905853247356347	9.229999999999997	0.0
C 	22.13560932073025	8.519999999999998	0.0
C 	23.365365394104153	9.229999999999999	0.0
C 	24.595121467478055	8.519999999999996	0.0
C 	25.824877540851954	9.229999999999995	0.0
C 	27.05463361422586	8.519999999999996	0.0
C 	28.284389687599763	9.229999999999997	0.0
C 	29.514145760973662	8.519999999999996	0.0
C 	30.743901834347565	9.229999999999995	0.0
C 	31.97365790772147	8.52	0.0
C 	33.20341398109537	9.229999999999997	0.0
C 	34.43317005446928	8.519999999999994	0.0
C 	35.66292612784318	9.229999999999995	0.0
C 	36.89268220121708	8.519999999999992	0.0
C 	38.122438274590984	9.229999999999993	0.0
C 	39.35219434796489	8.519999999999998	0.0
C 	40.58195042133879	9.229999999999995	0.0
C 	41.811706494712695	8.519999999999994	0.0
C 	43.0414625680866	9.229999999999995	0.0
C 	44.27121864146049	8.519999999999992	0.0
C 	45.5009747148344	9.229999999999993	0.0
C 	46.730730788208305	8.519999999999998	0.0
C 	47.960486861582204	9.229999999999995	0.0
C 	49.19024293495611	8.519999999999996	0.0
C 	50.41999900833001	9.229999999999993	0.0
C 	51.64975508170391	8.519999999999994	0.0
C 	52.879511155077815	9.229999999999995	0.0
C 	54.10926722845171	8.51999999999999	0.0
C 	55.33902330182562	9.229999999999992	0.0
C 	56.568779375199526	8.519999999999998	0.0
C 	57.798535448573425	9.229999999999995	0.0
C 	59.02829152194733	8.519999999999994	0.0
C 	60.25804759532123	9.229999999999993	0.0
C 	61.48780366869513	8.519999999999992	0.0
C 	62.717559742069035	9.229999999999993	0.0
C 	63.94731581544294	8.519999999999992	0.0
C 	65.17707188881684	9.22999999999999	0.0
C 	6.148780366869514	10.649999999999997	0.0
C 	7.378536440243416	11.359999999999998	0.0
C 	8.608292513617318	10.649999999999997	0.0
C 	9.838048586991222	11.359999999999998	0.0
C 	11.067804660365125	10.649999999999997	0.0
C 	12.297560733739028	11.359999999999996	0.0
C 	13.52731680711293	10.649999999999997	0.0
C 	14.757072880486831	11.359999999999996	0.0
C 	15.986828953860735	10.649999999999997	0.0
C 	17.216585027234636	11.359999999999996	0.0
C 	18.44634110060854	10.649999999999997	0.0
C 	19.676097173982445	11.359999999999998	0.0
C 	20.905853247356347	10.649999999999997	0.0
C 	22.13560932073025	11.359999999999996	0.0
C 	23.365365394104153	10.649999999999997	0.0
C 	24.595121467478055	11.359999999999996	0.0
C 	25.824877540851958	10.649999999999997	0.0
C 	27.05463361422586	11.359999999999996	0.0
C 	28.284389687599763	10.649999999999995	0.0
C 	29.514145760973662	11.359999999999994	0.0
C 	30.743901834347565	10.649999999999995	0.0
C 	31.97365790772147	11.359999999999996	0.0
C 	33.20341398109537	10.649999999999997	0.0
C 	34.43317005446928	11.359999999999998	0.0
C 	35.66292612784318	10.649999999999991	0.0
C 	36.89268220121708	11.359999999999992	0.0
C 	38.122438274590984	10.649999999999993	0.0
C 	39.35219434796489	11.359999999999994	0.0
C 	40.58195042133879	10.649999999999993	0.0
C 	41.811706494712695	11.359999999999994	0.0
C 	43.041462568086594	10.649999999999991	0.0
C 	44.2712186414605	11.359999999999992	0.0
C 	45.5009747148344	10.649999999999993	0.0
C 	46.730730788208305	11.359999999999994	0.0
C 	47.960486861582204	10.649999999999995	0.0
C 	49.19024293495611	11.359999999999996	0.0
C 	50.41999900833001	10.649999999999993	0.0
C 	51.649755081703915	11.359999999999994	0.0
C 	52.879511155077815	10.649999999999995	0.0
C 	54.10926722845172	11.359999999999996	0.0
C 	55.33902330182562	10.649999999999993	0.0
C 	56.568779375199526	11.359999999999994	0.0
C 	57.798535448573425	10.649999999999993	0.0
C 	59.02829152194733	11.359999999999992	0.0
C 	60.25804759532124	10.649999999999995	0.0
C 	61.487803668695136	11.359999999999996	0.0
C 	62.717559742069035	10.649999999999991	0.0
C 	63.94731581544294	11.359999999999992	0.0
C 	65.17707188881684	10.649999999999991	0.0
C 	66.40682796219075	11.359999999999992	0.0
C 	7.378536440243417	12.779999999999998	0.0
C 	8.60829251361732	13.489999999999998	0.0
C 	9.838048586991222	12.78	0.0
C 	11.067804660365125	13.489999999999997	0.0
C 	12.297560733739028	12.779999999999998	0.0
C 	13.527316807112932	13.489999999999998	0.0
C 	14.757072880486833	12.779999999999998	0.0
C 	15.986828953860737	13.489999999999997	0.0
C 	17.216585027234636	12.779999999999996	0.0
C 	18.446341100608542	13.489999999999997	0.0
C 	19.676097173982445	12.779999999999998	0.0
C 	20.905853247356347	13.489999999999997	0.0
C 	22.13560932073025	12.779999999999996	0.0
C 	23.36536539410415	13.489999999999995	0.0
C 	24.595121467478055	12.779999999999996	0.0
C 	25.824877540851958	13.489999999999997	0.0
C 	27.05463361422586	12.779999999999998	0.0
C 	28.284389687599763	13.489999999999997	0.0
C 	29.514145760973662	12.779999999999996	0.0
C 	30.743901834347568	13.489999999999997	0.0
C 	31.97365790772147	12.779999999999996	0.0
C 	33.20341398109537	13.489999999999997	0.0
C 	34.43317005446928	12.779999999999998	0.0
C 	35.66292612784318	13.489999999999995	0.0
C 	36.89268220121708	12.779999999999994	0.0
C 	38.122438274590984	13.489999999999995	0.0
C 	39.35219434796489	12.779999999999996	0.0
C 	40.581950421338796	13.489999999999997	0.0
C 	41.811706494712695	12.779999999999996	0.0
C 	43.041462568086594	13.489999999999993	0.0
C 	44.2712186414605	12.779999999999994	0.0
C 	45.5009747148344	13.489999999999995	0.0
C 	46.730730788208305	12.779999999999996	0.0
C 	47.96048686158221	13.489999999999997	0.0
C 	49.19024293495611	12.779999999999998	0.0
C 	50.41999900833001	13.489999999999995	0.0
C 	51.649755081703915	12.779999999999996	0.0
C 	52.879511155077815	13.489999999999993	0.0
C 	54.10926722845172	12.779999999999998	0.0
C 	55.33902330182563	13.489999999999998	0.0
C 	56.56877937519952	12.779999999999998	0.0
C 	57.798535448573425	13.489999999999997	0.0
C 	59.02829152194733	12.779999999999994	0.0
C 	60.25804759532123	13.489999999999991	0.0
C 	61.487803668695136	12.779999999999998	0.0
C 	62.71755974206904	13.489999999999998	0.0
C 	63.94731581544294	12.779999999999994	0.0
C 	65.17707188881684	13.489999999999995	0.0
C 	66.40682796219075	12.77999999999999	0.0
C 	67.63658403556465	13.489999999999988	0.0
C 	8.60829251361732	14.909999999999998	0.0
C 	9.838048586991222	15.619999999999996	0.0
C 	11.067804660365125	14.909999999999997	0.0
C 	12.297560733739026	15.619999999999996	0.0
C 	13.527316807112934	14.909999999999998	0.0
C 	14.757072880486831	15.619999999999996	0.0
C 	15.986828953860737	14.909999999999998	0.0
C 	17.21658502723464	15.619999999999997	0.0
C 	18.446341100608542	14.909999999999997	0.0
C 	19.676097173982445	15.619999999999996	0.0
C 	20.905853247356347	14.909999999999997	0.0
C 	22.135609320730246	15.619999999999996	0.0
C 	23.365365394104153	14.909999999999995	0.0
C 	24.595121467478055	15.619999999999996	0.0
C 	25.824877540851958	14.909999999999997	0.0
C 	27.05463361422586	15.619999999999996	0.0
C 	28.284389687599763	14.909999999999997	0.0
C 	29.514145760973665	15.619999999999996	0.0
C 	30.743901834347568	14.909999999999997	0.0
C 	31.973657907721474	15.619999999999997	0.0
C 	33.203413981095366	14.909999999999993	0.0
C 	34.43317005446927	15.619999999999994	0.0
C 	35.662926127843185	14.909999999999998	0.0
C 	36.892682201217085	15.619999999999996	0.0
C 	38.122438274590984	14.909999999999995	0.0
C 	39.35219434796489	15.619999999999996	0.0
C 	40.58195042133879	14.909999999999993	0.0
C 	41.811706494712695	15.619999999999994	0.0
C 	43.0414625680866	14.909999999999998	0.0
C 	44.2712186414605	15.619999999999996	0.0
C 	45.5009747148344	14.909999999999995	0.0
C 	46.730730788208305	15.619999999999996	0.0
C 	47.960486861582204	14.909999999999993	0.0
C 	49.19024293495611	15.619999999999994	0.0
C 	50.41999900833002	14.909999999999998	0.0
C 	51.649755081703915	15.619999999999996	0.0
C 	52.87951115507782	14.909999999999997	0.0
C 	54.10926722845171	15.619999999999994	0.0
C 	55.33902330182562	14.909999999999995	0.0
C 	56.568779375199526	15.619999999999994	0.0
C 	57.798535448573425	14.909999999999991	0.0
C 	59.028291521947324	15.619999999999992	0.0
C 	60.25804759532124	14.909999999999998	0.0
C 	61.487803668695136	15.619999999999996	0.0
C 	62.717559742069035	14.909999999999993	0.0
C 	63.94731581544294	15.619999999999994	0.0
C 	65.17707188881684	14.909999999999993	0.0
C 	66.40682796219075	15.619999999999994	0.0
C 	67.63658403556465	14.909999999999997	0.0
C 	68.86634010893854	15.61999999999999	0.0
C 	9.838048586991222	17.039999999999996	0.0
C 	11.067804660365127	17.749999999999996	0.0
C 	12.297560733739028	17.039999999999996	0.0
C 	13.527316807112932	17.749999999999996	0.0
C 	14.757072880486833	17.039999999999996	0.0
C 	15.986828953860735	17.749999999999996	0.0
C 	17.21658502723464	17.039999999999996	0.0
C 	18.446341100608546	17.749999999999996	0.0
C 	19.676097173982445	17.039999999999996	0.0
C 	20.905853247356347	17.749999999999996	0.0
C 	22.13560932073025	17.039999999999996	0.0
C 	23.365365394104153	17.749999999999996	0.0
C 	24.595121467478055	17.039999999999996	0.0
C 	25.82487754085196	17.749999999999996	0.0
C 	27.05463361422586	17.039999999999996	0.0
C 	28.28438968759977	17.75	0.0
C 	29.514145760973665	17.039999999999996	0.0
C 	30.74390183434757	17.749999999999996	0.0
C 	31.973657907721467	17.039999999999992	0.0
C 	33.20341398109537	17.749999999999993	0.0
C 	34.43317005446927	17.039999999999996	0.0
C 	35.66292612784318	17.749999999999996	0.0
C 	36.892682201217085	17.039999999999996	0.0
C 	38.122438274590984	17.749999999999996	0.0
C 	39.35219434796488	17.039999999999992	0.0
C 	40.58195042133879	17.749999999999993	0.0
C 	41.811706494712695	17.039999999999992	0.0
C 	43.041462568086594	17.749999999999993	0.0
C 	44.2712186414605	17.039999999999996	0.0
C 	45.500974714834406	17.749999999999996	0.0
C 	46.7307307882083	17.039999999999992	0.0
C 	47.960486861582204	17.749999999999993	0.0
C 	49.19024293495611	17.039999999999992	0.0
C 	50.41999900833002	17.749999999999993	0.0
C 	51.649755081703915	17.039999999999996	0.0
C 	52.87951115507782	17.749999999999996	0.0
C 	54.10926722845172	17.039999999999992	0.0
C 	55.33902330182562	17.749999999999993	0.0
C 	56.568779375199526	17.039999999999996	0.0
C 	57.79853544857343	17.749999999999996	0.0
C 	59.028291521947324	17.039999999999992	0.0
C 	60.25804759532123	17.749999999999993	0.0
C 	61.487803668695136	17.039999999999996	0.0
C 	62.71755974206904	17.749999999999996	0.0
C 	63.94731581544294	17.04	0.0
C 	65.17707188881684	17.749999999999993	0.0
C 	66.40682796219075	17.039999999999996	0.0
C 	67.63658403556464	17.74999999999999	0.0
C 	68.86634010893856	17.03999999999999	0.0
C 	70.09609618231246	17.74999999999999	0.0
C 	11.067804660365125	19.169999999999995	0.0
C 	12.297560733739026	19.879999999999995	0.0
C 	13.52731680711293	19.169999999999995	0.0
C 	14.757072880486831	19.879999999999995	0.0
C 	15.986828953860737	19.169999999999998	0.0
C 	17.216585027234636	19.879999999999992	0.0
C 	18.446341100608542	19.169999999999995	0.0
C 	19.676097173982445	19.879999999999995	0.0
C 	20.905853247356347	19.169999999999995	0.0
C 	22.135609320730246	19.879999999999995	0.0
C 	23.365365394104153	19.169999999999995	0.0
C 	24.59512146747805	19.879999999999995	0.0
C 	25.824877540851958	19.169999999999995	0.0
C 	27.05463361422586	19.879999999999995	0.0
C 	28.284389687599763	19.169999999999995	0.0
C 	29.51414576097367	19.879999999999995	0.0
C 	30.743901834347565	19.16999999999999	0.0
C 	31.97365790772147	19.879999999999992	0.0
C 	33.20341398109537	19.169999999999995	0.0
C 	34.43317005446927	19.879999999999992	0.0
C 	35.66292612784318	19.169999999999995	0.0
C 	36.89268220121708	19.879999999999992	0.0
C 	38.122438274590984	19.169999999999995	0.0
C 	39.35219434796488	19.879999999999992	0.0
C 	40.58195042133879	19.16999999999999	0.0
C 	41.81170649471269	19.87999999999999	0.0
C 	43.0414625680866	19.169999999999995	0.0
C 	44.27121864146049	19.879999999999992	0.0
C 	45.5009747148344	19.16999999999999	0.0
C 	46.730730788208305	19.879999999999992	0.0
C 	47.960486861582204	19.169999999999995	0.0
C 	49.1902429349561	19.879999999999992	0.0
C 	50.41999900833002	19.169999999999995	0.0
C 	51.649755081703915	19.879999999999992	0.0
C 	52.879511155077815	19.16999999999999	0.0
C 	54.10926722845172	19.879999999999992	0.0
C 	55.33902330182562	19.16999999999999	0.0
C 	56.56877937519952	19.879999999999992	0.0
C 	57.79853544857343	19.169999999999995	0.0
C 	59.02829152194733	19.879999999999992	0.0
C 	60.25804759532123	19.169999999999995	0.0
C 	61.48780366869513	19.879999999999992	0.0
C 	62.717559742069035	19.16999999999999	0.0
C 	63.94731581544294	19.879999999999992	0.0
C 	65.17707188881684	19.169999999999995	0.0
C 	66.40682796219075	19.87999999999999	0.0
C 	67.63658403556465	19.169999999999995	0.0
C 	68.86634010893854	19.87999999999999	0.0
C 	70.09609618231245	19.16999999999999	0.0
C 	71.32585225568636	19.879999999999992	0.0
C 	12.297560733739028	21.299999999999994	0.0
C 	13.527316807112932	22.009999999999994	0.0
C 	14.757072880486831	21.299999999999994	0.0
C 	15.986828953860735	22.009999999999994	0.0
C 	17.216585027234636	21.299999999999994	0.0
C 	18.44634110060854	22.009999999999994	0.0
C 	19.676097173982445	21.299999999999994	0.0
C 	20.905853247356347	22.009999999999994	0.0
C 	22.13560932073025	21.299999999999994	0.0
C 	23.365365394104153	22.009999999999994	0.0
C 	24.595121467478055	21.299999999999994	0.0
C 	25.824877540851958	22.009999999999994	0.0
C 	27.05463361422586	21.299999999999994	0.0
C 	28.284389687599766	22.009999999999994	0.0
C 	29.514145760973662	21.29999999999999	0.0
C 	30.743901834347568	22.00999999999999	0.0
C 	31.97365790772147	21.299999999999994	0.0
C 	33.20341398109537	22.009999999999994	0.0
C 	34.43317005446928	21.299999999999994	0.0
C 	35.662926127843185	22.009999999999994	0.0
C 	36.89268220121708	21.299999999999994	0.0
C 	38.122438274590984	22.009999999999994	0.0
C 	39.35219434796489	21.299999999999994	0.0
C 	40.58195042133879	22.009999999999994	0.0
C 	41.811706494712695	21.299999999999994	0.0
C 	43.0414625680866	22.009999999999994	0.0
C 	44.2712186414605	21.29999999999999	0.0
C 	45.5009747148344	22.00999999999999	0.0
C 	46.730730788208305	21.299999999999994	0.0
C 	47.96048686158221	22.009999999999994	0.0
C 	49.19024293495611	21.299999999999994	0.0
C 	50.41999900833002	22.009999999999994	0.0
C 	51.649755081703915	21.299999999999994	0.0
C 	52.879511155077815	22.00999999999999	0.0
C 	54.10926722845172	21.299999999999994	0.0
C 	55.33902330182563	22.009999999999994	0.0
C 	56.568779375199526	21.29999999999999	0.0
C 	57.798535448573425	22.00999999999999	0.0
C 	59.02829152194733	21.299999999999994	0.0
C 	60.25804759532124	22.009999999999994	0.0
C 	61.48780366869513	21.29999999999999	0.0
C 	62.717559742069035	22.00999999999999	0.0
C 	63.94731581544294	21.299999999999994	0.0
C 	65.17707188881684	22.009999999999987	0.0
C 	66.40682796219075	21.299999999999994	0.0
C 	67.63658403556465	22.009999999999994	0.0
C 	68.86634010893854	21.29999999999999	0.0
C 	70.09609618231245	22.00999999999999	0.0
C 	71.32585225568636	21.299999999999983	0.0
C 	72.55560832906026	22.00999999999999	0.0
C 	13.527316807112932	23.429999999999996	0.0
C 	14.757072880486836	24.139999999999997	0.0
C 	15.986828953860737	23.429999999999996	0.0
C 	17.216585027234643	24.139999999999997	0.0
C 	18.446341100608542	23.429999999999996	0.0
C 	19.676097173982445	24.139999999999997	0.0
C 	20.90585324735635	23.429999999999996	0.0
C 	22.135609320730254	24.139999999999997	0.0
C 	23.365365394104156	23.429999999999993	0.0
C 	24.595121467478062	24.139999999999997	0.0
C 	25.824877540851958	23.429999999999993	0.0
C 	27.054633614225864	24.139999999999993	0.0
C 	28.284389687599766	23.429999999999996	0.0
C 	29.514145760973673	24.139999999999997	0.0
C 	30.743901834347575	23.429999999999996	0.0
C 	31.973657907721478	24.139999999999997	0.0
C 	33.20341398109537	23.429999999999993	0.0
C 	34.43317005446928	24.139999999999993	0.0
C 	35.66292612784318	23.429999999999993	0.0
C 	36.892682201217085	24.139999999999993	0.0
C 	38.122438274590984	23.429999999999993	0.0
C 	39.35219434796489	24.139999999999993	0.0
C 	40.58195042133879	23.429999999999996	0.0
C 	41.811706494712695	24.139999999999993	0.0
C 	43.041462568086594	23.42999999999999	0.0
C 	44.2712186414605	24.13999999999999	0.0
C 	45.5009747148344	23.429999999999993	0.0
C 	46.730730788208305	24.139999999999993	0.0
C 	47.96048686158221	23.429999999999993	0.0
C 	49.19024293495611	24.139999999999993	0.0
C 	50.41999900833001	23.429999999999993	0.0
C 	51.649755081703915	24.13999999999999	0.0
C 	52.87951115507782	23.429999999999993	0.0
C 	54.10926722845172	24.139999999999993	0.0
C 	55.33902330182563	23.429999999999993	0.0
C 	56.56877937519953	24.139999999999993	0.0
C 	57.798535448573425	23.429999999999993	0.0
C 	59.02829152194733	24.139999999999993	0.0
C 	60.25804759532124	23.429999999999993	0.0
C 	61.487803668695136	24.13999999999999	0.0
C 	62.71755974206904	23.429999999999993	0.0
C 	63.947315815442934	24.139999999999986	0.0
C 	65.17707188881684	23.429999999999993	0.0
C 	66.40682796219075	24.139999999999993	0.0
C 	67.63658403556464	23.42999999999999	0.0
C 	68.86634010893856	24.139999999999997	0.0
C 	70.09609618231245	23.42999999999999	0.0
C 	71.32585225568636	24.139999999999997	0.0
C 	72.55560832906026	23.42999999999999	0.0
C 	73.78536440243417	24.13999999999999	0.0
C 	14.757072880486835	25.559999999999995	0.0
C 	15.986828953860735	26.269999999999996	0.0
C 	17.21658502723464	25.559999999999995	0.0
C 	18.44634110060854	26.269999999999996	0.0
C 	19.676097173982445	25.56	0.0
C 	20.905853247356344	26.269999999999996	0.0
C 	22.13560932073025	25.56	0.0
C 	23.365365394104153	26.269999999999996	0.0
C 	24.595121467478055	25.559999999999995	0.0
C 	25.824877540851958	26.269999999999996	0.0
C 	27.054633614225857	25.559999999999995	0.0
C 	28.28438968759976	26.269999999999996	0.0
C 	29.514145760973665	25.559999999999995	0.0
C 	30.743901834347568	26.269999999999996	0.0
C 	31.973657907721474	25.559999999999995	0.0
C 	33.20341398109538	26.269999999999996	0.0
C 	34.43317005446927	25.55999999999999	0.0
C 	35.66292612784318	26.269999999999992	0.0
C 	36.892682201217085	25.559999999999995	0.0
C 	38.12243827459098	26.269999999999992	0.0
C 	39.35219434796489	25.559999999999995	0.0
C 	40.58195042133879	26.269999999999992	0.0
C 	41.81170649471269	25.55999999999999	0.0
C 	43.041462568086594	26.269999999999992	0.0
C 	44.2712186414605	25.55999999999999	0.0
C 	45.5009747148344	26.26999999999999	0.0
C 	46.730730788208305	25.559999999999995	0.0
C 	47.960486861582204	26.269999999999992	0.0
C 	49.19024293495611	25.55999999999999	0.0
C 	50.41999900833001	26.269999999999992	0.0
C 	51.649755081703915	25.559999999999995	0.0
C 	52.879511155077815	26.269999999999992	0.0
C 	54.10926722845172	25.559999999999995	0.0
C 	55.33902330182562	26.269999999999992	0.0
C 	56.568779375199526	25.55999999999999	0.0
C 	57.79853544857343	26.269999999999992	0.0
C 	59.028291521947324	25.55999999999999	0.0
C 	60.25804759532123	26.269999999999992	0.0
C 	61.487803668695136	25.559999999999995	0.0
C 	62.717559742069035	26.26999999999999	0.0
C 	63.94731581544294	25.55999999999999	0.0
C 	65.17707188881683	26.269999999999985	0.0
C 	66.40682796219075	25.55999999999999	0.0
C 	67.63658403556465	26.269999999999992	0.0
C 	68.86634010893856	25.559999999999995	0.0
C 	70.09609618231246	26.269999999999996	0.0
C 	71.32585225568636	25.559999999999995	0.0
C 	72.55560832906026	26.269999999999996	0.0
C 	73.78536440243415	25.559999999999988	0.0
C 	75.01512047580806	26.26999999999999	0.0
C 	15.986828953860735	27.689999999999994	0.0
C 	17.21658502723464	28.399999999999995	0.0
C 	18.446341100608542	27.689999999999994	0.0
C 	19.676097173982445	28.399999999999995	0.0
C 	20.905853247356344	27.689999999999994	0.0
C 	22.13560932073025	28.399999999999995	0.0
C 	23.365365394104153	27.689999999999994	0.0
C 	24.59512146747806	28.399999999999995	0.0
C 	25.824877540851954	27.689999999999994	0.0
C 	27.054633614225857	28.399999999999995	0.0
C 	28.284389687599763	27.689999999999994	0.0
C 	29.514145760973665	28.399999999999995	0.0
C 	30.74390183434757	27.689999999999994	0.0
C 	31.973657907721474	28.399999999999995	0.0
C 	33.20341398109537	27.68999999999999	0.0
C 	34.43317005446928	28.39999999999999	0.0
C 	35.66292612784318	27.689999999999994	0.0
C 	36.892682201217085	28.399999999999995	0.0
C 	38.122438274590984	27.689999999999994	0.0
C 	39.35219434796489	28.399999999999995	0.0
C 	40.58195042133879	27.689999999999994	0.0
C 	41.811706494712695	28.399999999999995	0.0
C 	43.041462568086594	27.689999999999994	0.0
C 	44.2712186414605	28.399999999999995	0.0
C 	45.500974714834406	27.689999999999994	0.0
C 	46.730730788208305	28.399999999999995	0.0
C 	47.960486861582204	27.68999999999999	0.0
C 	49.19024293495611	28.39999999999999	0.0
C 	50.41999900833002	27.689999999999994	0.0
C 	51.649755081703915	28.399999999999995	0.0
C 	52.87951115507782	27.689999999999994	0.0
C 	54.10926722845173	28.399999999999995	0.0
C 	55.33902330182562	27.68999999999999	0.0
C 	56.568779375199526	28.39999999999999	0.0
C 	57.79853544857343	27.689999999999994	0.0
C 	59.02829152194733	28.39999999999999	0.0
C 	60.25804759532124	27.689999999999994	0.0
C 	61.48780366869513	28.399999999999988	0.0
C 	62.717559742069035	27.689999999999994	0.0
C 	63.94731581544294	28.399999999999995	0.0
C 	65.17707188881684	27.68999999999999	0.0
C 	66.40682796219075	28.39999999999999	0.0
C 	67.63658403556464	27.689999999999987	0.0
C 	68.86634010893856	28.399999999999995	0.0
C 	70.09609618231245	27.689999999999994	0.0
C 	71.32585225568636	28.399999999999995	0.0
C 	72.55560832906026	27.68999999999999	0.0
C 	73.78536440243415	28.39999999999999	0.0
C 	75.01512047580808	27.689999999999994	0.0
C 	76.24487654918197	28.399999999999984	0.0
C 	17.21658502723464	29.819999999999997	0.0
C 	18.446341100608546	30.529999999999998	0.0
C 	19.676097173982445	29.819999999999997	0.0
C 	20.905853247356355	30.529999999999998	0.0
C 	22.13560932073025	29.819999999999993	0.0
C 	23.365365394104156	30.529999999999994	0.0
C 	24.59512146747806	29.819999999999997	0.0
C 	25.82487754085196	30.529999999999998	0.0
C 	27.054633614225867	29.819999999999997	0.0
C 	28.28438968759977	30.529999999999998	0.0
C 	29.514145760973665	29.819999999999997	0.0
C 	30.74390183434757	30.529999999999998	0.0
C 	31.973657907721474	29.819999999999997	0.0
C 	33.20341398109538	30.529999999999998	0.0
C 	34.43317005446928	29.819999999999997	0.0
C 	35.662926127843185	30.529999999999998	0.0
C 	36.892682201217085	29.819999999999993	0.0
C 	38.12243827459099	30.529999999999994	0.0
C 	39.35219434796488	29.819999999999993	0.0
C 	40.58195042133879	30.529999999999994	0.0
C 	41.811706494712695	29.819999999999993	0.0
C 	43.0414625680866	30.529999999999994	0.0
C 	44.2712186414605	29.819999999999993	0.0
C 	45.500974714834406	30.529999999999994	0.0
C 	46.730730788208305	29.81999999999999	0.0
C 	47.960486861582204	30.52999999999999	0.0
C 	49.19024293495611	29.819999999999993	0.0
C 	50.41999900833002	30.529999999999994	0.0
C 	51.649755081703915	29.819999999999993	0.0
C 	52.87951115507782	30.529999999999994	0.0
C 	54.10926722845172	29.819999999999993	0.0
C 	55.33902330182563	30.52999999999999	0.0
C 	56.568779375199526	29.819999999999993	0.0
C 	57.798535448573425	30.52999999999999	0.0
C 	59.02829152194734	29.819999999999993	0.0
C 	60.25804759532124	30.529999999999994	0.0
C 	61.487803668695136	29.819999999999993	0.0
C 	62.71755974206904	30.529999999999994	0.0
C 	63.947315815442934	29.81999999999999	0.0
C 	65.17707188881685	30.529999999999998	0.0
C 	66.40682796219073	29.819999999999986	0.0
C 	67.63658403556465	30.529999999999994	0.0
C 	68.86634010893856	29.819999999999993	0.0
C 	70.09609618231245	30.529999999999994	0.0
C 	71.32585225568637	29.819999999999997	0.0
C 	72.55560832906026	30.52999999999999	0.0
C 	73.78536440243417	29.819999999999997	0.0
C 	75.01512047580806	30.529999999999987	0.0
C 	76.24487654918197	29.81999999999999	0.0
C 	77.47463262255587	30.52999999999999	0.0
C 	18.446341100608542	31.949999999999996	0.0
C 	19.676097173982445	32.65999999999999	0.0
C 	20.905853247356347	31.949999999999992	0.0
C 	22.135609320730254	32.66	0.0
C 	23.365365394104156	31.949999999999996	0.0
C 	24.595121467478055	32.65999999999999	0.0
C 	25.824877540851958	31.949999999999992	0.0
C 	27.05463361422586	32.66	0.0
C 	28.284389687599766	31.949999999999996	0.0
C 	29.51414576097367	32.66	0.0
C 	30.743901834347568	31.949999999999992	0.0
C 	31.97365790772147	32.66	0.0
C 	33.20341398109537	31.949999999999992	0.0
C 	34.43317005446928	32.66	0.0
C 	35.66292612784318	31.949999999999996	0.0
C 	36.892682201217085	32.66	0.0
C 	38.122438274590984	31.949999999999992	0.0
C 	39.35219434796489	32.65999999999999	0.0
C 	40.58195042133879	31.949999999999992	0.0
C 	41.81170649471269	32.65999999999999	0.0
C 	43.0414625680866	31.949999999999996	0.0
C 	44.2712186414605	32.65999999999999	0.0
C 	45.5009747148344	31.949999999999992	0.0
C 	46.730730788208305	32.65999999999999	0.0
C 	47.96048686158221	31.949999999999992	0.0
C 	49.1902429349561	32.65999999999999	0.0
C 	50.41999900833002	31.949999999999992	0.0
C 	51.649755081703915	32.65999999999999	0.0
C 	52.879511155077815	31.949999999999992	0.0
C 	54.10926722845172	32.65999999999999	0.0
C 	55.33902330182563	31.949999999999992	0.0
C 	56.568779375199526	32.65999999999999	0.0
C 	57.79853544857343	31.949999999999992	0.0
C 	59.028291521947324	32.65999999999999	0.0
C 	60.25804759532124	31.949999999999992	0.0
C 	61.487803668695136	32.65999999999999	0.0
C 	62.717559742069035	31.94999999999999	0.0
C 	63.94731581544294	32.65999999999999	0.0
C 	65.17707188881685	31.949999999999992	0.0
C 	66.40682796219076	32.66	0.0
C 	67.63658403556465	31.949999999999992	0.0
C 	68.86634010893856	32.65999999999999	0.0
C 	70.09609618231245	31.94999999999999	0.0
C 	71.32585225568636	32.65999999999999	0.0
C 	72.55560832906026	31.949999999999996	0.0
C 	73.78536440243415	32.65999999999999	0.0
C 	75.01512047580806	31.949999999999992	0.0
C 	76.24487654918195	32.65999999999998	0.0
C 	77.47463262255587	31.949999999999985	0.0
C 	78.70438869592978	32.65999999999999	0.0
C 	19.676097173982445	34.07999999999999	0.0
C 	20.90585324735635	34.78999999999999	0.0
C 	22.135609320730254	34.07999999999999	0.0
C 	23.365365394104156	34.78999999999999	0.0
C 	24.595121467478055	34.07999999999999	0.0
C 	25.824877540851958	34.78999999999999	0.0
C 	27.054633614225864	34.07999999999999	0.0
C 	28.284389687599766	34.78999999999999	0.0
C 	29.514145760973665	34.07999999999999	0.0
C 	30.743901834347568	34.78999999999999	0.0
C 	31.97365790772147	34.07999999999999	0.0
C 	33.20341398109537	34.78999999999999	0.0
C 	34.43317005446928	34.07999999999999	0.0
C 	35.662926127843185	34.78999999999999	0.0
C 	36.89268220121708	34.07999999999999	0.0
C 	38.122438274590984	34.78999999999999	0.0
C 	39.35219434796489	34.07999999999999	0.0
C 	40.581950421338796	34.78999999999999	0.0
C 	41.811706494712695	34.07999999999999	0.0
C 	43.0414625680866	34.78999999999999	0.0
C 	44.2712186414605	34.07999999999999	0.0
C 	45.5009747148344	34.78999999999999	0.0
C 	46.730730788208305	34.07999999999999	0.0
C 	47.96048686158221	34.78999999999999	0.0
C 	49.19024293495611	34.07999999999999	0.0
C 	50.41999900833002	34.78999999999999	0.0
C 	51.649755081703915	34.07999999999999	0.0
C 	52.87951115507782	34.78999999999999	0.0
C 	54.10926722845172	34.07999999999999	0.0
C 	55.33902330182562	34.78999999999999	0.0
C 	56.56877937519953	34.07999999999999	0.0
C 	57.79853544857343	34.78999999999999	0.0
C 	59.02829152194733	34.07999999999999	0.0
C 	60.25804759532124	34.78999999999999	0.0
C 	61.487803668695136	34.07999999999999	0.0
C 	62.71755974206905	34.79	0.0
C 	63.947315815442934	34.079999999999984	0.0
C 	65.17707188881685	34.78999999999999	0.0
C 	66.40682796219075	34.07999999999999	0.0
C 	67.63658403556465	34.78999999999999	0.0
C 	68.86634010893854	34.07999999999999	0.0
C 	70.09609618231245	34.78999999999999	0.0
C 	71.32585225568636	34.07999999999999	0.0
C 	72.55560832906025	34.789999999999985	0.0
C 	73.78536440243417	34.07999999999999	0.0
C 	75.01512047580808	34.78999999999999	0.0
C 	76.24487654918197	34.07999999999999	0.0
C 	77.47463262255587	34.78999999999999	0.0
C 	78.70438869592977	34.079999999999984	0.0
C 	79.93414476930369	34.78999999999999	0.0
C 	20.90585324735635	36.209999999999994	0.0
C 	22.135609320730254	36.919999999999995	0.0
C 	23.36536539410416	36.209999999999994	0.0
C 	24.595121467478062	36.919999999999995	0.0
C 	25.82487754085196	36.209999999999994	0.0
C 	27.054633614225864	36.919999999999995	0.0
C 	28.284389687599766	36.209999999999994	0.0
C 	29.514145760973673	36.919999999999995	0.0
C 	30.743901834347575	36.209999999999994	0.0
C 	31.973657907721478	36.919999999999995	0.0
C 	33.20341398109537	36.209999999999994	0.0
C 	34.43317005446928	36.919999999999995	0.0
C 	35.662926127843185	36.209999999999994	0.0
C 	36.89268220121709	36.919999999999995	0.0
C 	38.12243827459099	36.209999999999994	0.0
C 	39.3521943479649	36.919999999999995	0.0
C 	40.581950421338796	36.209999999999994	0.0
C 	41.811706494712695	36.919999999999995	0.0
C 	43.041462568086594	36.209999999999994	0.0
C 	44.2712186414605	36.919999999999995	0.0
C 	45.500974714834406	36.209999999999994	0.0
C 	46.730730788208305	36.919999999999995	0.0
C 	47.96048686158221	36.209999999999994	0.0
C 	49.19024293495612	36.919999999999995	0.0
C 	50.41999900833002	36.20999999999999	0.0
C 	51.649755081703915	36.91999999999999	0.0
C 	52.87951115507782	36.209999999999994	0.0
C 	54.10926722845172	36.91999999999999	0.0
C 	55.33902330182563	36.209999999999994	0.0
C 	56.56877937519953	36.919999999999995	0.0
C 	57.79853544857343	36.20999999999999	0.0
C 	59.02829152194733	36.91999999999999	0.0
C 	60.25804759532123	36.20999999999999	0.0
C 	61.48780366869515	36.919999999999995	0.0
C 	62.71755974206904	36.209999999999994	0.0
C 	63.94731581544295	36.919999999999995	0.0
C 	65.17707188881684	36.209999999999994	0.0
C 	66.40682796219075	36.919999999999995	0.0
C 	67.63658403556467	36.209999999999994	0.0
C 	68.86634010893856	36.91999999999999	0.0
C 	70.09609618231246	36.209999999999994	0.0
C 	71.32585225568636	36.91999999999999	0.0
C 	72.55560832906026	36.209999999999994	0.0
C 	73.78536440243417	36.919999999999995	0.0
C 	75.01512047580806	36.20999999999999	0.0
C 	76.24487654918198	36.919999999999995	0.0
C 	77.47463262255586	36.20999999999999	0.0
C 	78.70438869592978	36.919999999999995	0.0
C 	79.93414476930369	36.20999999999999	0.0
C 	81.16390084267759	36.91999999999999	0.0
C 	22.13560932073025	38.33999999999999	0.0
C 	23.365365394104153	39.04999999999999	0.0
C 	24.59512146747806	38.33999999999999	0.0
C 	25.82487754085196	39.04999999999999	0.0
C 	27.05463361422586	38.33999999999999	0.0
C 	28.284389687599763	39.04999999999999	0.0
C 	29.514145760973665	38.33999999999999	0.0
C 	30.74390183434757	39.04999999999999	0.0
C 	31.973657907721474	38.339999999999996	0.0
C 	33.20341398109538	39.04999999999999	0.0
C 	34.43317005446927	38.33999999999999	0.0
C 	35.66292612784318	39.04999999999999	0.0
C 	36.892682201217085	38.33999999999999	0.0
C 	38.12243827459099	39.04999999999999	0.0
C 	39.35219434796489	38.33999999999999	0.0
C 	40.581950421338796	39.04999999999999	0.0
C 	41.811706494712695	38.33999999999999	0.0
C 	43.0414625680866	39.04999999999999	0.0
C 	44.27121864146049	38.33999999999999	0.0
C 	45.5009747148344	39.04999999999999	0.0
C 	46.730730788208305	38.33999999999999	0.0
C 	47.960486861582204	39.04999999999999	0.0
C 	49.19024293495611	38.33999999999999	0.0
C 	50.41999900833002	39.04999999999999	0.0
C 	51.649755081703915	38.33999999999999	0.0
C 	52.879511155077815	39.04999999999999	0.0
C 	54.10926722845173	38.33999999999999	0.0
C 	55.33902330182562	39.04999999999998	0.0
C 	56.568779375199526	38.33999999999999	0.0
C 	57.79853544857343	39.04999999999999	0.0
C 	59.02829152194733	38.33999999999999	0.0
C 	60.25804759532123	39.04999999999999	0.0
C 	61.48780366869513	38.33999999999998	0.0
C 	62.71755974206905	39.04999999999999	0.0
C 	63.94731581544294	38.33999999999999	0.0
C 	65.17707188881685	39.04999999999999	0.0
C 	66.40682796219075	38.33999999999999	0.0
C 	67.63658403556465	39.04999999999999	0.0
C 	68.86634010893856	38.33999999999999	0.0
C 	70.09609618231245	39.04999999999998	0.0
C 	71.32585225568636	38.33999999999999	0.0
C 	72.55560832906025	39.04999999999998	0.0
C 	73.78536440243415	38.33999999999999	0.0
C 	75.01512047580806	39.04999999999999	0.0
C 	76.24487654918197	38.33999999999999	0.0
C 	77.47463262255587	39.05	0.0
C 	78.70438869592977	38.33999999999998	0.0
C 	79.93414476930369	39.04999999999999	0.0
C 	81.16390084267758	38.33999999999998	0.0
C 	82.39365691605148	39.04999999999998	0.0
C 	23.365365394104156	40.46999999999999	0.0
C 	24.59512146747806	41.17999999999999	0.0
C 	25.82487754085196	40.46999999999999	0.0
C 	27.054633614225867	41.17999999999999	0.0
C 	28.284389687599763	40.46999999999999	0.0
C 	29.51414576097367	41.17999999999999	0.0
C 	30.74390183434757	40.46999999999999	0.0
C 	31.973657907721474	41.17999999999999	0.0
C 	33.20341398109537	40.46999999999999	0.0
C 	34.43317005446928	41.17999999999999	0.0
C 	35.66292612784318	40.46999999999999	0.0
C 	36.892682201217085	41.17999999999999	0.0
C 	38.12243827459099	40.46999999999999	0.0
C 	39.3521943479649	41.17999999999999	0.0
C 	40.58195042133879	40.46999999999999	0.0
C 	41.811706494712695	41.17999999999999	0.0
C 	43.0414625680866	40.46999999999999	0.0
C 	44.2712186414605	41.17999999999999	0.0
C 	45.500974714834406	40.46999999999999	0.0
C 	46.73073078820831	41.17999999999999	0.0
C 	47.960486861582204	40.46999999999999	0.0
C 	49.19024293495611	41.17999999999999	0.0
C 	50.41999900833002	40.46999999999999	0.0
C 	51.649755081703915	41.179999999999986	0.0
C 	52.87951115507782	40.46999999999999	0.0
C 	54.10926722845173	41.17999999999999	0.0
C 	55.33902330182563	40.46999999999999	0.0
C 	56.568779375199526	41.17999999999999	0.0
C 	57.798535448573425	40.469999999999985	0.0
C 	59.028291521947345	41.17999999999999	0.0
C 	60.25804759532124	40.46999999999999	0.0
C 	61.48780366869514	41.17999999999999	0.0
C 	62.71755974206904	40.46999999999999	0.0
C 	63.94731581544295	41.17999999999999	0.0
C 	65.17707188881685	40.46999999999999	0.0
C 	66.40682796219075	41.179999999999986	0.0
C 	67.63658403556465	40.46999999999999	0.0
C 	68.86634010893854	41.179999999999986	0.0
C 	70.09609618231246	40.46999999999999	0.0
C 	71.32585225568636	41.17999999999999	0.0
C 	72.55560832906026	40.469999999999985	0.0
C 	73.78536440243417	41.179999999999986	0.0
C 	75.01512047580806	40.469999999999985	0.0
C 	76.24487654918198	41.17999999999999	0.0
C 	77.47463262255587	40.46999999999999	0.0
C 	78.70438869592978	41.17999999999999	0.0
C 	79.93414476930367	40.469999999999985	0.0
C 	81.16390084267758	41.179999999999986	0.0
C 	82.3936569160515	40.46999999999999	0.0
C 	83.62341298942539	41.179999999999986	0.0
C 	24.595121467478055	42.59999999999999	0.0
C 	25.82487754085196	43.30999999999999	0.0
C 	27.05463361422586	42.59999999999999	0.0
C 	28.284389687599766	43.30999999999999	0.0
C 	29.514145760973662	42.59999999999999	0.0
C 	30.743901834347568	43.30999999999999	0.0
C 	31.97365790772147	42.59999999999999	0.0
C 	33.20341398109537	43.30999999999999	0.0
C 	34.43317005446927	42.59999999999999	0.0
C 	35.66292612784318	43.30999999999999	0.0
C 	36.89268220121708	42.59999999999999	0.0
C 	38.122438274590984	43.30999999999999	0.0
C 	39.35219434796489	42.59999999999999	0.0
C 	40.581950421338796	43.30999999999999	0.0
C 	41.81170649471269	42.59999999999999	0.0
C 	43.041462568086594	43.30999999999999	0.0
C 	44.2712186414605	42.59999999999999	0.0
C 	45.5009747148344	43.30999999999999	0.0
C 	46.730730788208305	42.59999999999999	0.0
C 	47.96048686158221	43.30999999999999	0.0
C 	49.19024293495611	42.59999999999999	0.0
C 	50.41999900833001	43.30999999999999	0.0
C 	51.64975508170392	42.599999999999994	0.0
C 	52.879511155077815	43.30999999999999	0.0
C 	54.10926722845172	42.59999999999999	0.0
C 	55.33902330182563	43.30999999999999	0.0
C 	56.568779375199526	42.59999999999999	0.0
C 	57.798535448573425	43.30999999999999	0.0
C 	59.028291521947324	42.59999999999998	0.0
C 	60.258047595321244	43.30999999999999	0.0
C 	61.487803668695136	42.59999999999999	0.0
C 	62.71755974206904	43.30999999999999	0.0
C 	63.94731581544294	42.59999999999999	0.0
C 	65.17707188881684	43.30999999999999	0.0
C 	66.40682796219076	42.599999999999994	0.0
C 	67.63658403556465	43.30999999999999	0.0
C 	68.86634010893856	42.59999999999999	0.0
C 	70.09609618231245	43.30999999999998	0.0
C 	71.32585225568636	42.59999999999999	0.0
C 	72.55560832906026	43.30999999999999	0.0
C 	73.78536440243415	42.59999999999999	0.0
C 	75.01512047580806	43.30999999999999	0.0
C 	76.24487654918197	42.59999999999998	0.0
C 	77.47463262255587	43.30999999999999	0.0
C 	78.70438869592978	42.59999999999999	0.0
C 	79.93414476930367	43.30999999999999	0.0
C 	81.16390084267758	42.59999999999999	0.0
C 	82.39365691605148	43.30999999999999	0.0
C 	83.62341298942539	42.59999999999999	0.0
C 	84.85316906279928	43.30999999999998	0.0
C 	25.82487754085196	44.72999999999999	0.0
C 	27.054633614225864	45.43999999999999	0.0
C 	28.284389687599766	44.72999999999999	0.0
C 	29.514145760973673	45.43999999999999	0.0
C 	30.743901834347568	44.72999999999999	0.0
C 	31.97365790772147	45.43999999999999	0.0
C 	33.20341398109537	44.72999999999999	0.0
C 	34.43317005446928	45.43999999999999	0.0
C 	35.662926127843185	44.72999999999999	0.0
C 	36.892682201217085	45.43999999999999	0.0
C 	38.122438274590984	44.72999999999999	0.0
C 	39.35219434796489	45.43999999999999	0.0
C 	40.581950421338796	44.72999999999999	0.0
C 	41.811706494712695	45.43999999999999	0.0
C 	43.0414625680866	44.72999999999999	0.0
C 	44.27121864146051	45.43999999999999	0.0
C 	45.500974714834406	44.72999999999999	0.0
C 	46.730730788208305	45.43999999999999	0.0
C 	47.960486861582204	44.72999999999999	0.0
C 	49.19024293495611	45.43999999999998	0.0
C 	50.41999900833002	44.72999999999999	0.0
C 	51.64975508170391	45.43999999999998	0.0
C 	52.87951115507782	44.72999999999999	0.0
C 	54.10926722845172	45.43999999999999	0.0
C 	55.33902330182562	44.72999999999998	0.0
C 	56.568779375199526	45.43999999999998	0.0
C 	57.798535448573425	44.72999999999998	0.0
C 	59.02829152194734	45.43999999999999	0.0
C 	60.25804759532124	44.72999999999999	0.0
C 	61.48780366869514	45.43999999999999	0.0
C 	62.717559742069035	44.72999999999998	0.0
C 	63.94731581544294	45.43999999999998	0.0
C 	65.17707188881685	44.72999999999999	0.0
C 	66.40682796219075	45.43999999999998	0.0
C 	67.63658403556465	44.72999999999999	0.0
C 	68.86634010893856	45.43999999999999	0.0
C 	70.09609618231245	44.72999999999999	0.0
C 	71.32585225568636	45.43999999999998	0.0
C 	72.55560832906026	44.72999999999998	0.0
C 	73.78536440243417	45.43999999999999	0.0
C 	75.01512047580806	44.72999999999998	0.0
C 	76.24487654918198	45.43999999999999	0.0
C 	77.47463262255587	44.72999999999999	0.0
C 	78.70438869592978	45.43999999999999	0.0
C 	79.93414476930369	44.72999999999999	0.0
C 	81.16390084267758	45.43999999999998	0.0
C 	82.39365691605148	44.72999999999999	0.0
C 	83.62341298942538	45.43999999999998	0.0
C 	84.8531690627993	44.72999999999998	0.0
C 	86.08292513617319	45.43999999999998	0.0
C 	27.054633614225864	46.85999999999999	0.0
C 	28.28438968759977	47.56999999999999	0.0
C 	29.514145760973673	46.85999999999999	0.0
C 	30.74390183434758	47.56999999999999	0.0
C 	31.973657907721474	46.85999999999999	0.0
C 	33.20341398109538	47.56999999999999	0.0
C 	34.43317005446928	46.85999999999999	0.0
C 	35.662926127843185	47.56999999999999	0.0
C 	36.892682201217085	46.85999999999999	0.0
C 	38.122438274590984	47.56999999999999	0.0
C 	39.35219434796489	46.85999999999999	0.0
C 	40.581950421338796	47.56999999999999	0.0
C 	41.8117064947127	46.85999999999999	0.0
C 	43.0414625680866	47.56999999999999	0.0
C 	44.2712186414605	46.85999999999999	0.0
C 	45.500974714834406	47.56999999999999	0.0
C 	46.73073078820831	46.859999999999985	0.0
C 	47.960486861582204	47.569999999999986	0.0
C 	49.19024293495612	46.85999999999999	0.0
C 	50.41999900833002	47.56999999999999	0.0
C 	51.649755081703915	46.859999999999985	0.0
C 	52.87951115507782	47.569999999999986	0.0
C 	54.10926722845172	46.859999999999985	0.0
C 	55.339023301825634	47.56999999999999	0.0
C 	56.56877937519953	46.85999999999999	0.0
C 	57.79853544857344	47.56999999999999	0.0
C 	59.02829152194733	46.859999999999985	0.0
C 	60.25804759532124	47.569999999999986	0.0
C 	61.48780366869515	46.85999999999999	0.0
C 	62.71755974206904	47.569999999999986	0.0
C 	63.94731581544295	46.85999999999999	0.0
C 	65.17707188881685	47.56999999999999	0.0
C 	66.40682796219075	46.859999999999985	0.0
C 	67.63658403556465	47.569999999999986	0.0
C 	68.86634010893856	46.859999999999985	0.0
C 	70.09609618231246	47.56999999999999	0.0
C 	71.32585225568636	46.859999999999985	0.0
C 	72.55560832906028	47.56999999999999	0.0
C 	73.78536440243417	46.859999999999985	0.0
C 	75.01512047580808	47.569999999999986	0.0
C 	76.24487654918197	46.859999999999985	0.0
C 	77.47463262255587	47.569999999999986	0.0
C 	78.70438869592978	46.85999999999999	0.0
C 	79.93414476930367	47.569999999999986	0.0
C 	81.16390084267758	46.85999999999999	0.0
C 	82.39365691605148	47.56999999999999	0.0
C 	83.62341298942539	46.859999999999985	0.0
C 	84.8531690627993	47.569999999999986	0.0
C 	86.08292513617319	46.85999999999998	0.0
C 	87.31268120954711	47.569999999999986	0.0
C 	28.284389687599763	48.98999999999999	0.0
C 	29.51414576097367	49.69999999999999	0.0
C 	30.74390183434757	48.98999999999999	0.0
C 	31.973657907721478	49.69999999999999	0.0
C 	33.20341398109537	48.98999999999999	0.0
C 	34.43317005446928	49.69999999999999	0.0
C 	35.66292612784318	48.98999999999999	0.0
C 	36.892682201217085	49.69999999999999	0.0
C 	38.122438274590984	48.98999999999999	0.0
C 	39.35219434796488	49.69999999999999	0.0
C 	40.58195042133879	48.98999999999999	0.0
C 	41.811706494712695	49.69999999999999	0.0
C 	43.041462568086594	48.98999999999999	0.0
C 	44.2712186414605	49.69999999999999	0.0
C 	45.5009747148344	48.98999999999999	0.0
C 	46.730730788208305	49.69999999999998	0.0
C 	47.96048686158221	48.98999999999999	0.0
C 	49.1902429349561	49.69999999999998	0.0
C 	50.41999900833002	48.98999999999999	0.0
C 	51.64975508170392	49.69999999999999	0.0
C 	52.879511155077815	48.98999999999999	0.0
C 	54.10926722845172	49.69999999999999	0.0
C 	55.33902330182562	48.98999999999998	0.0
C 	56.56877937519953	49.69999999999999	0.0
C 	57.79853544857343	48.98999999999999	0.0
C 	59.02829152194734	49.69999999999999	0.0
C 	60.25804759532124	48.98999999999999	0.0
C 	61.487803668695136	49.69999999999999	0.0
C 	62.71755974206905	48.98999999999999	0.0
C 	63.94731581544294	49.69999999999998	0.0
C 	65.17707188881685	48.98999999999999	0.0
C 	66.40682796219075	49.69999999999999	0.0
C 	67.63658403556465	48.98999999999999	0.0
C 	68.86634010893856	49.69999999999999	0.0
C 	70.09609618231245	48.98999999999998	0.0
C 	71.32585225568637	49.69999999999999	0.0
C 	72.55560832906025	48.98999999999998	0.0
C 	73.78536440243417	49.69999999999999	0.0
C 	75.01512047580806	48.98999999999999	0.0
C 	76.24487654918197	49.69999999999999	0.0
C 	77.47463262255587	48.98999999999998	0.0
C 	78.70438869592978	49.69999999999998	0.0
C 	79.93414476930369	48.98999999999999	0.0
C 	81.16390084267758	49.69999999999998	0.0
C 	82.39365691605148	48.98999999999999	0.0
C 	83.62341298942539	49.69999999999999	0.0
C 	84.85316906279928	48.98999999999998	0.0
C 	86.08292513617319	49.69999999999998	0.0
C 	87.3126812095471	48.98999999999998	0.0
C 	88.542437282921	49.69999999999999	0.0
C 	29.51414576097367	51.11999999999999	0.0
C 	30.74390183434757	51.82999999999999	0.0
C 	31.973657907721474	51.11999999999999	0.0
C 	33.20341398109538	51.82999999999999	0.0
C 	34.43317005446928	51.11999999999999	0.0
C 	35.66292612784318	51.82999999999999	0.0
C 	36.892682201217085	51.11999999999999	0.0
C 	38.12243827459099	51.82999999999999	0.0
C 	39.35219434796489	51.12	0.0
C 	40.581950421338796	51.83	0.0
C 	41.811706494712695	51.11999999999999	0.0
C 	43.041462568086594	51.82999999999999	0.0
C 	44.2712186414605	51.12	0.0
C 	45.5009747148344	51.82999999999999	0.0
C 	46.73073078820831	51.11999999999999	0.0
C 	47.96048686158221	51.82999999999999	0.0
C 	49.19024293495611	51.11999999999999	0.0
C 	50.41999900833002	51.82999999999999	0.0
C 	51.649755081703915	51.11999999999998	0.0
C 	52.879511155077815	51.829999999999984	0.0
C 	54.10926722845171	51.11999999999999	0.0
C 	55.33902330182563	51.83	0.0
C 	56.568779375199526	51.11999999999999	0.0
C 	57.79853544857343	51.82999999999999	0.0
C 	59.02829152194733	51.11999999999999	0.0
C 	60.25804759532124	51.82999999999999	0.0
C 	61.48780366869514	51.11999999999999	0.0
C 	62.717559742069035	51.829999999999984	0.0
C 	63.94731581544295	51.11999999999999	0.0
C 	65.17707188881685	51.82999999999999	0.0
C 	66.40682796219075	51.11999999999999	0.0
C 	67.63658403556465	51.82999999999999	0.0
C 	68.86634010893854	51.11999999999998	0.0
C 	70.09609618231246	51.82999999999999	0.0
C 	71.32585225568636	51.11999999999999	0.0
C 	72.55560832906026	51.82999999999999	0.0
C 	73.78536440243417	51.11999999999999	0.0
C 	75.01512047580806	51.82999999999999	0.0
C 	76.24487654918198	51.11999999999999	0.0
C 	77.47463262255587	51.829999999999984	0.0
C 	78.70438869592978	51.11999999999999	0.0
C 	79.93414476930367	51.829999999999984	0.0
C 	81.16390084267758	51.11999999999999	0.0
C 	82.39365691605148	51.82999999999999	0.0
C 	83.62341298942538	51.11999999999998	0.0
C 	84.8531690627993	51.82999999999999	0.0
C 	86.08292513617319	51.11999999999998	0.0
C 	87.3126812095471	51.82999999999999	0.0
C 	88.542437282921	51.11999999999998	0.0
C 	89.7721933562949	51.829999999999984	0.0
C 	51.6688723233373	-0.20305869759638775	2.15
C 	52.92032322526959	0.46796338851767	2.15
C 	52.964926503160534	1.8872627042370107	2.15
C 	54.216377405092814	2.5582847903510615	2.15
C 	54.26098068298376	3.9775841060704025	2.15
C 	55.51243158491605	4.64860619218446	2.15
C 	55.557034862806994	6.0679055079038005	2.15
C 	56.808485764739274	6.738927594017858	2.15
C 	56.85308904263022	8.1582269097372	2.15
C 	58.10453994456251	8.82924899585125	2.15
C 	58.14914322245345	10.248548311570591	2.15
C 	59.400594124385734	10.919570397684648	2.15
C 	59.445197402276676	12.338869713403989	2.15
C 	60.69664830420897	13.009891799518048	2.15
C 	60.74125158209991	14.429191115237387	2.15
C 	61.9927024840322	15.100213201351439	2.15
C 	62.03730576192314	16.51951251707078	2.15
C 	63.28875666385544	17.190534603184837	2.15
C 	63.33335994174638	18.609833918904176	2.15
C 	64.58481084367865	19.280856005018236	2.15
C 	64.6294141215696	20.700155320737576	2.15
C 	65.8808650235019	21.371177406851626	2.15
C 	65.92546830139284	22.79047672257097	2.15
C 	67.17691920332513	23.46149880868502	2.15
C 	67.22152248121607	24.880798124404357	2.15
C 	68.47297338314836	25.551820210518425	2.15
C 	68.5175766610393	26.971119526237764	2.15
C 	69.76902756297159	27.642141612351814	2.15
C 	69.81363084086253	29.061440928071157	2.15
C 	71.06508174279482	29.732463014185207	2.15
C 	71.10968502068576	31.151762329904546	2.15
C 	72.36113592261805	31.822784416018614	2.15
C 	72.40573920050899	33.24208373173796	2.15
C 	73.65719010244128	33.913105817852006	2.15
C 	73.70179338033222	35.33240513357134	2.15
C 	74.95324428226452	36.00342721968539	2.15
C 	74.99784756015546	37.422726535404735	2.15
C 	49.21057379736366	-0.12580355410516256	2.15
C 	50.462024699295945	0.5452185320088955	2.15
C 	50.50662797718689	1.9645178477282361	2.15
C 	51.75807887911918	2.635539933842294	2.15
C 	51.802682157010125	4.054839249561635	2.15
C 	53.05413305894242	4.725861335675686	2.15
C 	53.09873633683336	6.145160651395026	2.15
C 	54.35018723876564	6.8161827375090835	2.15
C 	54.394790516656585	8.235482053228424	2.15
C 	55.64624141858887	8.906504139342482	2.15
C 	55.690844696479815	10.325803455061823	2.15
C 	56.9422955984121	10.996825541175873	2.15
C 	56.986898876303044	12.416124856895214	2.15
C 	58.23834977823534	13.087146943009271	2.15
C 	58.28295305612628	14.506446258728612	2.15
C 	59.53440395805857	15.177468344842671	2.15
C 	59.57900723594951	16.596767660562012	2.15
C 	60.83045813788179	17.267789746676062	2.15
C 	60.875061415772734	18.687089062395405	2.15
C 	62.12651231770503	19.35811114850946	2.15
C 	62.17111559559597	20.7774104642288	2.15
C 	63.422566497528265	21.448432550342858	2.15
C 	63.4671697754192	22.8677318660622	2.15
C 	64.7186206773515	23.53875395217625	2.15
C 	64.76322395524244	24.95805326789559	2.15
C 	66.01467485717474	25.629075354009643	2.15
C 	66.05927813506568	27.048374669728982	2.15
C 	67.31072903699794	27.719396755843047	2.15
C 	67.35533231488888	29.13869607156239	2.15
C 	68.60678321682119	29.80971815767644	2.15
C 	68.65138649471211	31.22901747339578	2.15
C 	69.90283739664441	31.900039559509832	2.15
C 	69.94744067453536	33.31933887522917	2.15
C 	71.19889157646764	33.990360961343235	2.15
C 	71.24349485435859	35.40966027706258	2.15
C 	72.49494575629087	36.08068236317663	2.15
C 	72.53954903418182	37.49998167889597	2.15
C 	73.7909999361141	38.17100376501002	2.15
C 	73.83560321400505	39.590303080729356	2.15
C 	46.752275271390026	-0.04854841061393736	2.15
C 	48.00372617332232	0.6224736755001133	2.15
C 	48.04832945121326	2.041772991219454	2.15
C 	49.29978035314554	2.712795077333512	2.15
C 	49.344383631036486	4.132094393052853	2.15
C 	50.59583453296877	4.803116479166911	2.15
C 	50.640437810859716	6.222415794886251	2.15
C 	51.891888712792	6.893437881000302	2.15
C 	51.936491990682946	8.312737196719642	2.15
C 	53.18794289261524	8.9837592828337	2.15
C 	53.23254617050618	10.403058598553041	2.15
C 	54.48399707243847	11.074080684667098	2.15
C 	54.52860035032941	12.49338000038644	2.15
C 	55.7800512522617	13.16440208650049	2.15
C 	55.82465453015264	14.58370140221983	2.15
C 	57.07610543208493	15.25472348833389	2.15
C 	57.12070870997587	16.67402280405323	2.15
C 	58.37215961190817	17.345044890167287	2.15
C 	58.41676288979911	18.764344205886626	2.15
C 	59.66821379173139	19.43536629200068	2.15
C 	59.71281706962233	20.85466560772002	2.15
C 	60.96426797155463	21.525687693834076	2.15
C 	61.00887124944556	22.94498700955342	2.15
C 	62.26032215137785	23.616009095667476	2.15
C 	62.30492542926879	25.035308411386815	2.15
C 	63.556376331201086	25.70633049750087	2.15
C 	63.60097960909203	27.125629813220208	2.15
C 	64.85243051102432	27.796651899334258	2.15
C 	64.89703378891527	29.2159512150536	2.15
C 	66.14848469084755	29.886973301167664	2.15
C 	66.19308796873848	31.306272616887004	2.15
C 	67.44453887067078	31.977294703001053	2.15
C 	67.48914214856173	33.39659401872039	2.15
C 	68.740593050494	34.06761610483445	2.15
C 	68.78519632838494	35.486915420553785	2.15
C 	70.03664723031724	36.15793750666785	2.15
C 	70.08125050820819	37.57723682238719	2.15
C 	71.33270141014047	38.24825890850124	2.15
C 	71.37730468803142	39.667558224220585	2.15
C 	72.6287555899637	40.338580310334635	2.15
C 	72.67335886785465	41.75787962605398	2.15
C 	44.29397674541639	0.028706732877287842	2.15
C 	45.545427647348674	0.6997288189913456	2.15
C 	45.59003092523962	2.1190281347106863	2.15
C 	46.84148182717191	2.790050220824737	2.15
C 	46.886085105062854	4.209349536544078	2.15
C 	48.13753600699515	4.880371622658136	2.15
C 	48.18213928488609	6.299670938377476	2.15
C 	49.433590186818364	6.970693024491534	2.15
C 	49.47819346470931	8.389992340210874	2.15
C 	50.729644366641594	9.061014426324926	2.15
C 	50.77424764453254	10.480313742044267	2.15
C 	52.02569854646483	11.151335828158324	2.15
C 	52.070301824355774	12.570635143877665	2.15
C 	53.32175272628807	13.241657229991722	2.15
C 	53.36635600417901	14.660956545711063	2.15
C 	54.6178069061113	15.331978631825114	2.15
C 	54.66241018400224	16.751277947544455	2.15
C 	55.91386108593452	17.422300033658512	2.15
C 	55.95846436382546	18.84159934937785	2.15
C 	57.20991526575776	19.512621435491912	2.15
C 	57.2545185436487	20.93192075121125	2.15
C 	58.505969445580995	21.6029428373253	2.15
C 	58.55057272347193	23.022242153044644	2.15
C 	59.80202362540422	23.6932642391587	2.15
C 	59.84662690329516	25.11256355487804	2.15
C 	61.09807780522744	25.7835856409921	2.15
C 	61.14268108311838	27.20288495671144	2.15
C 	62.39413198505068	27.87390704282549	2.15
C 	62.43873526294162	29.293206358544833	2.15
C 	63.690186164873914	29.964228444658882	2.15
C 	63.73478944276486	31.38352776037822	2.15
C 	64.98624034469714	32.054549846492286	2.15
C 	65.03084362258808	33.47384916221163	2.15
C 	66.28229452452038	34.14487124832568	2.15
C 	66.32689780241132	35.56417056404502	2.15
C 	67.5783487043436	36.23519265015907	2.15
C 	67.62295198223454	37.654491965878414	2.15
C 	68.87440288416683	38.32551405199248	2.15
C 	68.91900616205777	39.744813367711814	2.15
C 	70.17045706399007	40.41583545382587	2.15
C 	70.21506034188101	41.835134769545206	2.15
C 	71.4665112438133	42.506156855659256	2.15
C 	71.51111452170424	43.9254561713786	2.15
C 	41.835678219442755	0.10596187636851304	2.15
C 	43.08712912137505	0.7769839624825635	2.15
C 	43.13173239926599	2.1962832782019044	2.15
C 	44.38318330119827	2.8673053643159623	2.15
C 	44.427786579089215	4.286604680035303	2.15
C 	45.6792374810215	4.957626766149354	2.15
C 	45.72384075891244	6.376926081868694	2.15
C 	46.97529166084473	7.047948167982752	2.15
C 	47.019894938735675	8.467247483702092	2.15
C 	48.27134584066797	9.138269569816151	2.15
C 	48.31594911855891	10.557568885535492	2.15
C 	49.56740002049119	11.228590971649542	2.15
C 	49.612003298382135	12.647890287368883	2.15
C 	50.86345420031443	13.31891237348294	2.15
C 	50.90805747820537	14.73821168920228	2.15
C 	52.15950838013766	15.40923377531634	2.15
C 	52.2041116580286	16.82853309103568	2.15
C 	53.455562559960896	17.49955517714973	2.15
C 	53.50016583785184	18.91885449286907	2.15
C 	54.75161673978412	19.58987657898313	2.15
C 	54.79622001767506	21.00917589470247	2.15
C 	56.047670919607356	21.680197980816526	2.15
C 	56.09227419749829	23.09949729653587	2.15
C 	57.34372509943058	23.77051938264992	2.15
C 	57.38832837732152	25.18981869836926	2.15
C 	58.639779279253816	25.86084078448332	2.15
C 	58.68438255714476	27.280140100202658	2.15
C 	59.93583345907704	27.951162186316715	2.15
C 	59.98043673696798	29.370461502036058	2.15
C 	61.231887638900275	30.041483588150108	2.15
C 	61.27649091679122	31.460782903869447	2.15
C 	62.52794181872351	32.1318049899835	2.15
C 	62.572545096614455	33.551104305702836	2.15
C 	63.82399599854674	34.22212639181691	2.15
C 	63.868599276437685	35.64142570753624	2.15
C 	65.12005017836997	36.31244779365029	2.15
C 	65.16465345626091	37.731747109369635	2.15
C 	66.4161043581932	38.402769195483685	2.15
C 	66.46070763608414	39.82206851120303	2.15
C 	67.71215853801644	40.49309059731709	2.15
C 	67.75676181590738	41.912389913036435	2.15
C 	69.00821271783965	42.583411999150485	2.15
C 	69.0528159957306	44.00271131486983	2.15
C 	70.3042668976629	44.67373340098388	2.15
C 	70.34887017555383	46.09303271670321	2.15
C 	39.377379693469116	0.183217019859738	2.15
C 	40.6288305954014	0.854239105973796	2.15
C 	40.673433873292346	2.2735384216931367	2.15
C 	41.92488477522464	2.9445605078071875	2.15
C 	41.96948805311558	4.3638598235265285	2.15
C 	43.22093895504788	5.0348819096405855	2.15
C 	43.26554223293882	6.454181225359926	2.15
C 	44.51699313487109	7.125203311473977	2.15
C 	44.561596412762036	8.544502627193317	2.15
C 	45.81304731469432	9.215524713307376	2.15
C 	45.857650592585266	10.634824029026717	2.15
C 	47.10910149451756	11.305846115140774	2.15
C 	47.1537047724085	12.725145430860115	2.15
C 	48.4051556743408	13.396167516974165	2.15
C 	48.44975895223174	14.815466832693506	2.15
C 	49.70120985416403	15.486488918807565	2.15
C 	49.74581313205497	16.905788234526906	2.15
C 	50.99726403398726	17.576810320640963	2.15
C 	51.0418673118782	18.996109636360302	2.15
C 	52.29331821381049	19.667131722474355	2.15
C 	52.33792149170143	21.086431038193695	2.15
C 	53.589372393633724	21.75745312430775	2.15
C 	53.63397567152466	23.176752440027094	2.15
C 	54.88542657345695	23.84777452614115	2.15
C 	54.93002985134789	25.26707384186049	2.15
C 	56.18148075328017	25.938095927974544	2.15
C 	56.22608403117111	27.357395243693883	2.15
C 	57.477534933103406	28.02841732980794	2.15
C 	57.52213821099435	29.447716645527283	2.15
C 	58.77358911292664	30.11873873164134	2.15
C 	58.818192390817586	31.53803804736068	2.15
C 	60.06964329274987	32.20906013347473	2.15
C 	60.114246570640816	33.62835944919407	2.15
C 	61.36569747257311	34.29938153530812	2.15
C 	61.41030075046405	35.718680851027464	2.15
C 	62.66175165239633	36.38970293714153	2.15
C 	62.706354930287276	37.80900225286087	2.15
C 	63.95780583221956	38.48002433897492	2.15
C 	64.0024091101105	39.89932365469426	2.15
C 	65.2538600120428	40.570345740808314	2.15
C 	65.29846328993374	41.98964505652765	2.15
C 	66.54991419186604	42.660667142641714	2.15
C 	66.59451746975698	44.079966458361056	2.15
C 	67.84596837168925	44.750988544475106	2.15
C 	67.89057164958018	46.17028786019445	2.15
C 	69.14202255151248	46.8413099463085	2.15
C 	36.919081167495484	0.2604721633509597	2.15
C 	38.17053206942777	0.9314942494650175	2.15
C 	38.215135347318714	2.350793565184355	2.15
C 	39.466586249251	3.021815651298416	2.15
C 	39.511189527141944	4.441114967017753	2.15
C 	40.76264042907423	5.112137053131808	2.15
C 	40.80724370696517	6.5314363688511445	2.15
C 	42.05869460889746	7.202458454965206	2.15
C 	42.103297886788404	8.621757770684543	2.15
C 	43.3547487887207	9.292779856798598	2.15
C 	43.39935206661164	10.712079172517935	2.15
C 	44.65080296854392	11.383101258631996	2.15
C 	44.695406246434864	12.802400574351333	2.15
C 	45.94685714836715	13.473422660465394	2.15
C 	45.991460426258094	14.892721976184731	2.15
C 	47.24291132819039	15.563744062298786	2.15
C 	47.28751460608133	16.983043378018124	2.15
C 	48.538965508013625	17.654065464132184	2.15
C 	48.58356878590457	19.07336477985152	2.15
C 	49.835019687836855	19.744386865965584	2.15
C 	49.8796229657278	21.16368618168492	2.15
C 	51.131073867660085	21.834708267798973	2.15
C 	51.17567714555102	23.254007583518312	2.15
C 	52.42712804748331	23.925029669632373	2.15
C 	52.47173132537425	25.34432898535171	2.15
C 	53.723182227306545	26.015351071465773	2.15
C 	53.76778550519749	27.43465038718511	2.15
C 	55.01923640712977	28.105672473299162	2.15
C 	55.06383968502071	29.5249717890185	2.15
C 	56.315290586953004	30.19599387513256	2.15
C 	56.35989386484395	31.615293190851897	2.15
C 	57.611344766776234	32.28631527696596	2.15
C 	57.65594804466718	33.7056145926853	2.15
C 	58.90739894659947	34.37663667879935	2.15
C 	58.952002224490414	35.795935994518686	2.15
C 	60.2034531264227	36.466958080632736	2.15
C 	60.24805640431364	37.88625739635208	2.15
C 	61.499507306245924	38.55727948246614	2.15
C 	61.54411058413687	39.976578798185486	2.15
C 	62.79556148606916	40.647600884299536	2.15
C 	62.840164763960104	42.06690020001888	2.15
C 	64.09161566589239	42.73792228613293	2.15
C 	64.13621894378333	44.15722160185227	2.15
C 	65.38766984571562	44.828243687966335	2.15
C 	65.43227312360656	46.24754300368567	2.15
C 	66.68372402553885	46.91856508979973	2.15
C 	34.460782641521845	0.33772730684218843	2.15
C 	35.71223354345413	1.0087493929562428	2.15
C 	35.756836821345075	2.4280487086755835	2.15
C 	37.00828772327737	3.0990707947896374	2.15
C 	37.05289100116831	4.518370110508978	2.15
C 	38.3043419031006	5.189392196623036	2.15
C 	38.34894518099154	6.608691512342377	2.15
C 	39.60039608292382	7.279713598456428	2.15
C 	39.644999360814765	8.699012914175768	2.15
C 	40.89645026274705	9.370035000289826	2.15
C 	40.941053540637995	10.789334316009167	2.15
C 	42.19250444257029	11.460356402123217	2.15
C 	42.23710772046123	12.879655717842558	2.15
C 	43.488558622393526	13.550677803956615	2.15
C 	43.53316190028447	14.969977119675956	2.15
C 	44.78461280221675	15.640999205790015	2.15
C 	44.82921608010769	17.060298521509356	2.15
C 	46.08066698203998	17.731320607623406	2.15
C 	46.12527025993092	19.150619923342745	2.15
C 	47.376721161863216	19.821642009456806	2.15
C 	47.42132443975416	21.240941325176145	2.15
C 	48.67277534168645	21.911963411290202	2.15
C 	48.71737861957739	23.331262727009545	2.15
C 	49.968829521509676	24.002284813123595	2.15
C 	50.01343279940062	25.421584128842934	2.15
C 	51.2648837013329	26.092606214956994	2.15
C 	51.30948697922384	27.511905530676334	2.15
C 	52.560937881156136	28.18292761679039	2.15
C 	52.60554115904708	29.602226932509733	2.15
C 	53.85699206097937	30.273249018623783	2.15
C 	53.901595338870315	31.692548334343122	2.15
C 	55.1530462408026	32.36357042045718	2.15
C 	55.197649518693545	33.78286973617652	2.15
C 	56.449100420625825	34.45389182229058	2.15
C 	56.49370369851677	35.87319113800992	2.15
C 	57.74515460044906	36.54421322412397	2.15
C 	57.78975787834	37.963512539843315	2.15
C 	59.04120878027229	38.634534625957365	2.15
C 	59.085812058163235	40.0538339416767	2.15
C 	60.33726296009552	40.72485602779077	2.15
C 	60.381866237986465	42.14415534351011	2.15
C 	61.63331713991876	42.81517742962416	2.15
C 	61.6779204178097	44.2344767453435	2.15
C 	62.92937131974198	44.90549883145755	2.15
C 	32.00248411554821	0.41498245033341363	2.15
C 	33.2539350174805	1.086004536447471	2.15
C 	33.29853829537144	2.505303852166812	2.15
C 	34.54998919730373	3.176325938280866	2.15
C 	34.59459247519467	4.595625254000207	2.15
C 	35.84604337712696	5.266647340114262	2.15
C 	35.8906466550179	6.685946655833602	2.15
C 	37.14209755695019	7.35696874194766	2.15
C 	37.18670083484113	8.776268057667	2.15
C 	38.43815173677342	9.447290143781052	2.15
C 	38.48275501466436	10.866589459500393	2.15
C 	39.73420591659665	11.53761154561445	2.15
C 	39.77880919448759	12.95691086133379	2.15
C 	41.03026009641988	13.62793294744784	2.15
C 	41.07486337431082	15.047232263167182	2.15
C 	42.32631427624312	15.71825434928124	2.15
C 	42.37091755413406	17.13755366500058	2.15
C 	43.622368456066354	17.80857575111464	2.15
C 	43.6669717339573	19.227875066833978	2.15
C 	44.91842263588958	19.89889715294803	2.15
C 	44.96302591378052	21.31819646866737	2.15
C 	46.214476815712814	21.989218554781427	2.15
C 	46.25908009360375	23.40851787050077	2.15
C 	47.51053099553604	24.079539956614827	2.15
C 	47.55513427342698	25.498839272334166	2.15
C 	48.806585175359274	26.16986135844822	2.15
C 	48.85118845325022	27.58916067416756	2.15
C 	50.1026393551825	28.260182760281616	2.15
C 	50.14724263307344	29.67948207600096	2.15
C 	51.398693535005734	30.350504162115016	2.15
C 	51.443296812896676	31.769803477834355	2.15
C 	52.694747714828964	32.44082556394841	2.15
C 	52.739350992719906	33.860124879667744	2.15
C 	53.9908018946522	34.53114696578181	2.15
C 	54.03540517254314	35.950446281501144	2.15
C 	55.28685607447542	36.6214683676152	2.15
C 	55.331459352366366	38.04076768333454	2.15
C 	56.58291025429865	38.71178976944859	2.15
C 	56.627513532189596	40.131089085167936	2.15
C 	57.87896443412189	40.802111171281986	2.15
C 	57.92356771201283	42.22141048700133	2.15
C 	59.17501861394512	42.89243257311539	2.15
C 	59.21962189183606	44.311731888834736	2.15
C 	60.47107279376835	44.982753974948785	2.15
C 	29.544185589574575	0.49223759382463517	2.15
C 	30.795636491506865	1.163259679938693	2.15
C 	30.840239769397808	2.58255899565803	2.15
C 	32.09169067133009	3.2535810817720914	2.15
C 	32.136293949221034	4.672880397491428	2.15
C 	33.38774485115333	5.343902483605486	2.15
C 	33.43234812904427	6.763201799324824	2.15
C 	34.68379903097655	7.434223885438882	2.15
C 	34.728402308867494	8.853523201158218	2.15
C 	35.97985321079978	9.52454528727228	2.15
C 	36.024456488690724	10.943844602991618	2.15
C 	37.27590739062302	11.614866689105671	2.15
C 	37.32051066851396	13.034166004825009	2.15
C 	38.57196157044625	13.70518809093907	2.15
C 	38.61656484833719	15.124487406658407	2.15
C 	39.86801575026948	15.795509492772462	2.15
C 	39.91261902816042	17.2148088084918	2.15
C 	41.16406993009271	17.88583089460586	2.15
C 	41.20867320798365	19.305130210325196	2.15
C 	42.460124109915945	19.97615229643926	2.15
C 	42.50472738780689	21.395451612158595	2.15
C 	43.75617828973918	22.06647369827265	2.15
C 	43.80078156763012	23.485773013991988	2.15
C 	45.052232469562405	24.15679510010605	2.15
C 	45.09683574745335	25.576094415825384	2.15
C 	46.348286649385635	26.24711650193945	2.15
C 	46.39288992727658	27.666415817658784	2.15
C 	47.644340829208865	28.337437903772837	2.15
C 	47.68894410709981	29.756737219492177	2.15
C 	48.9403950090321	30.427759305606237	2.15
C 	48.984998286923044	31.847058621325573	2.15
C 	50.23644918885533	32.51808070743963	2.15
C 	50.281052466746274	33.93738002315897	2.15
C 	51.532503368678555	34.60840210927302	2.15
C 	51.5771066465695	36.027701424992365	2.15
C 	52.82855754850179	36.69872351110643	2.15
C 	52.87316082639273	38.118022826825765	2.15
C 	54.12461172832502	38.78904491293982	2.15
C 	54.169215006215964	40.20834422865916	2.15
C 	55.42066590814825	40.879366314773215	2.15
C 	55.465269186039194	42.29866563049255	2.15
C 	56.71672008797149	42.9696877166066	2.15
C 	56.76132336586243	44.38898703232594	2.15
C 	58.01277426779471	45.06000911844001	2.15
C 	27.085887063600936	0.569492737315864	2.15
C 	28.337337965533226	1.2405148234299181	2.15
C 	28.38194124342417	2.659814139149259	2.15
C 	29.633392145356456	3.330836225263313	2.15
C 	29.6779954232474	4.750135540982654	2.15
C 	30.929446325179686	5.4211576270967115	2.15
C 	30.97404960307063	6.840456942816052	2.15
C 	32.22550050500292	7.511479028930107	2.15
C 	32.27010378289386	8.930778344649447	2.15
C 	33.52155468482614	9.601800430763502	2.15
C 	33.566157962717085	11.021099746482843	2.15
C 	34.81760886464938	11.6921218325969	2.15
C 	34.86221214254032	13.111421148316241	2.15
C 	36.11366304447261	13.782443234430291	2.15
C 	36.15826632236355	15.201742550149632	2.15
C 	37.40971722429585	15.87276463626369	2.15
C 	37.45432050218679	17.29206395198303	2.15
C 	38.70577140411907	17.96308603809708	2.15
C 	38.75037468201001	19.38238535381642	2.15
C 	40.001825583942306	20.05340743993048	2.15
C 	40.04642886183325	21.47270675564982	2.15
C 	41.297879763765536	22.143728841763878	2.15
C 	41.34248304165647	23.56302815748322	2.15
C 	42.593933943588766	24.23405024359727	2.15
C 	42.63853722147971	25.65334955931661	2.15
C 	43.889988123412	26.32437164543067	2.15
C 	43.934591401302946	27.74367096115001	2.15
C 	45.186042303235226	28.414693047264066	2.15
C 	45.23064558112617	29.83399236298341	2.15
C 	46.48209648305846	30.50501444909746	2.15
C 	46.526699760949406	31.924313764816798	2.15
C 	47.77815066288169	32.59533585093086	2.15
C 	47.822753940772635	34.014635166650194	2.15
C 	49.07420484270493	34.68565725276426	2.15
C 	49.11880812059587	36.104956568483594	2.15
C 	50.37025902252815	36.775978654597644	2.15
C 	50.41486230041909	38.19527797031699	2.15
C 	51.66631320235138	38.866300056431044	2.15
C 	51.710916480242325	40.285599372150386	2.15
C 	52.96236738217461	40.95662145826444	2.15
C 	53.006970660065555	42.375920773983786	2.15
C 	54.25842156199785	43.046942860097836	2.15
C 	54.30302483988879	44.46624217581718	2.15
C 	55.55447574182108	45.13726426193123	2.15
C 	24.6275885376273	0.6467478808070891	2.15
C 	25.87903943955959	1.317769966921147	2.15
C 	25.923642717450534	2.7370692826404874	2.15
C 	27.17509361938282	3.4080913687545418	2.15
C 	27.219696897273764	4.827390684473882	2.15
C 	28.47114779920605	5.498412770587937	2.15
C 	28.515751077096994	6.917712086307278	2.15
C 	29.767201979029284	7.5887341724213355	2.15
C 	29.811805256920227	9.008033488140676	2.15
C 	31.063256158852514	9.67905557425473	2.15
C 	31.107859436743457	11.098354889974072	2.15
C 	32.35931033867575	11.769376976088125	2.15
C 	32.40391361656669	13.188676291807466	2.15
C 	33.65536451849897	13.859698377921523	2.15
C 	33.69996779638991	15.278997693640864	2.15
C 	34.95141869832221	15.950019779754916	2.15
C 	34.99602197621315	17.369319095474257	2.15
C 	36.24747287814544	18.040341181588314	2.15
C 	36.29207615603638	19.459640497307653	2.15
C 	37.543527057968674	20.130662583421707	2.15
C 	37.58813033585962	21.549961899141046	2.15
C 	38.8395812377919	22.220983985255103	2.15
C 	38.88418451568283	23.640283300974446	2.15
C 	40.13563541761513	24.311305387088503	2.15
C 	40.18023869550607	25.73060470280784	2.15
C 	41.43168959743836	26.401626788921895	2.15
C 	41.4762928753293	27.820926104641234	2.15
C 	42.727743777261594	28.49194819075529	2.15
C 	42.77234705515254	29.911247506474634	2.15
C 	44.02379795708483	30.58226959258869	2.15
C 	44.068401234975774	32.00156890830803	2.15
C 	45.319852136908054	32.67259099442208	2.15
C 	45.364455414799	34.09189031014142	2.15
C 	46.615906316731284	34.76291239625548	2.15
C 	46.660509594622226	36.18221171197482	2.15
C 	47.91196049655452	36.85323379808888	2.15
C 	47.95656377444546	38.27253311380822	2.15
C 	49.20801467637774	38.94355519992227	2.15
C 	49.252617954268686	40.36285451564161	2.15
C 	50.50406885620097	41.03387660175567	2.15
C 	50.548672134091916	42.45317591747501	2.15
C 	51.8001230360242	43.124198003589065	2.15
C 	51.844726313915146	44.54349731930841	2.15
C 	53.09617721584744	45.21451940542246	2.15
C 	22.169290011653665	0.7240030242983108	2.15
C 	23.420740913585956	1.3950251104123685	2.15
C 	23.4653441914769	2.8143244261317055	2.15
C 	24.716795093409182	3.485346512245767	2.15
C 	24.761398371300125	4.904645827965104	2.15
C 	26.012849273232415	5.575667914079162	2.15
C 	26.057452551123358	6.994967229798499	2.15
C 	27.30890345305565	7.665989315912557	2.15
C 	27.35350673094659	9.085288631631894	2.15
C 	28.60495763287888	9.756310717745956	2.15
C 	28.649560910769818	11.175610033465293	2.15
C 	29.90101181270211	11.84663211957935	2.15
C 	29.94561509059305	13.265931435298688	2.15
C 	31.19706599252534	13.936953521412745	2.15
C 	31.24166927041628	15.356252837132082	2.15
C 	32.49312017234857	16.027274923246143	2.15
C 	32.53772345023951	17.446574238965482	2.15
C 	33.7891743521718	18.117596325079536	2.15
C 	33.83377763006274	19.53689564079887	2.15
C 	35.085228531995035	20.207917726912935	2.15
C 	35.12983180988598	21.62721704263227	2.15
C 	36.381282711818265	22.298239128746324	2.15
C 	36.4258859897092	23.717538444465664	2.15
C 	37.677336891641495	24.388560530579724	2.15
C 	37.72194016953244	25.80785984629906	2.15
C 	38.97339107146472	26.478881932413124	2.15
C 	39.01799434935566	27.89818124813246	2.15
C 	40.269445251287955	28.569203334246513	2.15
C 	40.3140485291789	29.988502649965852	2.15
C 	41.56549943111119	30.659524736079913	2.15
C 	41.610102709002135	32.07882405179925	2.15
C 	42.86155361093442	32.74984613791331	2.15
C 	42.906156888825365	34.169145453632645	2.15
C 	44.15760779075766	34.8401675397467	2.15
C 	44.2022110686486	36.25946685546604	2.15
C 	45.45366197058088	36.9304889415801	2.15
C 	45.49826524847182	38.34978825729944	2.15
C 	46.74971615040411	39.020810343413494	2.15
C 	46.794319428295054	40.44010965913284	2.15
C 	48.04577033022734	41.11113174524689	2.15
C 	48.090373608118284	42.53043106096623	2.15
C 	49.34182451005058	43.201453147080294	2.15
C 	49.38642778794152	44.62075246279963	2.15
C 	50.6378786898738	45.291774548913686	2.15
C 	19.71099148568003	0.8012581677895376	2.15
C 	20.96244238761232	1.4722802539035937	2.15
C 	21.007045665503263	2.8915795696229325	2.15
C 	22.258496567435547	3.5626016557369886	2.15
C 	22.30309984532649	4.981900971456327	2.15
C 	23.55455074725878	5.652923057570387	2.15
C 	23.599154025149723	7.072222373289726	2.15
C 	24.850604927082014	7.743244459403782	2.15
C 	24.895208204972956	9.16254377512312	2.15
C 	26.146659106905243	9.833565861237178	2.15
C 	26.191262384796183	11.252865176956517	2.15
C 	27.442713286728473	11.923887263070576	2.15
C 	27.487316564619416	13.343186578789915	2.15
C 	28.738767466551703	14.01420866490397	2.15
C 	28.783370744442646	15.433507980623308	2.15
C 	30.034821646374937	16.104530066737365	2.15
C 	30.07942492426588	17.523829382456707	2.15
C 	31.330875826198167	18.194851468570764	2.15
C 	31.375479104089106	19.614150784290104	2.15
C 	32.6269300060214	20.285172870404157	2.15
C 	32.67153328391234	21.704472186123496	2.15
C 	33.922984185844626	22.375494272237553	2.15
C 	33.96758746373556	23.794793587956896	2.15
C 	35.219038365667856	24.465815674070946	2.15
C 	35.2636416435588	25.885114989790285	2.15
C 	36.515092545491086	26.556137075904346	2.15
C 	36.55969582338203	27.975436391623685	2.15
C 	37.81114672531432	28.646458477737742	2.15
C 	37.855750003205266	30.065757793457085	2.15
C 	39.107200905137546	30.736779879571134	2.15
C 	39.15180418302849	32.156079195290474	2.15
C 	40.40325508496078	32.82710128140453	2.15
C 	40.447858362851726	34.24640059712387	2.15
C 	41.69930926478402	34.91742268323793	2.15
C 	41.74391254267496	36.33672199895727	2.15
C 	42.99536344460725	37.00774408507132	2.15
C 	43.039966722498185	38.427043400790666	2.15
C 	44.29141762443047	39.09806548690472	2.15
C 	44.336020902321415	40.51736480262406	2.15
C 	45.5874718042537	41.18838688873812	2.15
C 	45.632075082144645	42.60768620445746	2.15
C 	46.88352598407693	43.27870829057151	2.15
C 	46.928129261967875	44.69800760629085	2.15
C 	48.17958016390017	45.36902969240491	2.15
C 	17.252692959706394	0.8785133112807628	2.15
C 	18.504143861638685	1.5495353973948187	2.15
C 	18.548747139529628	2.9688347131141577	2.15
C 	19.80019804146191	3.639856799228214	2.15
C 	19.844801319352854	5.059156114947553	2.15
C 	21.096252221285145	5.730178201061609	2.15
C 	21.140855499176087	7.149477516780948	2.15
C 	22.392306401108375	7.820499602895008	2.15
C 	22.436909678999317	9.239798918614346	2.15
C 	23.688360580931608	9.910821004728403	2.15
C 	23.732963858822547	11.330120320447742	2.15
C 	24.984414760754838	12.001142406561797	2.15
C 	25.02901803864578	13.420441722281137	2.15
C 	26.280468940578068	14.091463808395195	2.15
C 	26.32507221846901	15.510763124114533	2.15
C 	27.5765231204013	16.18178521022859	2.15
C 	27.621126398292244	17.601084525947932	2.15
C 	28.87257730022453	18.272106612061986	2.15
C 	28.91718057811547	19.69140592778132	2.15
C 	30.16863148004776	20.362428013895386	2.15
C 	30.213234757938704	21.78172732961472	2.15
C 	31.46468565987099	22.452749415728775	2.15
C 	31.509288937761934	23.872048731448114	2.15
C 	32.760739839694224	24.543070817562175	2.15
C 	32.80534311758517	25.96237013328151	2.15
C 	34.05679401951745	26.633392219395567	2.15
C 	34.10139729740839	28.052691535114903	2.15
C 	35.352848199340684	28.723713621228963	2.15
C 	35.39745147723163	30.143012936948303	2.15
C 	36.648902379163914	30.814035023062363	2.15
C 	36.69350565705486	32.2333343387817	2.15
C 	37.94495655898715	32.90435642489576	2.15
C 	37.989559836878094	34.32365574061509	2.15
C 	39.24101073881038	34.99467782672915	2.15
C 	39.285614016701324	36.41397714244849	2.15
C 	40.53706491863361	37.08499922856255	2.15
C 	40.58166819652455	38.50429854428189	2.15
C 	41.83311909845684	39.175320630395944	2.15
C 	41.87772237634778	40.59461994611528	2.15
C 	43.12917327828007	41.26564203222934	2.15
C 	43.17377655617101	42.68494134794868	2.15
C 	44.42522745810331	43.355963434062744	2.15
C 	44.46983073599425	44.77526274978208	2.15
C 	45.72128163792653	45.44628483589614	2.15
C 	14.794394433732759	0.9557684547719879	2.15
C 	16.045845335665046	1.6267905408860457	2.15
C 	16.09044861355599	3.0460898566053847	2.15
C 	17.341899515488276	3.717111942719441	2.15
C 	17.38650279337922	5.1364112584387795	2.15
C 	18.63795369531151	5.807433344552836	2.15
C 	18.682556973202452	7.226732660272175	2.15
C 	19.93400787513474	7.897754746386231	2.15
C 	19.978611153025682	9.31705406210557	2.15
C 	21.230062054957973	9.98807614821963	2.15
C 	21.27466533284891	11.407375463938969	2.15
C 	22.526116234781203	12.078397550053024	2.15
C 	22.570719512672145	13.497696865772363	2.15
C 	23.822170414604432	14.168718951886419	2.15
C 	23.866773692495375	15.588018267605758	2.15
C 	25.118224594427666	16.259040353719815	2.15
C 	25.16282787231861	17.678339669439158	2.15
C 	26.414278774250896	18.349361755553215	2.15
C 	26.458882052141835	19.76866107127255	2.15
C 	27.710332954074126	20.439683157386607	2.15
C 	27.75493623196507	21.858982473105947	2.15
C 	29.006387133897356	22.530004559220004	2.15
C 	29.050990411788298	23.949303874939346	2.15
C 	30.30244131372059	24.620325961053396	2.15
C 	30.34704459161153	26.039625276772735	2.15
C 	31.59849549354382	26.710647362886796	2.15
C 	31.643098771434758	28.129946678606135	2.15
C 	32.89454967336705	28.800968764720185	2.15
C 	32.939152951257995	30.220268080439528	2.15
C 	34.190603853190275	30.891290166553585	2.15
C 	34.23520713108122	32.310589482272924	2.15
C 	35.48665803301351	32.98161156838698	2.15
C 	35.531261310904455	34.400910884106324	2.15
C 	36.78271221283674	35.071932970220374	2.15
C 	36.827315490727685	36.49123228593972	2.15
C 	38.07876639265998	37.16225437205377	2.15
C 	38.123369670550915	38.581553687773116	2.15
C 	39.3748205724832	39.25257577388717	2.15
C 	39.419423850374145	40.67187508960651	2.15
C 	40.67087475230643	41.342897175720566	2.15
C 	40.715478030197374	42.7621964914399	2.15
C 	41.96692893212966	43.43321857755396	2.15
C 	42.011532210020604	44.8525178932733	2.15
C 	43.2629831119529	45.52353997938736	2.15
C 	12.336095907759121	1.0330235982632132	2.15
C 	13.58754680969141	1.7040456843772709	2.15
C 	13.632150087582353	3.12334500009661	2.15
C 	14.883600989514642	3.7943670862106678	2.15
C 	14.928204267405585	5.2136664019300065	2.15
C 	16.179655169337874	5.884688488044063	2.15
C 	16.224258447228816	7.303987803763402	2.15
C 	17.475709349161104	7.975009889877458	2.15
C 	17.520312627052046	9.394309205596796	2.15
C 	18.771763528984337	10.065331291710853	2.15
C 	18.816366806875276	11.48463060743019	2.15
C 	20.067817708807564	12.155652693544251	2.15
C 	20.112420986698506	13.57495200926359	2.15
C 	21.363871888630797	14.245974095377646	2.15
C 	21.40847516652174	15.665273411096983	2.15
C 	22.659926068454027	16.33629549721104	2.15
C 	22.70452934634497	17.755594812930383	2.15
C 	23.95598024827726	18.42661689904444	2.15
C 	24.0005835261682	19.84591621476378	2.15
C 	25.252034428100487	20.516938300877836	2.15
C 	25.29663770599143	21.93623761659717	2.15
C 	26.54808860792372	22.60725970271123	2.15
C 	26.592691885814663	24.02655901843057	2.15
C 	27.84414278774695	24.69758110454463	2.15
C 	27.888746065637893	26.116880420263968	2.15
C 	29.140196967570184	26.78790250637802	2.15
C 	29.184800245461123	28.20720182209736	2.15
C 	30.43625114739341	28.878223908211417	2.15
C 	30.480854425284353	30.29752322393076	2.15
C 	31.732305327216643	30.96854531004481	2.15
C 	31.776908605107586	32.38784462576415	2.15
C 	33.02835950703987	33.05886671187821	2.15
C 	33.072962784930816	34.478166027597545	2.15
C 	34.3244136868631	35.14918811371161	2.15
C 	34.369016964754046	36.568487429430945	2.15
C 	35.62046786668634	37.239509515544995	2.15
C 	35.665071144577276	38.65880883126434	2.15
C 	36.91652204650957	39.329830917378395	2.15
C 	36.96112532440051	40.74913023309774	2.15
C 	38.2125762263328	41.420152319211795	2.15
C 	38.25717950422374	42.83945163493114	2.15
C 	39.50863040615603	43.51047372104519	2.15
C 	39.55323368404697	44.92977303676453	2.15
C 	40.80468458597926	45.60079512287859	2.15
C 	8.581743201962254	-0.9800426600789576	2.15
C 	9.833194103894543	-0.3090205739649007	2.15
C 	9.877797381785486	1.1102787417544382	2.15
C 	11.129248283717773	1.7813008278684943	2.15
C 	11.173851561608716	3.2006001435878333	2.15
C 	12.425302463541007	3.871622229701891	2.15
C 	12.46990574143195	5.29092154542123	2.15
C 	13.721356643364237	5.961943631535288	2.15
C 	13.76595992125518	7.381242947254627	2.15
C 	15.017410823187468	8.052265033368682	2.15
C 	15.06201410107841	9.471564349088021	2.15
C 	16.3134650030107	10.142586435202078	2.15
C 	16.35806828090164	11.561885750921416	2.15
C 	17.609519182833928	12.232907837035473	2.15
C 	17.65412246072487	13.652207152754812	2.15
C 	18.90557336265716	14.323229238868871	2.15
C 	18.950176640548104	15.742528554588208	2.15
C 	20.20162754248039	16.413550640702265	2.15
C 	20.246230820371334	17.832849956421608	2.15
C 	21.497681722303625	18.50387204253566	2.15
C 	21.542285000194564	19.923171358254997	2.15
C 	22.79373590212685	20.59419344436906	2.15
C 	22.838339180017794	22.013492760088397	2.15
C 	24.089790081950085	22.684514846202454	2.15
C 	24.134393359841027	24.103814161921797	2.15
C 	25.385844261773315	24.77483624803585	2.15
C 	25.430447539664257	26.194135563755186	2.15
C 	26.681898441596548	26.865157649869246	2.15
C 	26.726501719487487	28.284456965588586	2.15
C 	27.977952621419774	28.95547905170264	2.15
C 	28.022555899310717	30.37477836742198	2.15
C 	29.274006801243008	31.04580045353604	2.15
C 	29.31861007913395	32.465099769255374	2.15
C 	30.570060981066238	33.13612185536943	2.15
C 	30.614664258957177	34.55542117108877	2.15
C 	31.866115160889468	35.226443257202824	2.15
C 	31.91071843878041	36.64574257292217	2.15
C 	33.1621693407127	37.31676465903623	2.15
C 	33.20677261860364	38.73606397475557	2.15
C 	34.458223520535924	39.407086060869624	2.15
C 	34.50282679842687	40.82638537658895	2.15
C 	35.75427770035916	41.497407462703016	2.15
C 	35.798880978250104	42.91670677842235	2.15
C 	37.0503318801824	43.587728864536416	2.15
C 	37.09493515807334	45.00702818025575	2.15
C 	38.34638606000563	45.67805026636981	2.15
C 	6.123444675988619	-0.9027875165877324	2.15
C 	7.374895577920908	-0.2317654304736755	2.15
C 	7.41949885581185	1.1875338852456634	2.15
C 	8.670949757744138	1.8585559713597204	2.15
C 	8.71555303563508	3.2778552870790594	2.15
C 	9.96700393756737	3.9488773731931155	2.15
C 	10.011607215458312	5.368176688912454	2.15
C 	11.263058117390601	6.039198775026512	2.15
C 	11.307661395281544	7.458498090745851	2.15
C 	12.559112297213833	8.129520176859907	2.15
C 	12.603715575104776	9.548819492579248	2.15
C 	13.855166477037063	10.219841578693304	2.15
C 	13.899769754928005	11.639140894412643	2.15
C 	15.151220656860295	12.310162980526698	2.15
C 	15.195823934751235	13.729462296246039	2.15
C 	16.447274836683526	14.400484382360093	2.15
C 	16.491878114574465	15.819783698079434	2.15
C 	17.743329016506756	16.49080578419349	2.15
C 	17.7879322943977	17.910105099912833	2.15
C 	19.03938319632999	18.581127186026887	2.15
C 	19.08398647422093	20.000426501746226	2.15
C 	20.335437376153216	20.671448587860283	2.15
C 	20.38004065404416	22.090747903579622	2.15
C 	21.63149155597645	22.76176998969368	2.15
C 	21.676094833867392	24.181069305413022	2.15
C 	22.92754573579968	24.852091391527075	2.15
C 	22.972149013690622	26.271390707246415	2.15
C 	24.223599915622913	26.942412793360468	2.15
C 	24.268203193513852	28.36171210907981	2.15
C 	25.51965409544614	29.032734195193868	2.15
C 	25.56425737333708	30.45203351091321	2.15
C 	26.815708275269373	31.12305559702726	2.15
C 	26.860311553160315	32.5423549127466	2.15
C 	28.111762455092602	33.21337699886066	2.15
C 	28.156365732983545	34.632676314579996	2.15
C 	29.407816634915832	35.30369840069405	2.15
C 	29.452419912806775	36.72299771641339	2.15
C 	30.703870814739062	37.394019802527446	2.15
C 	30.748474092630005	38.81331911824679	2.15
C 	31.999924994562296	39.484341204360845	2.15
C 	32.044528272453235	40.90364052008019	2.15
C 	33.29597917438552	41.57466260619424	2.15
C 	33.340582452276465	42.99396192191358	2.15
C 	34.59203335420876	43.66498400802764	2.15
C 	34.6366366320997	45.08428332374698	2.15
C 	35.88808753403199	45.75530540986104	2.15
C 	3.665146150014983	-0.8255323730965073	2.15
C 	4.916597051947272	-0.15451028698245034	2.15
C 	4.9612003298382135	1.2647890287368886	2.15
C 	6.212651231770503	1.9358111148509456	2.15
C 	6.257254509661445	3.3551104305702846	2.15
C 	7.508705411593734	4.026132516684341	2.15
C 	7.553308689484676	5.44543183240368	2.15
C 	8.804759591416964	6.1164539185177365	2.15
C 	8.849362869307907	7.535753234237076	2.15
C 	10.100813771240196	8.206775320351133	2.15
C 	10.145417049131137	9.626074636070472	2.15
C 	11.396867951063426	10.29709672218453	2.15
C 	11.441471228954368	11.716396037903868	2.15
C 	12.692922130886657	12.387418124017925	2.15
C 	12.737525408777598	13.806717439737264	2.15
C 	13.988976310709887	14.47773952585132	2.15
C 	14.03357958860083	15.897038841570659	2.15
C 	15.285030490533119	16.568060927684716	2.15
C 	15.32963376842406	17.987360243404055	2.15
C 	16.58108467035635	18.658382329518115	2.15
C 	16.62568794824729	20.07768164523745	2.15
C 	17.87713885017958	20.748703731351508	2.15
C 	17.921742128070523	22.168003047070847	2.15
C 	19.173193030002814	22.839025133184904	2.15
C 	19.217796307893757	24.258324448904244	2.15
C 	20.469247209826044	24.929346535018304	2.15
C 	20.513850487716986	26.34864585073764	2.15
C 	21.765301389649277	27.019667936851693	2.15
C 	21.809904667540216	28.438967252571036	2.15
C 	23.061355569472504	29.109989338685093	2.15
C 	23.105958847363446	30.529288654404432	2.15
C 	24.357409749295737	31.200310740518493	2.15
C 	24.40201302718668	32.61961005623783	2.15
C 	25.653463929118967	33.29063214235188	2.15
C 	25.69806720700991	34.709931458071225	2.15
C 	26.949518108942197	35.38095354418528	2.15
C 	26.99412138683314	36.80025285990462	2.15
C 	28.245572288765427	37.471274946018674	2.15
C 	28.29017556665637	38.89057426173801	2.15
C 	29.54162646858866	39.561596347852074	2.15
C 	29.586229746479603	40.98089566357141	2.15
C 	30.83768064841189	41.651917749685474	2.15
C 	30.88228392630283	43.0712170654048	2.15
C 	32.13373482823512	43.74223915151886	2.15
C 	32.17833810612606	45.161538467238195	2.15
C 	33.42978900805836	45.83256055335226	2.15
C 	2.458298525973636	-0.07725514349122517	2.15
C 	2.502901803864578	1.3420441722281138	2.15
C 	3.754352705796867	2.0130662583421706	2.15
C 	3.798955983687809	3.4323655740615098	2.15
C 	5.050406885620098	4.103387660175566	2.15
C 	5.09501016351104	5.5226869758949055	2.15
C 	6.346461065443329	6.1937090620089625	2.15
C 	6.39106434333427	7.613008377728302	2.15
C 	7.6425152452665595	8.284030463842358	2.15
C 	7.687118523157501	9.703329779561695	2.15
C 	8.93856942508979	10.374351865675754	2.15
C 	8.983172702980733	11.793651181395093	2.15
C 	10.234623604913022	12.464673267509152	2.15
C 	10.279226882803963	13.88397258322849	2.15
C 	11.530677784736252	14.554994669342546	2.15
C 	11.575281062627194	15.974293985061884	2.15
C 	12.826731964559484	16.64531607117594	2.15
C 	12.871335242450424	18.06461538689528	2.15
C 	14.122786144382713	18.735637473009337	2.15
C 	14.167389422273656	20.154936788728673	2.15
C 	15.418840324205945	20.825958874842737	2.15
C 	15.463443602096886	22.245258190562073	2.15
C 	16.71489450402918	22.91628027667613	2.15
C 	16.759497781920118	24.33557959239547	2.15
C 	18.01094868385241	25.006601678509526	2.15
C 	18.05555196174335	26.42590099422886	2.15
C 	19.307002863675642	27.096923080342922	2.15
C 	19.35160614156658	28.51622239606226	2.15
C 	20.60305704349887	29.187244482176318	2.15
C 	20.64766032138981	30.606543797895657	2.15
C 	21.8991112233221	31.277565884009714	2.15
C 	21.943714501213044	32.696865199729054	2.15
C 	23.19516540314533	33.36788728584311	2.15
C 	23.239768681036274	34.787186601562446	2.15
C 	24.49121958296856	35.4582086876765	2.15
C 	24.535822860859504	36.87750800339584	2.15
C 	25.78727376279179	37.548530089509896	2.15
C 	25.831877040682734	38.96782940522924	2.15
C 	27.083327942615025	39.63885149134329	2.15
C 	27.127931220505968	41.05815080706263	2.15
C 	28.379382122438255	41.72917289317669	2.15
C 	28.423985400329194	43.14847220889603	2.15
C 	29.675436302261485	43.81949429501009	2.15
C 	29.720039580152427	45.23879361072943	2.15
C 	30.971490482084715	45.90981569684348	2.15
C 	5.184216719292924	8.361285607333583	2.15
C 	5.228819997183866	9.780584923052922	2.15
C 	6.480270899116155	10.45160700916698	2.15
C 	6.524874177007097	11.870906324886317	2.15
C 	7.7763250789393865	12.541928411000375	2.15
C 	7.820928356830328	13.961227726719715	2.15
C 	9.072379258762616	14.632249812833772	2.15
C 	9.116982536653559	16.05154912855311	2.15
C 	10.368433438585848	16.722571214667166	2.15
C 	10.413036716476789	18.14187053038651	2.15
C 	11.664487618409078	18.812892616500562	2.15
C 	11.70909089630002	20.232191932219898	2.15
C 	12.96054179823231	20.90321401833396	2.15
C 	13.00514507612325	22.322513334053298	2.15
C 	14.25659597805554	22.993535420167355	2.15
C 	14.301199255946482	24.412834735886698	2.15
C 	15.552650157878773	25.08385682200075	2.15
C 	15.597253435769714	26.503156137720087	2.15
C 	16.848704337702003	27.174178223834144	2.15
C 	16.893307615592946	28.593477539553486	2.15
C 	18.144758517525233	29.264499625667543	2.15
C 	18.189361795416175	30.683798941386886	2.15
C 	19.440812697348466	31.35482102750094	2.15
C 	19.48541597523941	32.774120343220275	2.15
C 	20.736866877171696	33.44514242933433	2.15
C 	20.78147015506264	34.864441745053675	2.15
C 	22.032921056994926	35.53546383116773	2.15
C 	22.07752433488587	36.954763146887075	2.15
C 	23.328975236818156	37.625785233001125	2.15
C 	23.3735785147091	39.04508454872047	2.15
C 	24.62502941664139	39.716106634834524	2.15
C 	24.669632694532332	41.13540595055386	2.15
C 	25.92108359646462	41.80642803666792	2.15
C 	25.96568687435556	43.22572735238725	2.15
C 	27.21713777628785	43.89674943850131	2.15
C 	27.261741054178792	45.31604875422065	2.15
C 	28.51319195611108	45.98707084033471	2.15
H 	51.63463459594214	-1.2925208483950352	2.15
H 	53.846706260625275	-0.10641842857370981	2.15
H 	55.14276044044849	1.983902973259673	2.15
H 	56.438814620271735	4.074224375093081	2.15
H 	57.73486880009495	6.164545776926473	2.15
H 	59.03092297991819	8.254867178759866	2.15
H 	60.32697715974141	10.345188580593263	2.15
H 	61.623031339564655	12.435509982426671	2.15
H 	62.91908551938788	14.525831384260055	2.15
H 	64.21513969921112	16.616152786093465	2.15
H 	65.51119387903434	18.706474187926855	2.15
H 	66.80724805885758	20.796795589760244	2.15
H 	68.10330223868081	22.887116991593643	2.15
H 	69.39935641850404	24.977438393427047	2.15
H 	70.69541059832727	27.067759795260432	2.15
H 	71.99146477815049	29.158081197093818	2.15
H 	73.28751895797373	31.248402598927242	2.15
H 	74.58357313779696	33.33872400076062	2.15
H 	75.8796273176202	35.429045402594014	2.15
H 	75.95846832290631	37.937806869112	2.15
H 	49.1763360699685	-1.21526570490381	2.15
H 	74.7962239767559	40.10538341443662	2.15
H 	46.71803754399487	-1.1380105614125846	2.15
H 	73.63397963060548	42.27295995976125	2.15
H 	44.259739018021214	-1.0607554179213594	2.15
H 	72.47173528445508	44.44053650508587	2.15
H 	41.8014404920476	-0.9835002744301344	2.15
H 	71.30949093830468	46.60811305041048	2.15
H 	39.34314196607396	-0.9062451309389092	2.15
H 	69.17626027890765	47.930772097107145	2.15
H 	36.884843440100326	-0.8289899874476878	2.15
H 	64.50589008825088	46.82192482077704	2.15
H 	66.71796175293402	48.00802724059837	2.15
H 	34.42654491412669	-0.7517348439564588	2.15
H 	62.96360904713713	45.994960982256195	2.15
H 	31.968246388153034	-0.6744797004652334	2.15
H 	60.50531052116351	46.07221612574743	2.15
H 	29.509947862179416	-0.5972245569740123	2.15
H 	58.04701199518986	46.14947126923865	2.15
H 	27.051649336205774	-0.5199694134827832	2.15
H 	55.58871346921623	46.226726412729874	2.15
H 	24.593350810232135	-0.44271426999155816	2.15
H 	53.1304149432426	46.3039815562211	2.15
H 	22.135052284258506	-0.36545912650033674	2.15
H 	50.67211641726895	46.38123669971233	2.15
H 	19.676753758284864	-0.28820398300910965	2.15
H 	48.21381789129533	46.458491843203554	2.15
H 	17.218455232311232	-0.21094883951788468	2.15
H 	45.75551936532169	46.53574698669478	2.15
H 	14.760156706337602	-0.1336936960266596	2.15
H 	43.29722083934806	46.613002130186004	2.15
H 	12.301858180363965	-0.05643855253543428	2.15
H 	40.83892231337442	46.69025727367723	2.15
H 	8.547505474567094	-2.069504810877605	2.15
H 	10.759577139250226	-0.8834023910562787	2.15
H 	38.380623787400786	46.767512417168454	2.15
H 	6.089206948593459	-1.9922496673863799	2.15
H 	35.92232526142715	46.84476756065968	2.15
H 	3.6309084226198234	-1.914994523895155	2.15
H 	33.464026735453515	46.922022704150905	2.15
H 	1.4976777632227942	-0.5923354771984939	2.15
H 	1.5765187685088966	1.9164259893194924	2.15
H 	2.8725729483321274	4.006747391152889	2.15
H 	4.168627128155357	6.097068792986284	2.15
H 	31.00572820947987	46.99927784764213	2.15
H 	4.223595956542082	7.846205273626314	2.15
H 	4.3024369618281835	10.3549667401443	2.15
H 	5.598491141651413	12.445288141977693	2.15
H 	6.894545321474647	14.535609543811093	2.15
H 	8.190599501297877	16.625930945644487	2.15
H 	9.486653681121108	18.71625234747789	2.15
H 	10.782707860944337	20.806573749311273	2.15
H 	12.078762040767566	22.896895151144673	2.15
H 	13.374816220590803	24.987216552978083	2.15
H 	14.67087040041403	27.07753795481146	2.15
H 	15.966924580237265	29.16785935664487	2.15
H 	17.262978760060495	31.258180758478268	2.15
H 	18.559032939883725	33.348502160311654	2.15
H 	19.855087119706955	35.43882356214505	2.15
H 	21.15114129953019	37.52914496397846	2.15
H 	22.447195479353418	39.61946636581185	2.15
H 	23.743249659176648	41.70978776764524	2.15
H 	25.039303838999874	43.80010916947863	2.15
H 	26.335358018823108	45.89043057131203	2.15
H 	28.547429683506238	47.076532991133355	2.15
