2308

C 	0.0	0.0	0.0
C 	1.2297560733739028	0.7099999999999999	0.0
C 	2.4595121467478056	-2.3647750424515833e-16	0.0
C 	3.689268220121708	0.7099999999999995	0.0
C 	4.919024293495611	-4.729550084903167e-16	0.0
C 	6.148780366869514	0.7099999999999993	0.0
C 	7.378536440243416	-7.09432512735475e-16	0.0
C 	8.60829251361732	0.7099999999999991	0.0
C 	9.838048586991222	-9.459100169806333e-16	0.0
C 	11.067804660365125	0.7099999999999989	0.0
C 	12.297560733739026	-1.1823875212257916e-15	0.0
C 	13.527316807112928	0.7099999999999986	0.0
C 	14.757072880486833	-1.41886502547095e-15	0.0
C 	15.986828953860735	0.7099999999999984	0.0
C 	17.21658502723464	-7.671641100159832e-16	0.0
C 	18.44634110060854	0.7099999999999982	0.0
C 	19.676097173982445	-1.8918200339612667e-15	0.0
C 	20.905853247356347	0.7099999999999989	0.0
C 	22.135609320730246	-2.128297538206425e-15	0.0
C 	23.36536539410415	0.7099999999999967	0.0
C 	24.59512146747805	-2.364775042451583e-15	0.0
C 	25.824877540851954	0.7099999999999983	0.0
C 	27.05463361422586	-8.248957072964913e-16	0.0
C 	28.284389687599763	0.7099999999999999	0.0
C 	29.514145760973665	-2.8377300509419e-15	0.0
C 	30.743901834347565	0.7099999999999961	0.0
C 	31.97365790772147	-3.0742075551870582e-15	0.0
C 	33.20341398109537	0.7099999999999976	0.0
C 	34.43317005446928	-1.5343282200319664e-15	0.0
C 	35.66292612784318	0.7099999999999992	0.0
C 	36.892682201217085	-1.7708057242771246e-15	0.0
C 	38.122438274590984	0.7099999999999972	0.0
C 	39.35219434796489	-3.783640067922533e-15	0.0
C 	40.58195042133879	0.7099999999999969	0.0
C 	41.811706494712695	-4.67403893367191e-16	0.0
C 	43.0414625680866	0.7100000000000002	0.0
C 	44.27121864146049	-4.25659507641285e-15	0.0
C 	45.5009747148344	0.7099999999999964	0.0
C 	46.730730788208305	-9.403589018575075e-16	0.0
C 	47.96048686158221	0.7099999999999997	0.0
C 	49.1902429349561	-4.729550084903166e-15	0.0
C 	50.41999900833001	0.709999999999996	0.0
C 	51.64975508170391	-1.413313910347824e-15	0.0
C 	52.879511155077815	0.7099999999999993	0.0
C 	54.10926722845172	-1.6497914145929826e-15	0.0
C 	55.33902330182562	0.7099999999999991	0.0
C 	56.56877937519952	-5.438982597638641e-15	0.0
C 	57.798535448573425	0.7099999999999953	0.0
C 	59.02829152194733	-5.6754601018838e-15	0.0
C 	60.25804759532124	0.709999999999995	0.0
C 	1.2297560733739028	2.1299999999999994	0.0
C 	2.4595121467478056	2.8399999999999994	0.0
C 	3.689268220121708	2.1299999999999994	0.0
C 	4.919024293495611	2.8399999999999994	0.0
C 	6.148780366869514	2.129999999999999	0.0
C 	7.378536440243416	2.839999999999999	0.0
C 	8.60829251361732	2.1299999999999986	0.0
C 	9.838048586991222	2.8399999999999985	0.0
C 	11.067804660365123	2.129999999999998	0.0
C 	12.297560733739028	2.839999999999999	0.0
C 	13.527316807112928	2.1299999999999977	0.0
C 	14.757072880486833	2.839999999999998	0.0
C 	15.986828953860735	2.129999999999998	0.0
C 	17.216585027234636	2.839999999999997	0.0
C 	18.446341100608542	2.129999999999998	0.0
C 	19.676097173982445	2.8399999999999985	0.0
C 	20.905853247356344	2.1299999999999977	0.0
C 	22.13560932073025	2.8399999999999985	0.0
C 	23.36536539410415	2.129999999999997	0.0
C 	24.595121467478055	2.839999999999997	0.0
C 	25.824877540851954	2.1299999999999963	0.0
C 	27.05463361422586	2.839999999999997	0.0
C 	28.284389687599763	2.129999999999998	0.0
C 	29.514145760973665	2.8399999999999985	0.0
C 	30.743901834347568	2.129999999999996	0.0
C 	31.97365790772147	2.8399999999999967	0.0
C 	33.20341398109537	2.129999999999996	0.0
C 	34.43317005446928	2.8399999999999963	0.0
C 	35.66292612784318	2.1299999999999972	0.0
C 	36.89268220121708	2.8399999999999963	0.0
C 	38.122438274590984	2.129999999999997	0.0
C 	39.35219434796489	2.8399999999999976	0.0
C 	40.58195042133879	2.1299999999999986	0.0
C 	41.81170649471269	2.839999999999996	0.0
C 	43.0414625680866	2.129999999999998	0.0
C 	44.2712186414605	2.8399999999999954	0.0
C 	45.5009747148344	2.129999999999998	0.0
C 	46.7307307882083	2.8399999999999954	0.0
C 	47.96048686158221	2.1299999999999977	0.0
C 	49.19024293495611	2.839999999999995	0.0
C 	50.41999900833001	2.1299999999999977	0.0
C 	51.64975508170391	2.8399999999999945	0.0
C 	52.879511155077815	2.1299999999999972	0.0
C 	54.10926722845171	2.8399999999999945	0.0
C 	55.33902330182563	2.130000000000001	0.0
C 	56.56877937519952	2.8399999999999976	0.0
C 	57.798535448573425	2.129999999999997	0.0
C 	59.028291521947324	2.839999999999994	0.0
C 	60.25804759532124	2.129999999999997	0.0
C 	61.487803668695136	2.8399999999999936	0.0
C 	2.4595121467478056	4.259999999999999	0.0
C 	3.689268220121708	4.969999999999999	0.0
C 	4.919024293495611	4.259999999999999	0.0
C 	6.148780366869514	4.969999999999999	0.0
C 	7.378536440243416	4.259999999999999	0.0
C 	8.60829251361732	4.969999999999999	0.0
C 	9.83804858699122	4.259999999999998	0.0
C 	11.067804660365125	4.969999999999999	0.0
C 	12.297560733739028	4.259999999999998	0.0
C 	13.52731680711293	4.969999999999998	0.0
C 	14.757072880486831	4.259999999999998	0.0
C 	15.986828953860735	4.969999999999998	0.0
C 	17.21658502723464	4.259999999999997	0.0
C 	18.446341100608542	4.969999999999998	0.0
C 	19.676097173982445	4.259999999999999	0.0
C 	20.905853247356347	4.969999999999997	0.0
C 	22.135609320730246	4.259999999999996	0.0
C 	23.365365394104153	4.969999999999997	0.0
C 	24.595121467478055	4.259999999999998	0.0
C 	25.824877540851958	4.969999999999997	0.0
C 	27.054633614225857	4.259999999999995	0.0
C 	28.28438968759976	4.969999999999996	0.0
C 	29.514145760973665	4.259999999999997	0.0
C 	30.743901834347568	4.969999999999997	0.0
C 	31.97365790772147	4.259999999999996	0.0
C 	33.20341398109537	4.969999999999995	0.0
C 	34.43317005446927	4.2599999999999945	0.0
C 	35.66292612784318	4.969999999999995	0.0
C 	36.892682201217085	4.259999999999996	0.0
C 	38.122438274590984	4.969999999999997	0.0
C 	39.35219434796489	4.259999999999997	0.0
C 	40.58195042133879	4.969999999999994	0.0
C 	41.81170649471269	4.259999999999995	0.0
C 	43.041462568086594	4.969999999999996	0.0
C 	44.2712186414605	4.259999999999997	0.0
C 	45.500974714834406	4.969999999999998	0.0
C 	46.7307307882083	4.259999999999994	0.0
C 	47.960486861582204	4.9699999999999935	0.0
C 	49.19024293495611	4.259999999999996	0.0
C 	50.41999900833001	4.969999999999997	0.0
C 	51.64975508170391	4.259999999999993	0.0
C 	52.879511155077815	4.9699999999999935	0.0
C 	54.10926722845171	4.259999999999996	0.0
C 	55.33902330182562	4.969999999999997	0.0
C 	56.568779375199526	4.259999999999996	0.0
C 	57.798535448573425	4.969999999999996	0.0
C 	59.028291521947324	4.259999999999995	0.0
C 	60.25804759532123	4.969999999999996	0.0
C 	61.487803668695136	4.259999999999992	0.0
C 	62.717559742069035	4.969999999999993	0.0
C 	3.6892682201217086	6.389999999999999	0.0
C 	4.919024293495611	7.099999999999999	0.0
C 	6.148780366869514	6.389999999999999	0.0
C 	7.378536440243416	7.099999999999999	0.0
C 	8.608292513617318	6.389999999999998	0.0
C 	9.838048586991222	7.099999999999999	0.0
C 	11.067804660365125	6.389999999999998	0.0
C 	12.297560733739028	7.099999999999998	0.0
C 	13.52731680711293	6.389999999999999	0.0
C 	14.757072880486833	7.099999999999998	0.0
C 	15.986828953860735	6.389999999999998	0.0
C 	17.216585027234636	7.099999999999997	0.0
C 	18.44634110060854	6.389999999999997	0.0
C 	19.676097173982445	7.099999999999998	0.0
C 	20.905853247356347	6.389999999999998	0.0
C 	22.13560932073025	7.099999999999997	0.0
C 	23.365365394104153	6.389999999999998	0.0
C 	24.59512146747805	7.099999999999997	0.0
C 	25.824877540851958	6.389999999999998	0.0
C 	27.054633614225857	7.099999999999997	0.0
C 	28.28438968759976	6.389999999999999	0.0
C 	29.514145760973662	7.099999999999997	0.0
C 	30.743901834347568	6.389999999999999	0.0
C 	31.97365790772147	7.099999999999998	0.0
C 	33.20341398109537	6.389999999999995	0.0
C 	34.43317005446928	7.099999999999994	0.0
C 	35.66292612784318	6.389999999999995	0.0
C 	36.892682201217085	7.099999999999996	0.0
C 	38.122438274590984	6.389999999999996	0.0
C 	39.35219434796489	7.099999999999997	0.0
C 	40.58195042133879	6.389999999999994	0.0
C 	41.811706494712695	7.099999999999995	0.0
C 	43.041462568086594	6.389999999999996	0.0
C 	44.2712186414605	7.099999999999997	0.0
C 	45.500974714834406	6.389999999999998	0.0
C 	46.730730788208305	7.099999999999998	0.0
C 	47.960486861582204	6.389999999999995	0.0
C 	49.19024293495611	7.099999999999996	0.0
C 	50.41999900833001	6.389999999999995	0.0
C 	51.649755081703915	7.099999999999996	0.0
C 	52.879511155077815	6.389999999999995	0.0
C 	54.10926722845172	7.099999999999996	0.0
C 	55.33902330182562	6.389999999999995	0.0
C 	56.568779375199526	7.099999999999995	0.0
C 	57.79853544857343	6.389999999999998	0.0
C 	59.02829152194733	7.099999999999999	0.0
C 	60.25804759532123	6.389999999999994	0.0
C 	61.487803668695136	7.099999999999995	0.0
C 	62.71755974206904	6.389999999999994	0.0
C 	63.94731581544294	7.099999999999995	0.0
C 	4.919024293495611	8.519999999999998	0.0
C 	6.148780366869514	9.229999999999999	0.0
C 	7.378536440243416	8.519999999999998	0.0
C 	8.60829251361732	9.229999999999999	0.0
C 	9.838048586991222	8.519999999999998	0.0
C 	11.067804660365125	9.229999999999999	0.0
C 	12.297560733739028	8.519999999999998	0.0
C 	13.52731680711293	9.229999999999997	0.0
C 	14.757072880486833	8.519999999999998	0.0
C 	15.986828953860737	9.229999999999999	0.0
C 	17.216585027234636	8.519999999999998	0.0
C 	18.44634110060854	9.229999999999997	0.0
C 	19.67609717398244	8.519999999999996	0.0
C 	20.905853247356347	9.229999999999997	0.0
C 	22.13560932073025	8.519999999999998	0.0
C 	23.365365394104153	9.229999999999999	0.0
C 	24.595121467478055	8.519999999999996	0.0
C 	25.824877540851954	9.229999999999995	0.0
C 	27.05463361422586	8.519999999999996	0.0
C 	28.284389687599763	9.229999999999997	0.0
C 	29.514145760973662	8.519999999999996	0.0
C 	30.743901834347565	9.229999999999995	0.0
C 	31.97365790772147	8.52	0.0
C 	33.20341398109537	9.229999999999997	0.0
C 	34.43317005446928	8.519999999999994	0.0
C 	35.66292612784318	9.229999999999995	0.0
C 	36.89268220121708	8.519999999999992	0.0
C 	38.122438274590984	9.229999999999993	0.0
C 	39.35219434796489	8.519999999999998	0.0
C 	40.58195042133879	9.229999999999995	0.0
C 	41.811706494712695	8.519999999999994	0.0
C 	43.0414625680866	9.229999999999995	0.0
C 	44.27121864146049	8.519999999999992	0.0
C 	45.5009747148344	9.229999999999993	0.0
C 	46.730730788208305	8.519999999999998	0.0
C 	47.960486861582204	9.229999999999995	0.0
C 	49.19024293495611	8.519999999999996	0.0
C 	50.41999900833001	9.229999999999993	0.0
C 	51.64975508170391	8.519999999999994	0.0
C 	52.879511155077815	9.229999999999995	0.0
C 	54.10926722845171	8.51999999999999	0.0
C 	55.33902330182562	9.229999999999992	0.0
C 	56.568779375199526	8.519999999999998	0.0
C 	57.798535448573425	9.229999999999995	0.0
C 	59.02829152194733	8.519999999999994	0.0
C 	60.25804759532123	9.229999999999993	0.0
C 	61.48780366869513	8.519999999999992	0.0
C 	62.717559742069035	9.229999999999993	0.0
C 	63.94731581544294	8.519999999999992	0.0
C 	65.17707188881684	9.22999999999999	0.0
C 	6.148780366869514	10.649999999999997	0.0
C 	7.378536440243416	11.359999999999998	0.0
C 	8.608292513617318	10.649999999999997	0.0
C 	9.838048586991222	11.359999999999998	0.0
C 	11.067804660365125	10.649999999999997	0.0
C 	12.297560733739028	11.359999999999996	0.0
C 	13.52731680711293	10.649999999999997	0.0
C 	14.757072880486831	11.359999999999996	0.0
C 	15.986828953860735	10.649999999999997	0.0
C 	17.216585027234636	11.359999999999996	0.0
C 	18.44634110060854	10.649999999999997	0.0
C 	19.676097173982445	11.359999999999998	0.0
C 	20.905853247356347	10.649999999999997	0.0
C 	22.13560932073025	11.359999999999996	0.0
C 	23.365365394104153	10.649999999999997	0.0
C 	24.595121467478055	11.359999999999996	0.0
C 	25.824877540851958	10.649999999999997	0.0
C 	27.05463361422586	11.359999999999996	0.0
C 	28.284389687599763	10.649999999999995	0.0
C 	29.514145760973662	11.359999999999994	0.0
C 	30.743901834347565	10.649999999999995	0.0
C 	31.97365790772147	11.359999999999996	0.0
C 	33.20341398109537	10.649999999999997	0.0
C 	34.43317005446928	11.359999999999998	0.0
C 	35.66292612784318	10.649999999999991	0.0
C 	36.89268220121708	11.359999999999992	0.0
C 	38.122438274590984	10.649999999999993	0.0
C 	39.35219434796489	11.359999999999994	0.0
C 	40.58195042133879	10.649999999999993	0.0
C 	41.811706494712695	11.359999999999994	0.0
C 	43.041462568086594	10.649999999999991	0.0
C 	44.2712186414605	11.359999999999992	0.0
C 	45.5009747148344	10.649999999999993	0.0
C 	46.730730788208305	11.359999999999994	0.0
C 	47.960486861582204	10.649999999999995	0.0
C 	49.19024293495611	11.359999999999996	0.0
C 	50.41999900833001	10.649999999999993	0.0
C 	51.649755081703915	11.359999999999994	0.0
C 	52.879511155077815	10.649999999999995	0.0
C 	54.10926722845172	11.359999999999996	0.0
C 	55.33902330182562	10.649999999999993	0.0
C 	56.568779375199526	11.359999999999994	0.0
C 	57.798535448573425	10.649999999999993	0.0
C 	59.02829152194733	11.359999999999992	0.0
C 	60.25804759532124	10.649999999999995	0.0
C 	61.487803668695136	11.359999999999996	0.0
C 	62.717559742069035	10.649999999999991	0.0
C 	63.94731581544294	11.359999999999992	0.0
C 	65.17707188881684	10.649999999999991	0.0
C 	66.40682796219075	11.359999999999992	0.0
C 	7.378536440243417	12.779999999999998	0.0
C 	8.60829251361732	13.489999999999998	0.0
C 	9.838048586991222	12.78	0.0
C 	11.067804660365125	13.489999999999997	0.0
C 	12.297560733739028	12.779999999999998	0.0
C 	13.527316807112932	13.489999999999998	0.0
C 	14.757072880486833	12.779999999999998	0.0
C 	15.986828953860737	13.489999999999997	0.0
C 	17.216585027234636	12.779999999999996	0.0
C 	18.446341100608542	13.489999999999997	0.0
C 	19.676097173982445	12.779999999999998	0.0
C 	20.905853247356347	13.489999999999997	0.0
C 	22.13560932073025	12.779999999999996	0.0
C 	23.36536539410415	13.489999999999995	0.0
C 	24.595121467478055	12.779999999999996	0.0
C 	25.824877540851958	13.489999999999997	0.0
C 	27.05463361422586	12.779999999999998	0.0
C 	28.284389687599763	13.489999999999997	0.0
C 	29.514145760973662	12.779999999999996	0.0
C 	30.743901834347568	13.489999999999997	0.0
C 	31.97365790772147	12.779999999999996	0.0
C 	33.20341398109537	13.489999999999997	0.0
C 	34.43317005446928	12.779999999999998	0.0
C 	35.66292612784318	13.489999999999995	0.0
C 	36.89268220121708	12.779999999999994	0.0
C 	38.122438274590984	13.489999999999995	0.0
C 	39.35219434796489	12.779999999999996	0.0
C 	40.581950421338796	13.489999999999997	0.0
C 	41.811706494712695	12.779999999999996	0.0
C 	43.041462568086594	13.489999999999993	0.0
C 	44.2712186414605	12.779999999999994	0.0
C 	45.5009747148344	13.489999999999995	0.0
C 	46.730730788208305	12.779999999999996	0.0
C 	47.96048686158221	13.489999999999997	0.0
C 	49.19024293495611	12.779999999999998	0.0
C 	50.41999900833001	13.489999999999995	0.0
C 	51.649755081703915	12.779999999999996	0.0
C 	52.879511155077815	13.489999999999993	0.0
C 	54.10926722845172	12.779999999999998	0.0
C 	55.33902330182563	13.489999999999998	0.0
C 	56.56877937519952	12.779999999999998	0.0
C 	57.798535448573425	13.489999999999997	0.0
C 	59.02829152194733	12.779999999999994	0.0
C 	60.25804759532123	13.489999999999991	0.0
C 	61.487803668695136	12.779999999999998	0.0
C 	62.71755974206904	13.489999999999998	0.0
C 	63.94731581544294	12.779999999999994	0.0
C 	65.17707188881684	13.489999999999995	0.0
C 	66.40682796219075	12.77999999999999	0.0
C 	67.63658403556465	13.489999999999988	0.0
C 	8.60829251361732	14.909999999999998	0.0
C 	9.838048586991222	15.619999999999996	0.0
C 	11.067804660365125	14.909999999999997	0.0
C 	12.297560733739026	15.619999999999996	0.0
C 	13.527316807112934	14.909999999999998	0.0
C 	14.757072880486831	15.619999999999996	0.0
C 	15.986828953860737	14.909999999999998	0.0
C 	17.21658502723464	15.619999999999997	0.0
C 	18.446341100608542	14.909999999999997	0.0
C 	19.676097173982445	15.619999999999996	0.0
C 	20.905853247356347	14.909999999999997	0.0
C 	22.135609320730246	15.619999999999996	0.0
C 	23.365365394104153	14.909999999999995	0.0
C 	24.595121467478055	15.619999999999996	0.0
C 	25.824877540851958	14.909999999999997	0.0
C 	27.05463361422586	15.619999999999996	0.0
C 	28.284389687599763	14.909999999999997	0.0
C 	29.514145760973665	15.619999999999996	0.0
C 	30.743901834347568	14.909999999999997	0.0
C 	31.973657907721474	15.619999999999997	0.0
C 	33.203413981095366	14.909999999999993	0.0
C 	34.43317005446927	15.619999999999994	0.0
C 	35.662926127843185	14.909999999999998	0.0
C 	36.892682201217085	15.619999999999996	0.0
C 	38.122438274590984	14.909999999999995	0.0
C 	39.35219434796489	15.619999999999996	0.0
C 	40.58195042133879	14.909999999999993	0.0
C 	41.811706494712695	15.619999999999994	0.0
C 	43.0414625680866	14.909999999999998	0.0
C 	44.2712186414605	15.619999999999996	0.0
C 	45.5009747148344	14.909999999999995	0.0
C 	46.730730788208305	15.619999999999996	0.0
C 	47.960486861582204	14.909999999999993	0.0
C 	49.19024293495611	15.619999999999994	0.0
C 	50.41999900833002	14.909999999999998	0.0
C 	51.649755081703915	15.619999999999996	0.0
C 	52.87951115507782	14.909999999999997	0.0
C 	54.10926722845171	15.619999999999994	0.0
C 	55.33902330182562	14.909999999999995	0.0
C 	56.568779375199526	15.619999999999994	0.0
C 	57.798535448573425	14.909999999999991	0.0
C 	59.028291521947324	15.619999999999992	0.0
C 	60.25804759532124	14.909999999999998	0.0
C 	61.487803668695136	15.619999999999996	0.0
C 	62.717559742069035	14.909999999999993	0.0
C 	63.94731581544294	15.619999999999994	0.0
C 	65.17707188881684	14.909999999999993	0.0
C 	66.40682796219075	15.619999999999994	0.0
C 	67.63658403556465	14.909999999999997	0.0
C 	68.86634010893854	15.61999999999999	0.0
C 	9.838048586991222	17.039999999999996	0.0
C 	11.067804660365127	17.749999999999996	0.0
C 	12.297560733739028	17.039999999999996	0.0
C 	13.527316807112932	17.749999999999996	0.0
C 	14.757072880486833	17.039999999999996	0.0
C 	15.986828953860735	17.749999999999996	0.0
C 	17.21658502723464	17.039999999999996	0.0
C 	18.446341100608546	17.749999999999996	0.0
C 	19.676097173982445	17.039999999999996	0.0
C 	20.905853247356347	17.749999999999996	0.0
C 	22.13560932073025	17.039999999999996	0.0
C 	23.365365394104153	17.749999999999996	0.0
C 	24.595121467478055	17.039999999999996	0.0
C 	25.82487754085196	17.749999999999996	0.0
C 	27.05463361422586	17.039999999999996	0.0
C 	28.28438968759977	17.75	0.0
C 	29.514145760973665	17.039999999999996	0.0
C 	30.74390183434757	17.749999999999996	0.0
C 	31.973657907721467	17.039999999999992	0.0
C 	33.20341398109537	17.749999999999993	0.0
C 	34.43317005446927	17.039999999999996	0.0
C 	35.66292612784318	17.749999999999996	0.0
C 	36.892682201217085	17.039999999999996	0.0
C 	38.122438274590984	17.749999999999996	0.0
C 	39.35219434796488	17.039999999999992	0.0
C 	40.58195042133879	17.749999999999993	0.0
C 	41.811706494712695	17.039999999999992	0.0
C 	43.041462568086594	17.749999999999993	0.0
C 	44.2712186414605	17.039999999999996	0.0
C 	45.500974714834406	17.749999999999996	0.0
C 	46.7307307882083	17.039999999999992	0.0
C 	47.960486861582204	17.749999999999993	0.0
C 	49.19024293495611	17.039999999999992	0.0
C 	50.41999900833002	17.749999999999993	0.0
C 	51.649755081703915	17.039999999999996	0.0
C 	52.87951115507782	17.749999999999996	0.0
C 	54.10926722845172	17.039999999999992	0.0
C 	55.33902330182562	17.749999999999993	0.0
C 	56.568779375199526	17.039999999999996	0.0
C 	57.79853544857343	17.749999999999996	0.0
C 	59.028291521947324	17.039999999999992	0.0
C 	60.25804759532123	17.749999999999993	0.0
C 	61.487803668695136	17.039999999999996	0.0
C 	62.71755974206904	17.749999999999996	0.0
C 	63.94731581544294	17.04	0.0
C 	65.17707188881684	17.749999999999993	0.0
C 	66.40682796219075	17.039999999999996	0.0
C 	67.63658403556464	17.74999999999999	0.0
C 	68.86634010893856	17.03999999999999	0.0
C 	70.09609618231246	17.74999999999999	0.0
C 	11.067804660365125	19.169999999999995	0.0
C 	12.297560733739026	19.879999999999995	0.0
C 	13.52731680711293	19.169999999999995	0.0
C 	14.757072880486831	19.879999999999995	0.0
C 	15.986828953860737	19.169999999999998	0.0
C 	17.216585027234636	19.879999999999992	0.0
C 	18.446341100608542	19.169999999999995	0.0
C 	19.676097173982445	19.879999999999995	0.0
C 	20.905853247356347	19.169999999999995	0.0
C 	22.135609320730246	19.879999999999995	0.0
C 	23.365365394104153	19.169999999999995	0.0
C 	24.59512146747805	19.879999999999995	0.0
C 	25.824877540851958	19.169999999999995	0.0
C 	27.05463361422586	19.879999999999995	0.0
C 	28.284389687599763	19.169999999999995	0.0
C 	29.51414576097367	19.879999999999995	0.0
C 	30.743901834347565	19.16999999999999	0.0
C 	31.97365790772147	19.879999999999992	0.0
C 	33.20341398109537	19.169999999999995	0.0
C 	34.43317005446927	19.879999999999992	0.0
C 	35.66292612784318	19.169999999999995	0.0
C 	36.89268220121708	19.879999999999992	0.0
C 	38.122438274590984	19.169999999999995	0.0
C 	39.35219434796488	19.879999999999992	0.0
C 	40.58195042133879	19.16999999999999	0.0
C 	41.81170649471269	19.87999999999999	0.0
C 	43.0414625680866	19.169999999999995	0.0
C 	44.27121864146049	19.879999999999992	0.0
C 	45.5009747148344	19.16999999999999	0.0
C 	46.730730788208305	19.879999999999992	0.0
C 	47.960486861582204	19.169999999999995	0.0
C 	49.1902429349561	19.879999999999992	0.0
C 	50.41999900833002	19.169999999999995	0.0
C 	51.649755081703915	19.879999999999992	0.0
C 	52.879511155077815	19.16999999999999	0.0
C 	54.10926722845172	19.879999999999992	0.0
C 	55.33902330182562	19.16999999999999	0.0
C 	56.56877937519952	19.879999999999992	0.0
C 	57.79853544857343	19.169999999999995	0.0
C 	59.02829152194733	19.879999999999992	0.0
C 	60.25804759532123	19.169999999999995	0.0
C 	61.48780366869513	19.879999999999992	0.0
C 	62.717559742069035	19.16999999999999	0.0
C 	63.94731581544294	19.879999999999992	0.0
C 	65.17707188881684	19.169999999999995	0.0
C 	66.40682796219075	19.87999999999999	0.0
C 	67.63658403556465	19.169999999999995	0.0
C 	68.86634010893854	19.87999999999999	0.0
C 	70.09609618231245	19.16999999999999	0.0
C 	71.32585225568636	19.879999999999992	0.0
C 	12.297560733739028	21.299999999999994	0.0
C 	13.527316807112932	22.009999999999994	0.0
C 	14.757072880486831	21.299999999999994	0.0
C 	15.986828953860735	22.009999999999994	0.0
C 	17.216585027234636	21.299999999999994	0.0
C 	18.44634110060854	22.009999999999994	0.0
C 	19.676097173982445	21.299999999999994	0.0
C 	20.905853247356347	22.009999999999994	0.0
C 	22.13560932073025	21.299999999999994	0.0
C 	23.365365394104153	22.009999999999994	0.0
C 	24.595121467478055	21.299999999999994	0.0
C 	25.824877540851958	22.009999999999994	0.0
C 	27.05463361422586	21.299999999999994	0.0
C 	28.284389687599766	22.009999999999994	0.0
C 	29.514145760973662	21.29999999999999	0.0
C 	30.743901834347568	22.00999999999999	0.0
C 	31.97365790772147	21.299999999999994	0.0
C 	33.20341398109537	22.009999999999994	0.0
C 	34.43317005446928	21.299999999999994	0.0
C 	35.662926127843185	22.009999999999994	0.0
C 	36.89268220121708	21.299999999999994	0.0
C 	38.122438274590984	22.009999999999994	0.0
C 	39.35219434796489	21.299999999999994	0.0
C 	40.58195042133879	22.009999999999994	0.0
C 	41.811706494712695	21.299999999999994	0.0
C 	43.0414625680866	22.009999999999994	0.0
C 	44.2712186414605	21.29999999999999	0.0
C 	45.5009747148344	22.00999999999999	0.0
C 	46.730730788208305	21.299999999999994	0.0
C 	47.96048686158221	22.009999999999994	0.0
C 	49.19024293495611	21.299999999999994	0.0
C 	50.41999900833002	22.009999999999994	0.0
C 	51.649755081703915	21.299999999999994	0.0
C 	52.879511155077815	22.00999999999999	0.0
C 	54.10926722845172	21.299999999999994	0.0
C 	55.33902330182563	22.009999999999994	0.0
C 	56.568779375199526	21.29999999999999	0.0
C 	57.798535448573425	22.00999999999999	0.0
C 	59.02829152194733	21.299999999999994	0.0
C 	60.25804759532124	22.009999999999994	0.0
C 	61.48780366869513	21.29999999999999	0.0
C 	62.717559742069035	22.00999999999999	0.0
C 	63.94731581544294	21.299999999999994	0.0
C 	65.17707188881684	22.009999999999987	0.0
C 	66.40682796219075	21.299999999999994	0.0
C 	67.63658403556465	22.009999999999994	0.0
C 	68.86634010893854	21.29999999999999	0.0
C 	70.09609618231245	22.00999999999999	0.0
C 	71.32585225568636	21.299999999999983	0.0
C 	72.55560832906026	22.00999999999999	0.0
C 	13.527316807112932	23.429999999999996	0.0
C 	14.757072880486836	24.139999999999997	0.0
C 	15.986828953860737	23.429999999999996	0.0
C 	17.216585027234643	24.139999999999997	0.0
C 	18.446341100608542	23.429999999999996	0.0
C 	19.676097173982445	24.139999999999997	0.0
C 	20.90585324735635	23.429999999999996	0.0
C 	22.135609320730254	24.139999999999997	0.0
C 	23.365365394104156	23.429999999999993	0.0
C 	24.595121467478062	24.139999999999997	0.0
C 	25.824877540851958	23.429999999999993	0.0
C 	27.054633614225864	24.139999999999993	0.0
C 	28.284389687599766	23.429999999999996	0.0
C 	29.514145760973673	24.139999999999997	0.0
C 	30.743901834347575	23.429999999999996	0.0
C 	31.973657907721478	24.139999999999997	0.0
C 	33.20341398109537	23.429999999999993	0.0
C 	34.43317005446928	24.139999999999993	0.0
C 	35.66292612784318	23.429999999999993	0.0
C 	36.892682201217085	24.139999999999993	0.0
C 	38.122438274590984	23.429999999999993	0.0
C 	39.35219434796489	24.139999999999993	0.0
C 	40.58195042133879	23.429999999999996	0.0
C 	41.811706494712695	24.139999999999993	0.0
C 	43.041462568086594	23.42999999999999	0.0
C 	44.2712186414605	24.13999999999999	0.0
C 	45.5009747148344	23.429999999999993	0.0
C 	46.730730788208305	24.139999999999993	0.0
C 	47.96048686158221	23.429999999999993	0.0
C 	49.19024293495611	24.139999999999993	0.0
C 	50.41999900833001	23.429999999999993	0.0
C 	51.649755081703915	24.13999999999999	0.0
C 	52.87951115507782	23.429999999999993	0.0
C 	54.10926722845172	24.139999999999993	0.0
C 	55.33902330182563	23.429999999999993	0.0
C 	56.56877937519953	24.139999999999993	0.0
C 	57.798535448573425	23.429999999999993	0.0
C 	59.02829152194733	24.139999999999993	0.0
C 	60.25804759532124	23.429999999999993	0.0
C 	61.487803668695136	24.13999999999999	0.0
C 	62.71755974206904	23.429999999999993	0.0
C 	63.947315815442934	24.139999999999986	0.0
C 	65.17707188881684	23.429999999999993	0.0
C 	66.40682796219075	24.139999999999993	0.0
C 	67.63658403556464	23.42999999999999	0.0
C 	68.86634010893856	24.139999999999997	0.0
C 	70.09609618231245	23.42999999999999	0.0
C 	71.32585225568636	24.139999999999997	0.0
C 	72.55560832906026	23.42999999999999	0.0
C 	73.78536440243417	24.13999999999999	0.0
C 	14.757072880486835	25.559999999999995	0.0
C 	15.986828953860735	26.269999999999996	0.0
C 	17.21658502723464	25.559999999999995	0.0
C 	18.44634110060854	26.269999999999996	0.0
C 	19.676097173982445	25.56	0.0
C 	20.905853247356344	26.269999999999996	0.0
C 	22.13560932073025	25.56	0.0
C 	23.365365394104153	26.269999999999996	0.0
C 	24.595121467478055	25.559999999999995	0.0
C 	25.824877540851958	26.269999999999996	0.0
C 	27.054633614225857	25.559999999999995	0.0
C 	28.28438968759976	26.269999999999996	0.0
C 	29.514145760973665	25.559999999999995	0.0
C 	30.743901834347568	26.269999999999996	0.0
C 	31.973657907721474	25.559999999999995	0.0
C 	33.20341398109538	26.269999999999996	0.0
C 	34.43317005446927	25.55999999999999	0.0
C 	35.66292612784318	26.269999999999992	0.0
C 	36.892682201217085	25.559999999999995	0.0
C 	38.12243827459098	26.269999999999992	0.0
C 	39.35219434796489	25.559999999999995	0.0
C 	40.58195042133879	26.269999999999992	0.0
C 	41.81170649471269	25.55999999999999	0.0
C 	43.041462568086594	26.269999999999992	0.0
C 	44.2712186414605	25.55999999999999	0.0
C 	45.5009747148344	26.26999999999999	0.0
C 	46.730730788208305	25.559999999999995	0.0
C 	47.960486861582204	26.269999999999992	0.0
C 	49.19024293495611	25.55999999999999	0.0
C 	50.41999900833001	26.269999999999992	0.0
C 	51.649755081703915	25.559999999999995	0.0
C 	52.879511155077815	26.269999999999992	0.0
C 	54.10926722845172	25.559999999999995	0.0
C 	55.33902330182562	26.269999999999992	0.0
C 	56.568779375199526	25.55999999999999	0.0
C 	57.79853544857343	26.269999999999992	0.0
C 	59.028291521947324	25.55999999999999	0.0
C 	60.25804759532123	26.269999999999992	0.0
C 	61.487803668695136	25.559999999999995	0.0
C 	62.717559742069035	26.26999999999999	0.0
C 	63.94731581544294	25.55999999999999	0.0
C 	65.17707188881683	26.269999999999985	0.0
C 	66.40682796219075	25.55999999999999	0.0
C 	67.63658403556465	26.269999999999992	0.0
C 	68.86634010893856	25.559999999999995	0.0
C 	70.09609618231246	26.269999999999996	0.0
C 	71.32585225568636	25.559999999999995	0.0
C 	72.55560832906026	26.269999999999996	0.0
C 	73.78536440243415	25.559999999999988	0.0
C 	75.01512047580806	26.26999999999999	0.0
C 	15.986828953860735	27.689999999999994	0.0
C 	17.21658502723464	28.399999999999995	0.0
C 	18.446341100608542	27.689999999999994	0.0
C 	19.676097173982445	28.399999999999995	0.0
C 	20.905853247356344	27.689999999999994	0.0
C 	22.13560932073025	28.399999999999995	0.0
C 	23.365365394104153	27.689999999999994	0.0
C 	24.59512146747806	28.399999999999995	0.0
C 	25.824877540851954	27.689999999999994	0.0
C 	27.054633614225857	28.399999999999995	0.0
C 	28.284389687599763	27.689999999999994	0.0
C 	29.514145760973665	28.399999999999995	0.0
C 	30.74390183434757	27.689999999999994	0.0
C 	31.973657907721474	28.399999999999995	0.0
C 	33.20341398109537	27.68999999999999	0.0
C 	34.43317005446928	28.39999999999999	0.0
C 	35.66292612784318	27.689999999999994	0.0
C 	36.892682201217085	28.399999999999995	0.0
C 	38.122438274590984	27.689999999999994	0.0
C 	39.35219434796489	28.399999999999995	0.0
C 	40.58195042133879	27.689999999999994	0.0
C 	41.811706494712695	28.399999999999995	0.0
C 	43.041462568086594	27.689999999999994	0.0
C 	44.2712186414605	28.399999999999995	0.0
C 	45.500974714834406	27.689999999999994	0.0
C 	46.730730788208305	28.399999999999995	0.0
C 	47.960486861582204	27.68999999999999	0.0
C 	49.19024293495611	28.39999999999999	0.0
C 	50.41999900833002	27.689999999999994	0.0
C 	51.649755081703915	28.399999999999995	0.0
C 	52.87951115507782	27.689999999999994	0.0
C 	54.10926722845173	28.399999999999995	0.0
C 	55.33902330182562	27.68999999999999	0.0
C 	56.568779375199526	28.39999999999999	0.0
C 	57.79853544857343	27.689999999999994	0.0
C 	59.02829152194733	28.39999999999999	0.0
C 	60.25804759532124	27.689999999999994	0.0
C 	61.48780366869513	28.399999999999988	0.0
C 	62.717559742069035	27.689999999999994	0.0
C 	63.94731581544294	28.399999999999995	0.0
C 	65.17707188881684	27.68999999999999	0.0
C 	66.40682796219075	28.39999999999999	0.0
C 	67.63658403556464	27.689999999999987	0.0
C 	68.86634010893856	28.399999999999995	0.0
C 	70.09609618231245	27.689999999999994	0.0
C 	71.32585225568636	28.399999999999995	0.0
C 	72.55560832906026	27.68999999999999	0.0
C 	73.78536440243415	28.39999999999999	0.0
C 	75.01512047580808	27.689999999999994	0.0
C 	76.24487654918197	28.399999999999984	0.0
C 	17.21658502723464	29.819999999999997	0.0
C 	18.446341100608546	30.529999999999998	0.0
C 	19.676097173982445	29.819999999999997	0.0
C 	20.905853247356355	30.529999999999998	0.0
C 	22.13560932073025	29.819999999999993	0.0
C 	23.365365394104156	30.529999999999994	0.0
C 	24.59512146747806	29.819999999999997	0.0
C 	25.82487754085196	30.529999999999998	0.0
C 	27.054633614225867	29.819999999999997	0.0
C 	28.28438968759977	30.529999999999998	0.0
C 	29.514145760973665	29.819999999999997	0.0
C 	30.74390183434757	30.529999999999998	0.0
C 	31.973657907721474	29.819999999999997	0.0
C 	33.20341398109538	30.529999999999998	0.0
C 	34.43317005446928	29.819999999999997	0.0
C 	35.662926127843185	30.529999999999998	0.0
C 	36.892682201217085	29.819999999999993	0.0
C 	38.12243827459099	30.529999999999994	0.0
C 	39.35219434796488	29.819999999999993	0.0
C 	40.58195042133879	30.529999999999994	0.0
C 	41.811706494712695	29.819999999999993	0.0
C 	43.0414625680866	30.529999999999994	0.0
C 	44.2712186414605	29.819999999999993	0.0
C 	45.500974714834406	30.529999999999994	0.0
C 	46.730730788208305	29.81999999999999	0.0
C 	47.960486861582204	30.52999999999999	0.0
C 	49.19024293495611	29.819999999999993	0.0
C 	50.41999900833002	30.529999999999994	0.0
C 	51.649755081703915	29.819999999999993	0.0
C 	52.87951115507782	30.529999999999994	0.0
C 	54.10926722845172	29.819999999999993	0.0
C 	55.33902330182563	30.52999999999999	0.0
C 	56.568779375199526	29.819999999999993	0.0
C 	57.798535448573425	30.52999999999999	0.0
C 	59.02829152194734	29.819999999999993	0.0
C 	60.25804759532124	30.529999999999994	0.0
C 	61.487803668695136	29.819999999999993	0.0
C 	62.71755974206904	30.529999999999994	0.0
C 	63.947315815442934	29.81999999999999	0.0
C 	65.17707188881685	30.529999999999998	0.0
C 	66.40682796219073	29.819999999999986	0.0
C 	67.63658403556465	30.529999999999994	0.0
C 	68.86634010893856	29.819999999999993	0.0
C 	70.09609618231245	30.529999999999994	0.0
C 	71.32585225568637	29.819999999999997	0.0
C 	72.55560832906026	30.52999999999999	0.0
C 	73.78536440243417	29.819999999999997	0.0
C 	75.01512047580806	30.529999999999987	0.0
C 	76.24487654918197	29.81999999999999	0.0
C 	77.47463262255587	30.52999999999999	0.0
C 	18.446341100608542	31.949999999999996	0.0
C 	19.676097173982445	32.65999999999999	0.0
C 	20.905853247356347	31.949999999999992	0.0
C 	22.135609320730254	32.66	0.0
C 	23.365365394104156	31.949999999999996	0.0
C 	24.595121467478055	32.65999999999999	0.0
C 	25.824877540851958	31.949999999999992	0.0
C 	27.05463361422586	32.66	0.0
C 	28.284389687599766	31.949999999999996	0.0
C 	29.51414576097367	32.66	0.0
C 	30.743901834347568	31.949999999999992	0.0
C 	31.97365790772147	32.66	0.0
C 	33.20341398109537	31.949999999999992	0.0
C 	34.43317005446928	32.66	0.0
C 	35.66292612784318	31.949999999999996	0.0
C 	36.892682201217085	32.66	0.0
C 	38.122438274590984	31.949999999999992	0.0
C 	39.35219434796489	32.65999999999999	0.0
C 	40.58195042133879	31.949999999999992	0.0
C 	41.81170649471269	32.65999999999999	0.0
C 	43.0414625680866	31.949999999999996	0.0
C 	44.2712186414605	32.65999999999999	0.0
C 	45.5009747148344	31.949999999999992	0.0
C 	46.730730788208305	32.65999999999999	0.0
C 	47.96048686158221	31.949999999999992	0.0
C 	49.1902429349561	32.65999999999999	0.0
C 	50.41999900833002	31.949999999999992	0.0
C 	51.649755081703915	32.65999999999999	0.0
C 	52.879511155077815	31.949999999999992	0.0
C 	54.10926722845172	32.65999999999999	0.0
C 	55.33902330182563	31.949999999999992	0.0
C 	56.568779375199526	32.65999999999999	0.0
C 	57.79853544857343	31.949999999999992	0.0
C 	59.028291521947324	32.65999999999999	0.0
C 	60.25804759532124	31.949999999999992	0.0
C 	61.487803668695136	32.65999999999999	0.0
C 	62.717559742069035	31.94999999999999	0.0
C 	63.94731581544294	32.65999999999999	0.0
C 	65.17707188881685	31.949999999999992	0.0
C 	66.40682796219076	32.66	0.0
C 	67.63658403556465	31.949999999999992	0.0
C 	68.86634010893856	32.65999999999999	0.0
C 	70.09609618231245	31.94999999999999	0.0
C 	71.32585225568636	32.65999999999999	0.0
C 	72.55560832906026	31.949999999999996	0.0
C 	73.78536440243415	32.65999999999999	0.0
C 	75.01512047580806	31.949999999999992	0.0
C 	76.24487654918195	32.65999999999998	0.0
C 	77.47463262255587	31.949999999999985	0.0
C 	78.70438869592978	32.65999999999999	0.0
C 	19.676097173982445	34.07999999999999	0.0
C 	20.90585324735635	34.78999999999999	0.0
C 	22.135609320730254	34.07999999999999	0.0
C 	23.365365394104156	34.78999999999999	0.0
C 	24.595121467478055	34.07999999999999	0.0
C 	25.824877540851958	34.78999999999999	0.0
C 	27.054633614225864	34.07999999999999	0.0
C 	28.284389687599766	34.78999999999999	0.0
C 	29.514145760973665	34.07999999999999	0.0
C 	30.743901834347568	34.78999999999999	0.0
C 	31.97365790772147	34.07999999999999	0.0
C 	33.20341398109537	34.78999999999999	0.0
C 	34.43317005446928	34.07999999999999	0.0
C 	35.662926127843185	34.78999999999999	0.0
C 	36.89268220121708	34.07999999999999	0.0
C 	38.122438274590984	34.78999999999999	0.0
C 	39.35219434796489	34.07999999999999	0.0
C 	40.581950421338796	34.78999999999999	0.0
C 	41.811706494712695	34.07999999999999	0.0
C 	43.0414625680866	34.78999999999999	0.0
C 	44.2712186414605	34.07999999999999	0.0
C 	45.5009747148344	34.78999999999999	0.0
C 	46.730730788208305	34.07999999999999	0.0
C 	47.96048686158221	34.78999999999999	0.0
C 	49.19024293495611	34.07999999999999	0.0
C 	50.41999900833002	34.78999999999999	0.0
C 	51.649755081703915	34.07999999999999	0.0
C 	52.87951115507782	34.78999999999999	0.0
C 	54.10926722845172	34.07999999999999	0.0
C 	55.33902330182562	34.78999999999999	0.0
C 	56.56877937519953	34.07999999999999	0.0
C 	57.79853544857343	34.78999999999999	0.0
C 	59.02829152194733	34.07999999999999	0.0
C 	60.25804759532124	34.78999999999999	0.0
C 	61.487803668695136	34.07999999999999	0.0
C 	62.71755974206905	34.79	0.0
C 	63.947315815442934	34.079999999999984	0.0
C 	65.17707188881685	34.78999999999999	0.0
C 	66.40682796219075	34.07999999999999	0.0
C 	67.63658403556465	34.78999999999999	0.0
C 	68.86634010893854	34.07999999999999	0.0
C 	70.09609618231245	34.78999999999999	0.0
C 	71.32585225568636	34.07999999999999	0.0
C 	72.55560832906025	34.789999999999985	0.0
C 	73.78536440243417	34.07999999999999	0.0
C 	75.01512047580808	34.78999999999999	0.0
C 	76.24487654918197	34.07999999999999	0.0
C 	77.47463262255587	34.78999999999999	0.0
C 	78.70438869592977	34.079999999999984	0.0
C 	79.93414476930369	34.78999999999999	0.0
C 	20.90585324735635	36.209999999999994	0.0
C 	22.135609320730254	36.919999999999995	0.0
C 	23.36536539410416	36.209999999999994	0.0
C 	24.595121467478062	36.919999999999995	0.0
C 	25.82487754085196	36.209999999999994	0.0
C 	27.054633614225864	36.919999999999995	0.0
C 	28.284389687599766	36.209999999999994	0.0
C 	29.514145760973673	36.919999999999995	0.0
C 	30.743901834347575	36.209999999999994	0.0
C 	31.973657907721478	36.919999999999995	0.0
C 	33.20341398109537	36.209999999999994	0.0
C 	34.43317005446928	36.919999999999995	0.0
C 	35.662926127843185	36.209999999999994	0.0
C 	36.89268220121709	36.919999999999995	0.0
C 	38.12243827459099	36.209999999999994	0.0
C 	39.3521943479649	36.919999999999995	0.0
C 	40.581950421338796	36.209999999999994	0.0
C 	41.811706494712695	36.919999999999995	0.0
C 	43.041462568086594	36.209999999999994	0.0
C 	44.2712186414605	36.919999999999995	0.0
C 	45.500974714834406	36.209999999999994	0.0
C 	46.730730788208305	36.919999999999995	0.0
C 	47.96048686158221	36.209999999999994	0.0
C 	49.19024293495612	36.919999999999995	0.0
C 	50.41999900833002	36.20999999999999	0.0
C 	51.649755081703915	36.91999999999999	0.0
C 	52.87951115507782	36.209999999999994	0.0
C 	54.10926722845172	36.91999999999999	0.0
C 	55.33902330182563	36.209999999999994	0.0
C 	56.56877937519953	36.919999999999995	0.0
C 	57.79853544857343	36.20999999999999	0.0
C 	59.02829152194733	36.91999999999999	0.0
C 	60.25804759532123	36.20999999999999	0.0
C 	61.48780366869515	36.919999999999995	0.0
C 	62.71755974206904	36.209999999999994	0.0
C 	63.94731581544295	36.919999999999995	0.0
C 	65.17707188881684	36.209999999999994	0.0
C 	66.40682796219075	36.919999999999995	0.0
C 	67.63658403556467	36.209999999999994	0.0
C 	68.86634010893856	36.91999999999999	0.0
C 	70.09609618231246	36.209999999999994	0.0
C 	71.32585225568636	36.91999999999999	0.0
C 	72.55560832906026	36.209999999999994	0.0
C 	73.78536440243417	36.919999999999995	0.0
C 	75.01512047580806	36.20999999999999	0.0
C 	76.24487654918198	36.919999999999995	0.0
C 	77.47463262255586	36.20999999999999	0.0
C 	78.70438869592978	36.919999999999995	0.0
C 	79.93414476930369	36.20999999999999	0.0
C 	81.16390084267759	36.91999999999999	0.0
C 	22.13560932073025	38.33999999999999	0.0
C 	23.365365394104153	39.04999999999999	0.0
C 	24.59512146747806	38.33999999999999	0.0
C 	25.82487754085196	39.04999999999999	0.0
C 	27.05463361422586	38.33999999999999	0.0
C 	28.284389687599763	39.04999999999999	0.0
C 	29.514145760973665	38.33999999999999	0.0
C 	30.74390183434757	39.04999999999999	0.0
C 	31.973657907721474	38.339999999999996	0.0
C 	33.20341398109538	39.04999999999999	0.0
C 	34.43317005446927	38.33999999999999	0.0
C 	35.66292612784318	39.04999999999999	0.0
C 	36.892682201217085	38.33999999999999	0.0
C 	38.12243827459099	39.04999999999999	0.0
C 	39.35219434796489	38.33999999999999	0.0
C 	40.581950421338796	39.04999999999999	0.0
C 	41.811706494712695	38.33999999999999	0.0
C 	43.0414625680866	39.04999999999999	0.0
C 	44.27121864146049	38.33999999999999	0.0
C 	45.5009747148344	39.04999999999999	0.0
C 	46.730730788208305	38.33999999999999	0.0
C 	47.960486861582204	39.04999999999999	0.0
C 	49.19024293495611	38.33999999999999	0.0
C 	50.41999900833002	39.04999999999999	0.0
C 	51.649755081703915	38.33999999999999	0.0
C 	52.879511155077815	39.04999999999999	0.0
C 	54.10926722845173	38.33999999999999	0.0
C 	55.33902330182562	39.04999999999998	0.0
C 	56.568779375199526	38.33999999999999	0.0
C 	57.79853544857343	39.04999999999999	0.0
C 	59.02829152194733	38.33999999999999	0.0
C 	60.25804759532123	39.04999999999999	0.0
C 	61.48780366869513	38.33999999999998	0.0
C 	62.71755974206905	39.04999999999999	0.0
C 	63.94731581544294	38.33999999999999	0.0
C 	65.17707188881685	39.04999999999999	0.0
C 	66.40682796219075	38.33999999999999	0.0
C 	67.63658403556465	39.04999999999999	0.0
C 	68.86634010893856	38.33999999999999	0.0
C 	70.09609618231245	39.04999999999998	0.0
C 	71.32585225568636	38.33999999999999	0.0
C 	72.55560832906025	39.04999999999998	0.0
C 	73.78536440243415	38.33999999999999	0.0
C 	75.01512047580806	39.04999999999999	0.0
C 	76.24487654918197	38.33999999999999	0.0
C 	77.47463262255587	39.05	0.0
C 	78.70438869592977	38.33999999999998	0.0
C 	79.93414476930369	39.04999999999999	0.0
C 	81.16390084267758	38.33999999999998	0.0
C 	82.39365691605148	39.04999999999998	0.0
C 	23.365365394104156	40.46999999999999	0.0
C 	24.59512146747806	41.17999999999999	0.0
C 	25.82487754085196	40.46999999999999	0.0
C 	27.054633614225867	41.17999999999999	0.0
C 	28.284389687599763	40.46999999999999	0.0
C 	29.51414576097367	41.17999999999999	0.0
C 	30.74390183434757	40.46999999999999	0.0
C 	31.973657907721474	41.17999999999999	0.0
C 	33.20341398109537	40.46999999999999	0.0
C 	34.43317005446928	41.17999999999999	0.0
C 	35.66292612784318	40.46999999999999	0.0
C 	36.892682201217085	41.17999999999999	0.0
C 	38.12243827459099	40.46999999999999	0.0
C 	39.3521943479649	41.17999999999999	0.0
C 	40.58195042133879	40.46999999999999	0.0
C 	41.811706494712695	41.17999999999999	0.0
C 	43.0414625680866	40.46999999999999	0.0
C 	44.2712186414605	41.17999999999999	0.0
C 	45.500974714834406	40.46999999999999	0.0
C 	46.73073078820831	41.17999999999999	0.0
C 	47.960486861582204	40.46999999999999	0.0
C 	49.19024293495611	41.17999999999999	0.0
C 	50.41999900833002	40.46999999999999	0.0
C 	51.649755081703915	41.179999999999986	0.0
C 	52.87951115507782	40.46999999999999	0.0
C 	54.10926722845173	41.17999999999999	0.0
C 	55.33902330182563	40.46999999999999	0.0
C 	56.568779375199526	41.17999999999999	0.0
C 	57.798535448573425	40.469999999999985	0.0
C 	59.028291521947345	41.17999999999999	0.0
C 	60.25804759532124	40.46999999999999	0.0
C 	61.48780366869514	41.17999999999999	0.0
C 	62.71755974206904	40.46999999999999	0.0
C 	63.94731581544295	41.17999999999999	0.0
C 	65.17707188881685	40.46999999999999	0.0
C 	66.40682796219075	41.179999999999986	0.0
C 	67.63658403556465	40.46999999999999	0.0
C 	68.86634010893854	41.179999999999986	0.0
C 	70.09609618231246	40.46999999999999	0.0
C 	71.32585225568636	41.17999999999999	0.0
C 	72.55560832906026	40.469999999999985	0.0
C 	73.78536440243417	41.179999999999986	0.0
C 	75.01512047580806	40.469999999999985	0.0
C 	76.24487654918198	41.17999999999999	0.0
C 	77.47463262255587	40.46999999999999	0.0
C 	78.70438869592978	41.17999999999999	0.0
C 	79.93414476930367	40.469999999999985	0.0
C 	81.16390084267758	41.179999999999986	0.0
C 	82.3936569160515	40.46999999999999	0.0
C 	83.62341298942539	41.179999999999986	0.0
C 	24.595121467478055	42.59999999999999	0.0
C 	25.82487754085196	43.30999999999999	0.0
C 	27.05463361422586	42.59999999999999	0.0
C 	28.284389687599766	43.30999999999999	0.0
C 	29.514145760973662	42.59999999999999	0.0
C 	30.743901834347568	43.30999999999999	0.0
C 	31.97365790772147	42.59999999999999	0.0
C 	33.20341398109537	43.30999999999999	0.0
C 	34.43317005446927	42.59999999999999	0.0
C 	35.66292612784318	43.30999999999999	0.0
C 	36.89268220121708	42.59999999999999	0.0
C 	38.122438274590984	43.30999999999999	0.0
C 	39.35219434796489	42.59999999999999	0.0
C 	40.581950421338796	43.30999999999999	0.0
C 	41.81170649471269	42.59999999999999	0.0
C 	43.041462568086594	43.30999999999999	0.0
C 	44.2712186414605	42.59999999999999	0.0
C 	45.5009747148344	43.30999999999999	0.0
C 	46.730730788208305	42.59999999999999	0.0
C 	47.96048686158221	43.30999999999999	0.0
C 	49.19024293495611	42.59999999999999	0.0
C 	50.41999900833001	43.30999999999999	0.0
C 	51.64975508170392	42.599999999999994	0.0
C 	52.879511155077815	43.30999999999999	0.0
C 	54.10926722845172	42.59999999999999	0.0
C 	55.33902330182563	43.30999999999999	0.0
C 	56.568779375199526	42.59999999999999	0.0
C 	57.798535448573425	43.30999999999999	0.0
C 	59.028291521947324	42.59999999999998	0.0
C 	60.258047595321244	43.30999999999999	0.0
C 	61.487803668695136	42.59999999999999	0.0
C 	62.71755974206904	43.30999999999999	0.0
C 	63.94731581544294	42.59999999999999	0.0
C 	65.17707188881684	43.30999999999999	0.0
C 	66.40682796219076	42.599999999999994	0.0
C 	67.63658403556465	43.30999999999999	0.0
C 	68.86634010893856	42.59999999999999	0.0
C 	70.09609618231245	43.30999999999998	0.0
C 	71.32585225568636	42.59999999999999	0.0
C 	72.55560832906026	43.30999999999999	0.0
C 	73.78536440243415	42.59999999999999	0.0
C 	75.01512047580806	43.30999999999999	0.0
C 	76.24487654918197	42.59999999999998	0.0
C 	77.47463262255587	43.30999999999999	0.0
C 	78.70438869592978	42.59999999999999	0.0
C 	79.93414476930367	43.30999999999999	0.0
C 	81.16390084267758	42.59999999999999	0.0
C 	82.39365691605148	43.30999999999999	0.0
C 	83.62341298942539	42.59999999999999	0.0
C 	84.85316906279928	43.30999999999998	0.0
C 	25.82487754085196	44.72999999999999	0.0
C 	27.054633614225864	45.43999999999999	0.0
C 	28.284389687599766	44.72999999999999	0.0
C 	29.514145760973673	45.43999999999999	0.0
C 	30.743901834347568	44.72999999999999	0.0
C 	31.97365790772147	45.43999999999999	0.0
C 	33.20341398109537	44.72999999999999	0.0
C 	34.43317005446928	45.43999999999999	0.0
C 	35.662926127843185	44.72999999999999	0.0
C 	36.892682201217085	45.43999999999999	0.0
C 	38.122438274590984	44.72999999999999	0.0
C 	39.35219434796489	45.43999999999999	0.0
C 	40.581950421338796	44.72999999999999	0.0
C 	41.811706494712695	45.43999999999999	0.0
C 	43.0414625680866	44.72999999999999	0.0
C 	44.27121864146051	45.43999999999999	0.0
C 	45.500974714834406	44.72999999999999	0.0
C 	46.730730788208305	45.43999999999999	0.0
C 	47.960486861582204	44.72999999999999	0.0
C 	49.19024293495611	45.43999999999998	0.0
C 	50.41999900833002	44.72999999999999	0.0
C 	51.64975508170391	45.43999999999998	0.0
C 	52.87951115507782	44.72999999999999	0.0
C 	54.10926722845172	45.43999999999999	0.0
C 	55.33902330182562	44.72999999999998	0.0
C 	56.568779375199526	45.43999999999998	0.0
C 	57.798535448573425	44.72999999999998	0.0
C 	59.02829152194734	45.43999999999999	0.0
C 	60.25804759532124	44.72999999999999	0.0
C 	61.48780366869514	45.43999999999999	0.0
C 	62.717559742069035	44.72999999999998	0.0
C 	63.94731581544294	45.43999999999998	0.0
C 	65.17707188881685	44.72999999999999	0.0
C 	66.40682796219075	45.43999999999998	0.0
C 	67.63658403556465	44.72999999999999	0.0
C 	68.86634010893856	45.43999999999999	0.0
C 	70.09609618231245	44.72999999999999	0.0
C 	71.32585225568636	45.43999999999998	0.0
C 	72.55560832906026	44.72999999999998	0.0
C 	73.78536440243417	45.43999999999999	0.0
C 	75.01512047580806	44.72999999999998	0.0
C 	76.24487654918198	45.43999999999999	0.0
C 	77.47463262255587	44.72999999999999	0.0
C 	78.70438869592978	45.43999999999999	0.0
C 	79.93414476930369	44.72999999999999	0.0
C 	81.16390084267758	45.43999999999998	0.0
C 	82.39365691605148	44.72999999999999	0.0
C 	83.62341298942538	45.43999999999998	0.0
C 	84.8531690627993	44.72999999999998	0.0
C 	86.08292513617319	45.43999999999998	0.0
C 	27.054633614225864	46.85999999999999	0.0
C 	28.28438968759977	47.56999999999999	0.0
C 	29.514145760973673	46.85999999999999	0.0
C 	30.74390183434758	47.56999999999999	0.0
C 	31.973657907721474	46.85999999999999	0.0
C 	33.20341398109538	47.56999999999999	0.0
C 	34.43317005446928	46.85999999999999	0.0
C 	35.662926127843185	47.56999999999999	0.0
C 	36.892682201217085	46.85999999999999	0.0
C 	38.122438274590984	47.56999999999999	0.0
C 	39.35219434796489	46.85999999999999	0.0
C 	40.581950421338796	47.56999999999999	0.0
C 	41.8117064947127	46.85999999999999	0.0
C 	43.0414625680866	47.56999999999999	0.0
C 	44.2712186414605	46.85999999999999	0.0
C 	45.500974714834406	47.56999999999999	0.0
C 	46.73073078820831	46.859999999999985	0.0
C 	47.960486861582204	47.569999999999986	0.0
C 	49.19024293495612	46.85999999999999	0.0
C 	50.41999900833002	47.56999999999999	0.0
C 	51.649755081703915	46.859999999999985	0.0
C 	52.87951115507782	47.569999999999986	0.0
C 	54.10926722845172	46.859999999999985	0.0
C 	55.339023301825634	47.56999999999999	0.0
C 	56.56877937519953	46.85999999999999	0.0
C 	57.79853544857344	47.56999999999999	0.0
C 	59.02829152194733	46.859999999999985	0.0
C 	60.25804759532124	47.569999999999986	0.0
C 	61.48780366869515	46.85999999999999	0.0
C 	62.71755974206904	47.569999999999986	0.0
C 	63.94731581544295	46.85999999999999	0.0
C 	65.17707188881685	47.56999999999999	0.0
C 	66.40682796219075	46.859999999999985	0.0
C 	67.63658403556465	47.569999999999986	0.0
C 	68.86634010893856	46.859999999999985	0.0
C 	70.09609618231246	47.56999999999999	0.0
C 	71.32585225568636	46.859999999999985	0.0
C 	72.55560832906028	47.56999999999999	0.0
C 	73.78536440243417	46.859999999999985	0.0
C 	75.01512047580808	47.569999999999986	0.0
C 	76.24487654918197	46.859999999999985	0.0
C 	77.47463262255587	47.569999999999986	0.0
C 	78.70438869592978	46.85999999999999	0.0
C 	79.93414476930367	47.569999999999986	0.0
C 	81.16390084267758	46.85999999999999	0.0
C 	82.39365691605148	47.56999999999999	0.0
C 	83.62341298942539	46.859999999999985	0.0
C 	84.8531690627993	47.569999999999986	0.0
C 	86.08292513617319	46.85999999999998	0.0
C 	87.31268120954711	47.569999999999986	0.0
C 	28.284389687599763	48.98999999999999	0.0
C 	29.51414576097367	49.69999999999999	0.0
C 	30.74390183434757	48.98999999999999	0.0
C 	31.973657907721478	49.69999999999999	0.0
C 	33.20341398109537	48.98999999999999	0.0
C 	34.43317005446928	49.69999999999999	0.0
C 	35.66292612784318	48.98999999999999	0.0
C 	36.892682201217085	49.69999999999999	0.0
C 	38.122438274590984	48.98999999999999	0.0
C 	39.35219434796488	49.69999999999999	0.0
C 	40.58195042133879	48.98999999999999	0.0
C 	41.811706494712695	49.69999999999999	0.0
C 	43.041462568086594	48.98999999999999	0.0
C 	44.2712186414605	49.69999999999999	0.0
C 	45.5009747148344	48.98999999999999	0.0
C 	46.730730788208305	49.69999999999998	0.0
C 	47.96048686158221	48.98999999999999	0.0
C 	49.1902429349561	49.69999999999998	0.0
C 	50.41999900833002	48.98999999999999	0.0
C 	51.64975508170392	49.69999999999999	0.0
C 	52.879511155077815	48.98999999999999	0.0
C 	54.10926722845172	49.69999999999999	0.0
C 	55.33902330182562	48.98999999999998	0.0
C 	56.56877937519953	49.69999999999999	0.0
C 	57.79853544857343	48.98999999999999	0.0
C 	59.02829152194734	49.69999999999999	0.0
C 	60.25804759532124	48.98999999999999	0.0
C 	61.487803668695136	49.69999999999999	0.0
C 	62.71755974206905	48.98999999999999	0.0
C 	63.94731581544294	49.69999999999998	0.0
C 	65.17707188881685	48.98999999999999	0.0
C 	66.40682796219075	49.69999999999999	0.0
C 	67.63658403556465	48.98999999999999	0.0
C 	68.86634010893856	49.69999999999999	0.0
C 	70.09609618231245	48.98999999999998	0.0
C 	71.32585225568637	49.69999999999999	0.0
C 	72.55560832906025	48.98999999999998	0.0
C 	73.78536440243417	49.69999999999999	0.0
C 	75.01512047580806	48.98999999999999	0.0
C 	76.24487654918197	49.69999999999999	0.0
C 	77.47463262255587	48.98999999999998	0.0
C 	78.70438869592978	49.69999999999998	0.0
C 	79.93414476930369	48.98999999999999	0.0
C 	81.16390084267758	49.69999999999998	0.0
C 	82.39365691605148	48.98999999999999	0.0
C 	83.62341298942539	49.69999999999999	0.0
C 	84.85316906279928	48.98999999999998	0.0
C 	86.08292513617319	49.69999999999998	0.0
C 	87.3126812095471	48.98999999999998	0.0
C 	88.542437282921	49.69999999999999	0.0
C 	29.51414576097367	51.11999999999999	0.0
C 	30.74390183434757	51.82999999999999	0.0
C 	31.973657907721474	51.11999999999999	0.0
C 	33.20341398109538	51.82999999999999	0.0
C 	34.43317005446928	51.11999999999999	0.0
C 	35.66292612784318	51.82999999999999	0.0
C 	36.892682201217085	51.11999999999999	0.0
C 	38.12243827459099	51.82999999999999	0.0
C 	39.35219434796489	51.12	0.0
C 	40.581950421338796	51.83	0.0
C 	41.811706494712695	51.11999999999999	0.0
C 	43.041462568086594	51.82999999999999	0.0
C 	44.2712186414605	51.12	0.0
C 	45.5009747148344	51.82999999999999	0.0
C 	46.73073078820831	51.11999999999999	0.0
C 	47.96048686158221	51.82999999999999	0.0
C 	49.19024293495611	51.11999999999999	0.0
C 	50.41999900833002	51.82999999999999	0.0
C 	51.649755081703915	51.11999999999998	0.0
C 	52.879511155077815	51.829999999999984	0.0
C 	54.10926722845171	51.11999999999999	0.0
C 	55.33902330182563	51.83	0.0
C 	56.568779375199526	51.11999999999999	0.0
C 	57.79853544857343	51.82999999999999	0.0
C 	59.02829152194733	51.11999999999999	0.0
C 	60.25804759532124	51.82999999999999	0.0
C 	61.48780366869514	51.11999999999999	0.0
C 	62.717559742069035	51.829999999999984	0.0
C 	63.94731581544295	51.11999999999999	0.0
C 	65.17707188881685	51.82999999999999	0.0
C 	66.40682796219075	51.11999999999999	0.0
C 	67.63658403556465	51.82999999999999	0.0
C 	68.86634010893854	51.11999999999998	0.0
C 	70.09609618231246	51.82999999999999	0.0
C 	71.32585225568636	51.11999999999999	0.0
C 	72.55560832906026	51.82999999999999	0.0
C 	73.78536440243417	51.11999999999999	0.0
C 	75.01512047580806	51.82999999999999	0.0
C 	76.24487654918198	51.11999999999999	0.0
C 	77.47463262255587	51.829999999999984	0.0
C 	78.70438869592978	51.11999999999999	0.0
C 	79.93414476930367	51.829999999999984	0.0
C 	81.16390084267758	51.11999999999999	0.0
C 	82.39365691605148	51.82999999999999	0.0
C 	83.62341298942538	51.11999999999998	0.0
C 	84.8531690627993	51.82999999999999	0.0
C 	86.08292513617319	51.11999999999998	0.0
C 	87.3126812095471	51.82999999999999	0.0
C 	88.542437282921	51.11999999999998	0.0
C 	89.7721933562949	51.829999999999984	0.0
C 	52.99749762331443	-0.3323336678415659	2.15
C 	54.275950278705544	0.28569449326713314	2.15
C 	54.37994851862678	1.7018810509258653	2.15
C 	55.6584011740179	2.319909212034571	2.15
C 	55.762399413939136	3.7360957696933026	2.15
C 	57.04085206933024	4.354123930802009	2.15
C 	57.14485030925148	5.7703104884607415	2.15
C 	58.4233029646426	6.388338649569439	2.15
C 	58.52730120456384	7.8045252072281714	2.15
C 	50.54459055245343	-0.15220343240024473	2.15
C 	51.82304320784455	0.465824728708461	2.15
C 	51.92704144776579	1.8820112863671932	2.15
C 	53.20549410315691	2.5000394474758916	2.15
C 	53.30949234307815	3.9162260051346234	2.15
C 	54.58794499846926	4.534254166243329	2.15
C 	54.6919432383905	5.950440723902061	2.15
C 	55.97039589378161	6.568468885010767	2.15
C 	56.074394133702846	7.984655442669499	2.15
C 	57.35284678909396	8.602683603778198	2.15
C 	57.45684502901519	10.018870161436931	2.15
C 	58.73529768440631	10.636898322545635	2.15
C 	58.83929592432755	12.053084880204368	2.15
C 	60.11774857971867	12.671113041313074	2.15
C 	60.22174681963991	14.087299598971805	2.15
C 	61.500199475031	14.705327760080506	2.15
C 	61.60419771495224	16.121514317739237	2.15
C 	62.88265037034336	16.739542478847945	2.15
C 	62.9866486102646	18.155729036506674	2.15
C 	64.26510126565572	18.77375719761538	2.15
C 	64.36909950557695	20.18994375527411	2.15
C 	65.64755216096808	20.80797191638281	2.15
C 	65.75155040088931	22.224158474041545	2.15
C 	67.03000305628044	22.84218663515024	2.15
C 	67.13400129620167	24.258373192808975	2.15
C 	68.41245395159277	24.876401353917686	2.15
C 	68.516452191514	26.29258791157642	2.15
C 	69.79490484690513	26.91061607268512	2.15
C 	69.89890308682637	28.32680263034385	2.15
C 	71.17735574221749	28.94483079145255	2.15
C 	71.28135398213873	30.361017349111282	2.15
C 	72.55980663752983	30.979045510219994	2.15
C 	72.66380487745107	32.39523206787872	2.15
C 	73.94225753284218	33.01326022898743	2.15
C 	74.04625577276342	34.42944678664616	2.15
C 	48.09168348159245	0.02792680304106854	2.15
C 	49.370136136983554	0.6459549641497743	2.15
C 	49.47413437690479	2.0621415218085066	2.15
C 	50.75258703229591	2.680169682917213	2.15
C 	50.856585272217146	4.096356240575945	2.15
C 	52.13503792760826	4.714384401684644	2.15
C 	52.2390361675295	6.130570959343376	2.15
C 	53.51748882292062	6.748599120452081	2.15
C 	53.62148706284186	8.164785678110814	2.15
C 	54.89993971823298	8.78281383921952	2.15
C 	55.00393795815421	10.199000396878251	2.15
C 	56.28239061354532	10.81702855798695	2.15
C 	56.386388853466556	12.233215115645681	2.15
C 	57.66484150885767	12.851243276754388	2.15
C 	57.7688397487789	14.26742983441312	2.15
C 	59.04729240417002	14.885457995521826	2.15
C 	59.15129064409126	16.30164455318056	2.15
C 	60.429743299482375	16.919672714289256	2.15
C 	60.533741539403614	18.33585927194799	2.15
C 	61.81219419479473	18.953887433056693	2.15
C 	61.91619243471596	20.370073990715426	2.15
C 	63.19464509010707	20.988102151824133	2.15
C 	63.29864333002831	22.404288709482863	2.15
C 	64.57709598541943	23.022316870591563	2.15
C 	64.68109422534067	24.438503428250296	2.15
C 	65.95954688073179	25.056531589358993	2.15
C 	66.06354512065303	26.472718147017726	2.15
C 	67.34199777604412	27.09074630812644	2.15
C 	67.44599601596536	28.50693286578517	2.15
C 	68.7244486713565	29.124961026893867	2.15
C 	68.82844691127774	30.5411475845526	2.15
C 	70.10689956666884	31.1591757456613	2.15
C 	70.21089780659008	32.575362303320034	2.15
C 	71.48935046198119	33.193390464428745	2.15
C 	71.59334870190243	34.60957702208748	2.15
C 	72.87180135729355	35.227605183196175	2.15
C 	72.97579959721479	36.64379174085491	2.15
C 	74.2542522526059	37.261819901963605	2.15
C 	74.35825049252713	38.67800645962234	2.15
C 	45.638776410731445	0.20805703848239684	2.15
C 	46.917229066122566	0.826085199591095	2.15
C 	47.021227306043805	2.2422717572498274	2.15
C 	48.299679961434926	2.860299918358533	2.15
C 	48.403678201356165	4.276486476017265	2.15
C 	49.682130856747264	4.894514637125971	2.15
C 	49.7861290966685	6.310701194784703	2.15
C 	51.06458175205962	6.928729355893402	2.15
C 	51.168579991980856	8.344915913552134	2.15
C 	52.44703264737198	8.96294407466084	2.15
C 	52.55103088729321	10.379130632319573	2.15
C 	53.82948354268433	10.997158793428277	2.15
C 	53.93348178260557	12.41334535108701	2.15
C 	55.21193443799669	13.031373512195708	2.15
C 	55.31593267791792	14.44756006985444	2.15
C 	56.59438533330902	15.065588230963147	2.15
C 	56.69838357323026	16.48177478862188	2.15
C 	57.97683622862138	17.099802949730584	2.15
C 	58.08083446854262	18.515989507389317	2.15
C 	59.35928712393374	19.134017668498014	2.15
C 	59.46328536385497	20.550204226156747	2.15
C 	60.74173801924609	21.16823238726545	2.15
C 	60.84573625916733	22.584418944924185	2.15
C 	62.12418891455843	23.202447106032892	2.15
C 	62.22818715447967	24.618633663691625	2.15
C 	63.506639809870784	25.236661824800322	2.15
C 	63.61063804979202	26.652848382459055	2.15
C 	64.88909070518314	27.270876543567752	2.15
C 	64.99308894510438	28.687063101226485	2.15
C 	66.2715416004955	29.305091262335196	2.15
C 	66.37553984041674	30.72127781999393	2.15
C 	67.65399249580786	31.33930598110263	2.15
C 	67.7579907357291	32.75549253876136	2.15
C 	69.03644339112019	33.373520699870056	2.15
C 	69.14044163104143	34.78970725752879	2.15
C 	70.41889428643256	35.4077354186375	2.15
C 	70.5228925263538	36.82392197629623	2.15
C 	71.8013451817449	37.44195013740494	2.15
C 	71.90534342166615	38.85813669506367	2.15
C 	73.18379607705725	39.47616485617237	2.15
C 	73.28779431697849	40.8923514138311	2.15
C 	43.18586933987046	0.3881872739237101	2.15
C 	44.46432199526157	1.0062154350324157	2.15
C 	44.56832023518281	2.422401992691148	2.15
C 	45.846772890573924	3.0404301537998473	2.15
C 	45.950771130495156	4.4566167114585795	2.15
C 	47.229223785886276	5.074644872567284	2.15
C 	47.333222025807515	6.490831430226017	2.15
C 	48.611674681198636	7.108859591334722	2.15
C 	48.715672921119875	8.525046148993455	2.15
C 	49.99412557651098	9.143074310102154	2.15
C 	50.098123816432214	10.559260867760885	2.15
C 	51.376576471823334	11.177289028869591	2.15
C 	51.48057471174457	12.593475586528323	2.15
C 	52.75902736713569	13.21150374763703	2.15
C 	52.86302560705692	14.627690305295761	2.15
C 	54.14147826244804	15.24571846640446	2.15
C 	54.24547650236928	16.66190502406319	2.15
C 	55.52392915776039	17.2799331851719	2.15
C 	55.62792739768163	18.696119742830632	2.15
C 	56.906380053072745	19.314147903939336	2.15
C 	57.01037829299398	20.73033446159807	2.15
C 	58.28883094838509	21.348362622706766	2.15
C 	58.39282918830633	22.7645491803655	2.15
C 	59.67128184369745	23.382577341474203	2.15
C 	59.77528008361868	24.798763899132936	2.15
C 	61.053732739009796	25.416792060241644	2.15
C 	61.157730978931035	26.832978617900373	2.15
C 	62.43618363432215	27.451006779009074	2.15
C 	62.54018187424339	28.867193336667807	2.15
C 	63.8186345296345	29.485221497776504	2.15
C 	63.92263276955574	30.901408055435237	2.15
C 	65.20108542494685	31.519436216543948	2.15
C 	65.30508366486809	32.935622774202685	2.15
C 	66.58353632025921	33.55365093531138	2.15
C 	66.68753456018045	34.969837492970115	2.15
C 	67.96598721557156	35.58786565407881	2.15
C 	68.06998545549278	37.004052211737545	2.15
C 	69.34843811088392	37.622080372846256	2.15
C 	69.45243635080516	39.03826693050499	2.15
C 	70.73088900619626	39.656295091613686	2.15
C 	70.8348872461175	41.07248164927242	2.15
C 	72.11333990150862	41.690509810381116	2.15
C 	72.21733814142985	43.10669636803985	2.15
C 	40.73296226900946	0.5683175093650384	2.15
C 	42.01141492440058	1.1863456704737365	2.15
C 	42.11541316432182	2.602532228132469	2.15
C 	43.393865819712936	3.2205603892411747	2.15
C 	43.497864059634175	4.6367469468999065	2.15
C 	44.77631671502528	5.254775108008605	2.15
C 	44.88031495494652	6.670961665667337	2.15
C 	46.158767610337634	7.288989826776044	2.15
C 	46.26276585025887	8.705176384434775	2.15
C 	47.541218505649994	9.323204545543481	2.15
C 	47.645216745571226	10.739391103202212	2.15
C 	48.923669400962346	11.357419264310911	2.15
C 	49.027667640883585	12.773605821969644	2.15
C 	50.3061202962747	13.39163398307835	2.15
C 	50.41011853619593	14.807820540737081	2.15
C 	51.688571191587044	15.425848701845787	2.15
C 	51.792569431508284	16.84203525950452	2.15
C 	53.0710220868994	17.46006342061322	2.15
C 	53.175020326820636	18.87624997827195	2.15
C 	54.45347298221176	19.494278139380658	2.15
C 	54.55747122213299	20.910464697039387	2.15
C 	55.83592387752411	21.528492858148095	2.15
C 	55.93992211744535	22.944679415806828	2.15
C 	57.21837477283645	23.562707576915525	2.15
C 	57.32237301275768	24.978894134574258	2.15
C 	58.6008256681488	25.596922295682962	2.15
C 	58.70482390807004	27.013108853341695	2.15
C 	59.98327656346116	27.631137014450402	2.15
C 	60.0872748033824	29.047323572109132	2.15
C 	61.36572745877351	29.665351733217832	2.15
C 	61.46972569869475	31.081538290876562	2.15
C 	62.748178354085866	31.699566451985262	2.15
C 	62.852176594007105	33.115753009643996	2.15
C 	64.13062924939821	33.73378117075271	2.15
C 	64.23462748931945	35.14996772841144	2.15
C 	65.51308014471057	35.76799588952014	2.15
C 	65.61707838463181	37.18418244717887	2.15
C 	66.89553104002292	37.80221060828757	2.15
C 	66.99952927994416	39.2183971659463	2.15
C 	68.27798193533528	39.83642532705501	2.15
C 	68.38198017525652	41.252611884713744	2.15
C 	69.66043283064762	41.87064004582245	2.15
C 	69.76443107056885	43.28682660348118	2.15
C 	71.04288372595998	43.90485476458988	2.15
C 	71.14688196588122	45.32104132224861	2.15
C 	38.280055198148474	0.7484477448063512	2.15
C 	39.55850785353959	1.3664759059150609	2.15
C 	39.66250609346083	2.7826624635737898	2.15
C 	40.94095874885194	3.4006906246824924	2.15
C 	41.04495698877317	4.816877182341221	2.15
C 	42.32340964416429	5.4349053434499295	2.15
C 	42.42740788408553	6.851091901108658	2.15
C 	43.705860539476646	7.46912006221736	2.15
C 	43.809858779397885	8.88530661987609	2.15
C 	45.088311434789	9.5033347809848	2.15
C 	45.19230967471023	10.919521338643527	2.15
C 	46.470762330101344	11.537549499752236	2.15
C 	46.57476057002258	12.953736057410966	2.15
C 	47.853213225413704	13.571764218519666	2.15
C 	47.957211465334936	14.987950776178396	2.15
C 	49.23566412072606	15.605978937287105	2.15
C 	49.339662360647296	17.022165494945835	2.15
C 	50.61811501603841	17.640193656054542	2.15
C 	50.72211325595965	19.056380213713272	2.15
C 	52.00056591135076	19.674408374821972	2.15
C 	52.104564151271994	21.090594932480702	2.15
C 	53.38301680666311	21.708623093589413	2.15
C 	53.48701504658435	23.124809651248142	2.15
C 	54.76546770197547	23.74283781235685	2.15
C 	54.8694659418967	25.15902437001558	2.15
C 	56.14791859728781	25.77705253112428	2.15
C 	56.25191683720905	27.19323908878301	2.15
C 	57.530369492600165	27.811267249891717	2.15
C 	57.634367732521405	29.227453807550447	2.15
C 	58.91282038791251	29.845481968659154	2.15
C 	59.01681862783375	31.261668526317884	2.15
C 	60.29527128322487	31.879696687426584	2.15
C 	60.39926952314611	33.295883245085314	2.15
C 	61.67772217853723	33.91391140619401	2.15
C 	61.78172041845846	35.330097963852744	2.15
C 	63.06017307384957	35.94812612496146	2.15
C 	63.16417131377081	37.36431268262019	2.15
C 	64.44262396916193	37.98234084372889	2.15
C 	64.54662220908317	39.398527401387625	2.15
C 	65.82507486447427	40.01655556249632	2.15
C 	65.92907310439551	41.432742120155055	2.15
C 	67.20752575978663	42.050770281263766	2.15
C 	67.31152399970787	43.4669568389225	2.15
C 	68.58997665509898	44.084985000031196	2.15
C 	68.69397489502022	45.50117155768993	2.15
C 	69.97242755041134	46.119199718798626	2.15
C 	35.82714812728748	0.928577980247676	2.15
C 	37.1056007826786	1.546606141356378	2.15
C 	37.20959902259984	2.9627926990151106	2.15
C 	38.48805167799095	3.580820860123816	2.15
C 	38.59204991791219	4.997007417782548	2.15
C 	39.8705025733033	5.615035578891247	2.15
C 	39.97450081322454	7.031222136549979	2.15
C 	41.25295346861565	7.649250297658686	2.15
C 	41.35695170853689	9.065436855317417	2.15
C 	42.63540436392801	9.683465016426116	2.15
C 	42.73940260384924	11.099651574084847	2.15
C 	44.017855259240356	11.717679735193553	2.15
C 	44.121853499161595	13.133866292852286	2.15
C 	45.40030615455271	13.751894453960992	2.15
C 	45.50430439447394	15.168081011619723	2.15
C 	46.782757049865054	15.786109172728423	2.15
C 	46.886755289786294	17.202295730387156	2.15
C 	48.165207945177414	17.82032389149586	2.15
C 	48.26920618509865	19.236510449154594	2.15
C 	49.547658840489774	19.854538610263297	2.15
C 	49.651657080411006	21.27072516792203	2.15
C 	50.93010973580212	21.888753329030727	2.15
C 	51.03410797572336	23.30493988668946	2.15
C 	52.312560631114465	23.922968047798168	2.15
C 	52.4165588710357	25.339154605456898	2.15
C 	53.69501152642682	25.957182766565605	2.15
C 	53.79900976634806	27.37336932422434	2.15
C 	55.07746242173918	27.991397485333035	2.15
C 	55.18146066166042	29.40758404299177	2.15
C 	56.45991331705153	30.025612204100472	2.15
C 	56.56391155697277	31.441798761759205	2.15
C 	57.84236421236387	32.05982692286791	2.15
C 	57.94636245228511	33.476013480526646	2.15
C 	59.22481510767623	34.09404164163534	2.15
C 	59.32881334759746	35.510228199294076	2.15
C 	60.60726600298858	36.12825636040277	2.15
C 	60.71126424290982	37.544442918061506	2.15
C 	61.98971689830094	38.16247107917022	2.15
C 	62.09371513822218	39.57865763682895	2.15
C 	63.372167793613286	40.19668579793765	2.15
C 	63.476166033534525	41.61287235559638	2.15
C 	64.75461868892563	42.23090051670508	2.15
C 	64.85861692884687	43.64708707436381	2.15
C 	66.13706958423799	44.26511523547252	2.15
C 	66.24106782415923	45.681301793131254	2.15
C 	67.51952047955035	46.29932995423996	2.15
C 	31.99179016111414	-0.9255065030784375	2.15
C 	33.27024281650526	-0.3074783419697323	2.15
C 	33.37424105642649	1.1087082156889998	2.15
C 	34.652693711817605	1.7267363767977024	2.15
C 	34.756691951738844	3.142922934456435	2.15
C 	36.03514460712996	3.760951095565137	2.15
C 	36.1391428470512	5.177137653223869	2.15
C 	37.41759550244231	5.795165814332575	2.15
C 	37.52159374236355	7.211352371991307	2.15
C 	38.80004639775466	7.8293805331000055	2.15
C 	38.9040446376759	9.245567090758737	2.15
C 	40.182497293067016	9.863595251867444	2.15
C 	40.28649553298825	11.279781809526176	2.15
C 	41.56494818837936	11.897809970634874	2.15
C 	41.6689464283006	13.313996528293607	2.15
C 	42.94739908369172	13.932024689402311	2.15
C 	43.05139732361295	15.348211247061045	2.15
C 	44.32984997900407	15.96623940816975	2.15
C 	44.433848218925306	17.38242596582848	2.15
C 	45.71230087431642	18.000454126937182	2.15
C 	45.81629911423766	19.41664068459591	2.15
C 	47.09475176962878	20.03466884570462	2.15
C 	47.19875000955001	21.450855403363352	2.15
C 	48.477202664941125	22.068883564472056	2.15
C 	48.581200904862364	23.48507012213079	2.15
C 	49.859653560253484	24.103098283239486	2.15
C 	49.963651800174716	25.51928484089822	2.15
C 	51.24210445556582	26.137313002006927	2.15
C 	51.34610269548706	27.553499559665656	2.15
C 	52.62455535087818	28.171527720774364	2.15
C 	52.72855359079942	29.587714278433097	2.15
C 	54.00700624619053	30.205742439541794	2.15
C 	54.11100448611177	31.621928997200527	2.15
C 	55.38945714150289	32.23995715830923	2.15
C 	55.49345538142413	33.656143715967964	2.15
C 	56.77190803681524	34.27417187707667	2.15
C 	56.87590627673647	35.6903584347354	2.15
C 	58.154358932127586	36.3083865958441	2.15
C 	58.258357172048825	37.72457315350283	2.15
C 	59.536809827439946	38.34260131461153	2.15
C 	59.640808067361185	39.75878787227026	2.15
C 	60.9192607227523	40.37681603337898	2.15
C 	61.02325896267353	41.793002591037705	2.15
C 	62.30171161806465	42.41103075214641	2.15
C 	62.40570985798589	43.82721730980514	2.15
C 	63.684162513377	44.44524547091384	2.15
C 	63.78816075329823	45.86143202857257	2.15
C 	65.06661340868935	46.479460189681284	2.15
C 	29.538883090253147	-0.7453762676371207	2.15
C 	30.81733574564426	-0.12734810652841505	2.15
C 	30.9213339855655	1.2888384511303137	2.15
C 	32.19978664095662	1.9068666122390232	2.15
C 	32.30378488087785	3.323053169897752	2.15
C 	33.58223753626897	3.9410813310064574	2.15
C 	33.68623577619021	5.357267888665186	2.15
C 	34.964688431581315	5.975296049773892	2.15
C 	35.068686671502554	7.3914826074326205	2.15
C 	36.34713932689367	8.00951076854133	2.15
C 	36.45113756681491	9.425697326200059	2.15
C 	37.72959022220603	10.04372548730876	2.15
C 	37.83358846212726	11.459912044967488	2.15
C 	39.11204111751837	12.077940206076198	2.15
C 	39.21603935743961	13.494126763734927	2.15
C 	40.494492012830726	14.11215492484363	2.15
C 	40.59849025275196	15.528341482502357	2.15
C 	41.87694290814307	16.146369643611067	2.15
C 	41.98094114806431	17.562556201269796	2.15
C 	43.25939380345543	18.180584362378504	2.15
C 	43.36339204337667	19.596770920037233	2.15
C 	44.641844698767784	20.214799081145937	2.15
C 	44.745842938689016	21.630985638804663	2.15
C 	46.02429559408014	22.249013799913374	2.15
C 	46.128293834001376	23.665200357572104	2.15
C 	47.40674648939249	24.28322851868081	2.15
C 	47.51074472931372	25.69941507633954	2.15
C 	48.789197384704835	26.31744323744824	2.15
C 	48.893195624626074	27.73362979510697	2.15
C 	50.171648280017195	28.351657956215682	2.15
C 	50.275646519938434	29.767844513874408	2.15
C 	51.55409917532954	30.385872674983116	2.15
C 	51.65809741525078	31.802059232641845	2.15
C 	52.936550070641886	32.42008739375055	2.15
C 	53.040548310563125	33.836273951409275	2.15
C 	54.319000965954245	34.45430211251799	2.15
C 	54.42299920587548	35.87048867017672	2.15
C 	55.7014518612666	36.48851683128542	2.15
C 	55.80545010118784	37.90470338894416	2.15
C 	57.08390275657896	38.52273155005285	2.15
C 	57.1879009965002	39.93891810771159	2.15
C 	58.4663536518913	40.55694626882028	2.15
C 	58.57035189181254	41.973132826479016	2.15
C 	59.84880454720365	42.59116098758773	2.15
C 	59.95280278712489	44.00734754524646	2.15
C 	61.23125544251601	44.62537570635516	2.15
C 	61.33525368243724	46.04156226401389	2.15
C 	62.61370633782836	46.65959042512259	2.15
C 	27.085976019392152	-0.5652460321957959	2.15
C 	28.364428674783266	0.052782128912906165	2.15
C 	28.468426914704505	1.4689686865716383	2.15
C 	29.746879570095622	2.08699684768034	2.15
C 	29.85087781001686	3.5031834053390725	2.15
C 	31.12933046540797	4.121211566447778	2.15
C 	31.233328705329207	5.5373981241065104	2.15
C 	32.51178136072033	6.155426285215213	2.15
C 	32.61577960064157	7.571612842873945	2.15
C 	33.89423225603267	8.189641003982647	2.15
C 	33.99823049595391	9.60582756164138	2.15
C 	35.27668315134503	10.223855722750086	2.15
C 	35.380681391266265	11.640042280408817	2.15
C 	36.65913404665738	12.258070441517516	2.15
C 	36.76313228657862	13.674256999176247	2.15
C 	38.04158494196974	14.292285160284953	2.15
C 	38.14558318189097	15.708471717943686	2.15
C 	39.42403583728208	16.326499879052385	2.15
C 	39.528034077203316	17.742686436711118	2.15
C 	40.806486732594436	18.360714597819822	2.15
C 	40.910484972515675	19.776901155478555	2.15
C 	42.18893762790679	20.394929316587262	2.15
C 	42.29293586782802	21.811115874245992	2.15
C 	43.57138852321914	22.429144035354692	2.15
C 	43.67538676314038	23.845330593013422	2.15
C 	44.953839418531494	24.46335875412213	2.15
C 	45.057837658452726	25.879545311780863	2.15
C 	46.33629031384384	26.497573472889567	2.15
C 	46.44028855376508	27.9137600305483	2.15
C 	47.7187412091562	28.531788191656997	2.15
C 	47.82273944907744	29.94797474931573	2.15
C 	49.101192104468545	30.566002910424437	2.15
C 	49.205190344389784	31.982189468083167	2.15
C 	50.483642999780905	32.600217629191874	2.15
C 	50.587641239702144	34.01640418685061	2.15
C 	51.86609389509325	34.634432347959304	2.15
C 	51.97009213501448	36.05061890561804	2.15
C 	53.2485447904056	36.66864706672674	2.15
C 	53.35254303032684	38.084833624385475	2.15
C 	54.630995685717956	38.70286178549418	2.15
C 	54.734993925639195	40.11904834315291	2.15
C 	56.01344658103031	40.73707650426161	2.15
C 	56.11744482095155	42.15326306192034	2.15
C 	57.39589747634267	42.77129122302904	2.15
C 	57.49989571626391	44.18747778068777	2.15
C 	58.778348371655014	44.80550594179649	2.15
C 	58.882346611576246	46.221692499455216	2.15
C 	60.160799266967366	46.83972066056392	2.15
C 	24.633068948531157	-0.38511579675447544	2.15
C 	25.911521603922274	0.2329123643542305	2.15
C 	26.015519843843514	1.6490989220129626	2.15
C 	27.29397249923463	2.2671270831216646	2.15
C 	27.39797073915587	3.683313640780397	2.15
C 	28.67642339454698	4.301341801889099	2.15
C 	28.780421634468215	5.717528359547831	2.15
C 	30.058874289859336	6.335556520656537	2.15
C 	30.16287252978057	7.751743078315269	2.15
C 	31.44132518517168	8.369771239423972	2.15
C 	31.545323425092917	9.785957797082704	2.15
C 	32.82377608048404	10.403985958191406	2.15
C 	32.92777432040528	11.820172515850137	2.15
C 	34.20622697579638	12.438200676958843	2.15
C 	34.31022521571762	13.854387234617576	2.15
C 	35.58867787110874	14.472415395726275	2.15
C 	35.692676111029975	15.888601953385006	2.15
C 	36.97112876642109	16.506630114493714	2.15
C 	37.07512700634233	17.922816672152443	2.15
C 	38.35357966173345	18.540844833261144	2.15
C 	38.45757790165469	19.957031390919877	2.15
C 	39.736030557045794	20.57505955202858	2.15
C 	39.840028796967026	21.991246109687314	2.15
C 	41.11848145235815	22.609274270796018	2.15
C 	41.222479692279386	24.02546082845475	2.15
C 	42.5009323476705	24.64348898956345	2.15
C 	42.60493058759173	26.05967554722218	2.15
C 	43.88338324298285	26.67770370833089	2.15
C 	43.98738148290409	28.09389026598962	2.15
C 	45.265834138295205	28.711918427098325	2.15
C 	45.369832378216444	30.12810498475706	2.15
C 	46.64828503360755	30.746133145865755	2.15
C 	46.75228327352879	32.16231970352449	2.15
C 	48.0307359289199	32.78034786463319	2.15
C 	48.13473416884114	34.196534422291926	2.15
C 	49.41318682423226	34.81456258340063	2.15
C 	49.517185064153495	36.23074914105936	2.15
C 	50.79563771954461	36.84877730216807	2.15
C 	50.89963595946585	38.26496385982679	2.15
C 	52.17808861485696	38.882992020935504	2.15
C 	52.2820868547782	40.29917857859423	2.15
C 	53.56053951016931	40.91720673970294	2.15
C 	53.664537750090545	42.333393297361674	2.15
C 	54.942990405481666	42.95142145847037	2.15
C 	55.046988645402905	44.367608016129104	2.15
C 	56.325441300794026	44.9856361772378	2.15
C 	22.180161877670166	-0.2049855613131582	2.15
C 	23.458614533061283	0.4130425997955475	2.15
C 	23.562612772982522	1.8292291574542763	2.15
C 	24.841065428373632	2.4472573185629853	2.15
C 	24.94506366829487	3.863443876221714	2.15
C 	26.22351632368599	4.48147203733042	2.15
C 	26.327514563607224	5.8976585949891485	2.15
C 	27.605967218998344	6.515686756097854	2.15
C 	27.70996545891958	7.931873313756583	2.15
C 	28.98841811431069	8.549901474865292	2.15
C 	29.092416354231926	9.966088032524022	2.15
C 	30.370869009623046	10.584116193632726	2.15
C 	30.474867249544285	12.000302751291455	2.15
C 	31.753319904935392	12.618330912400161	2.15
C 	31.85731814485663	14.034517470058889	2.15
C 	33.13577080024775	14.652545631167598	2.15
C 	33.23976904016899	16.068732188826328	2.15
C 	34.518221695560094	16.686760349935028	2.15
C 	34.62221993548133	18.102946907593758	2.15
C 	35.90067259087245	18.72097506870247	2.15
C 	36.00467083079369	20.137161626361195	2.15
C 	37.283123486184806	20.7551897874699	2.15
C 	37.38712172610604	22.17137634512863	2.15
C 	38.66557438149716	22.789404506237336	2.15
C 	38.7695726214184	24.205591063896065	2.15
C 	40.048025276809504	24.823619225004773	2.15
C 	40.152023516730736	26.239805782663502	2.15
C 	41.43047617212186	26.857833943772206	2.15
C 	41.534474412043096	28.274020501430932	2.15
C 	42.81292706743422	28.892048662539644	2.15
C 	42.916925307355456	30.30823522019837	2.15
C 	44.19537796274656	30.926263381307077	2.15
C 	44.2993762026678	32.34244993896581	2.15
C 	45.577828858058915	32.96047810007451	2.15
C 	45.681827097980154	34.376664657733244	2.15
C 	46.96027975337127	34.994692818841955	2.15
C 	47.0642779932925	36.41087937650068	2.15
C 	48.34273064868362	37.028907537609385	2.15
C 	48.44672888860486	38.44509409526812	2.15
C 	49.72518154399597	39.063122256376815	2.15
C 	49.82917978391721	40.47930881403555	2.15
C 	51.10763243930833	41.09733697514426	2.15
C 	51.211630679229565	42.513523532802985	2.15
C 	52.49008333462067	43.13155169391169	2.15
C 	52.59408157454191	44.54773825157042	2.15
C 	53.87253422993303	45.16576641267912	2.15
C 	19.727254806809174	-0.024855325871835632	2.15
C 	21.00570746220029	0.5931728352368683	2.15
C 	21.10970570212153	2.0093593928955986	2.15
C 	22.38815835751264	2.6273875540043026	2.15
C 	22.49215659743388	4.043574111663033	2.15
C 	23.770609252824997	4.6616022727717406	2.15
C 	23.874607492746232	6.077788830430471	2.15
C 	25.15306014813735	6.695816991539175	2.15
C 	25.257058388058585	8.112003549197905	2.15
C 	26.5355110434497	8.73003171030661	2.15
C 	26.639509283370934	10.14621826796534	2.15
C 	27.917961938762055	10.764246429074047	2.15
C 	28.021960178683294	12.180432986732777	2.15
C 	29.3004128340744	12.798461147841481	2.15
C 	29.40441107399564	14.21464770550021	2.15
C 	30.682863729386757	14.832675866608916	2.15
C 	30.786861969307996	16.24886242426765	2.15
C 	32.065314624699106	16.866890585376353	2.15
C 	32.169312864620345	18.283077143035086	2.15
C 	33.44776552001146	18.901105304143783	2.15
C 	33.5517637599327	20.317291861802516	2.15
C 	34.83021641532381	20.935320022911224	2.15
C 	34.93421465524504	22.351506580569954	2.15
C 	36.212667310636164	22.969534741678654	2.15
C 	36.3166655505574	24.385721299337387	2.15
C 	37.595118205948516	25.00374946044609	2.15
C 	37.69911644586975	26.419936018104824	2.15
C 	38.97756910126087	27.037964179213528	2.15
C 	39.08156734118211	28.45415073687226	2.15
C 	40.360019996573214	29.07217889798096	2.15
C 	40.464018236494454	30.48836545563969	2.15
C 	41.74247089188557	31.1063936167484	2.15
C 	41.846469131806806	32.52258017440713	2.15
C 	43.12492178719793	33.140608335515836	2.15
C 	43.228920027119166	34.55679489317457	2.15
C 	44.50737268251028	35.174823054283266	2.15
C 	44.61137092243151	36.591009611942	2.15
C 	45.88982357782262	37.2090377730507	2.15
C 	45.99382181774386	38.625224330709436	2.15
C 	47.27227447313498	39.24325249181814	2.15
C 	47.37627271305622	40.65943904947687	2.15
C 	48.65472536844732	41.27746721058558	2.15
C 	48.75872360836856	42.6936537682443	2.15
C 	50.03717626375968	43.311681929353014	2.15
C 	50.14117450368092	44.72786848701174	2.15
C 	51.419627159072036	45.34589664812045	2.15
C 	17.274347735948183	0.15527490956948514	2.15
C 	18.5528003913393	0.773303070678189	2.15
C 	18.65679863126054	2.1894896283369194	2.15
C 	19.93525128665165	2.8075177894456234	2.15
C 	20.03924952657289	4.223704347104354	2.15
C 	21.317702181964005	4.841732508213058	2.15
C 	21.42170042188524	6.257919065871788	2.15
C 	22.700153077276354	6.875947226980496	2.15
C 	22.80415131719759	8.292133784639226	2.15
C 	24.082603972588707	8.91016194574793	2.15
C 	24.186602212509943	10.32634850340666	2.15
C 	25.46505486790106	10.944376664515364	2.15
C 	25.5690531078223	12.360563222174095	2.15
C 	26.84750576321341	12.978591383282803	2.15
C 	26.951504003134648	14.39477794094153	2.15
C 	28.229956658525765	15.012806102050236	2.15
C 	28.333954898447004	16.428992659708967	2.15
C 	29.612407553838114	17.04702082081767	2.15
C 	29.71640579375935	18.4632073784764	2.15
C 	30.99485844915047	19.08123553958511	2.15
C 	31.098856689071706	20.497422097243838	2.15
C 	32.377309344462816	21.11545025835254	2.15
C 	32.481307584384055	22.531636816011268	2.15
C 	33.759760239775176	23.14966497711998	2.15
C 	33.86375847969641	24.565851534778705	2.15
C 	35.14221113508752	25.18387969588741	2.15
C 	35.24620937500875	26.60006625354614	2.15
C 	36.524662030399874	27.218094414654846	2.15
C 	36.62866027032111	28.634280972313576	2.15
C 	37.90711292571223	29.252309133422283	2.15
C 	38.011111165633466	30.668495691081013	2.15
C 	39.28956382102458	31.28652385218972	2.15
C 	39.39356206094582	32.70271040984844	2.15
C 	40.67201471633693	33.32073857095715	2.15
C 	40.77601295625817	34.73692512861588	2.15
C 	42.054465611649285	35.3549532897246	2.15
C 	42.15846385157052	36.77113984738332	2.15
C 	43.43691650696164	37.38916800849203	2.15
C 	43.540914746882876	38.80535456615075	2.15
C 	44.81936740227399	39.42338272725946	2.15
C 	44.92336564219523	40.83956928491819	2.15
C 	46.20181829758634	41.4575974460269	2.15
C 	46.305816537507575	42.87378400368563	2.15
C 	47.58426919289869	43.49181216479433	2.15
C 	47.68826743281993	44.90799872245306	2.15
C 	48.96672008821105	45.52602688356176	2.15
C 	14.821440665087193	0.3354051450108057	2.15
C 	16.09989332047831	0.9534333061195116	2.15
C 	16.203891560399544	2.369619863778242	2.15
C 	17.482344215790658	2.987648024886946	2.15
C 	17.586342455711897	4.403834582545676	2.15
C 	18.864795111103014	5.02186274365438	2.15
C 	18.96879335102425	6.438049301313111	2.15
C 	20.247246006415363	7.056077462421815	2.15
C 	20.3512442463366	8.472264020080544	2.15
C 	21.629696901727716	9.090292181189252	2.15
C 	21.73369514164895	10.506478738847983	2.15
C 	23.01214779704007	11.124506899956687	2.15
C 	23.116146036961307	12.540693457615417	2.15
C 	24.394598692352417	13.15872161872412	2.15
C 	24.498596932273657	14.574908176382852	2.15
C 	25.77704958766477	15.192936337491558	2.15
C 	25.88104782758601	16.60912289515029	2.15
C 	27.159500482977123	17.227151056258997	2.15
C 	27.26349872289836	18.643337613917723	2.15
C 	28.54195137828948	19.261365775026427	2.15
C 	28.645949618210715	20.67755233268516	2.15
C 	29.924402273601824	21.295580493793864	2.15
C 	30.028400513523064	22.711767051452597	2.15
C 	31.30685316891418	23.329795212561294	2.15
C 	31.41085140883542	24.745981770220027	2.15
C 	32.689304064226526	25.364009931328734	2.15
C 	32.793302304147765	26.780196488987464	2.15
C 	34.071754959538886	27.398224650096164	2.15
C 	34.175753199460125	28.814411207754898	2.15
C 	35.45420585485123	29.4324393688636	2.15
C 	35.55820409477247	30.848625926522335	2.15
C 	36.836656750163584	31.46665408763104	2.15
C 	36.94065499008482	32.882840645289775	2.15
C 	38.21910764547594	33.50086880639847	2.15
C 	38.323105885397176	34.917055364057205	2.15
C 	39.6015585407883	35.53508352516591	2.15
C 	39.70555678070953	36.95127008282464	2.15
C 	40.98400943610064	37.569298243933346	2.15
C 	41.08800767602188	38.98548480159208	2.15
C 	42.366460331412995	39.603512962700776	2.15
C 	42.470458571334234	41.01969952035951	2.15
C 	43.74891122672534	41.63772768146821	2.15
C 	43.85290946664658	43.05391423912695	2.15
C 	45.1313621220377	43.67194240023565	2.15
C 	45.23536036195894	45.088128957894384	2.15
C 	46.513813017350046	45.70615711900309	2.15
C 	12.368533594226198	0.5155353804521267	2.15
C 	13.646986249617315	1.1335635415608323	2.15
C 	13.750984489538553	2.5497500992195627	2.15
C 	15.029437144929668	3.1677782603282685	2.15
C 	15.133435384850905	4.583964817986999	2.15
C 	16.41188804024202	5.201992979095703	2.15
C 	16.515886280163258	6.618179536754433	2.15
C 	17.79433893555437	7.236207697863137	2.15
C 	17.898337175475607	8.652394255521868	2.15
C 	19.176789830866724	9.270422416630572	2.15
C 	19.28078807078796	10.686608974289301	2.15
C 	20.559240726179073	11.304637135398009	2.15
C 	20.663238966100312	12.72082369305674	2.15
C 	21.941691621491426	13.338851854165444	2.15
C 	22.045689861412665	14.755038411824172	2.15
C 	23.324142516803775	15.373066572932878	2.15
C 	23.428140756725014	16.78925313059161	2.15
C 	24.70659341211613	17.407281291700315	2.15
C 	24.810591652037367	18.823467849359048	2.15
C 	26.08904430742848	19.441496010467752	2.15
C 	26.193042547349716	20.857682568126478	2.15
C 	27.471495202740833	21.475710729235185	2.15
C 	27.575493442662072	22.89189728689392	2.15
C 	28.853946098053186	23.509925448002623	2.15
C 	28.957944337974425	24.926112005661356	2.15
C 	30.236396993365535	25.544140166770053	2.15
C 	30.340395233286774	26.960326724428786	2.15
C 	31.61884788867789	27.578354885537493	2.15
C 	31.722846128599127	28.994541443196223	2.15
C 	33.00129878399024	29.612569604304923	2.15
C 	33.105297023911476	31.028756161963656	2.15
C 	34.38374967930259	31.64678432307236	2.15
C 	34.48774791922383	33.06297088073109	2.15
C 	35.76620057461494	33.6809990418398	2.15
C 	35.87019881453618	35.09718559949853	2.15
C 	37.1486514699273	35.71521376060723	2.15
C 	37.252649709848534	37.13140031826596	2.15
C 	38.531102365239654	37.749428479374664	2.15
C 	38.63510060516089	39.1656150370334	2.15
C 	39.91355326055201	39.7836431981421	2.15
C 	40.017551500473246	41.199829755800835	2.15
C 	41.29600415586435	41.81785791690954	2.15
C 	41.40000239578559	43.234044474568265	2.15
C 	42.678455051176705	43.852072635676976	2.15
C 	42.782453291097944	45.26825919333571	2.15
C 	44.060905946489065	45.88628735444441	2.15
C 	9.915626523365207	0.6956656158934474	2.15
C 	11.19407917875632	1.3136937770021513	2.15
C 	11.298077418677558	2.7298803346608818	2.15
C 	12.576530074068675	3.3479084957695875	2.15
C 	12.680528313989912	4.764095053428318	2.15
C 	13.958980969381027	5.382123214537024	2.15
C 	14.062979209302265	6.798309772195754	2.15
C 	15.341431864693378	7.416337933304458	2.15
C 	15.445430104614616	8.832524490963188	2.15
C 	16.72388276000573	9.450552652071892	2.15
C 	16.82788099992697	10.866739209730623	2.15
C 	18.106333655318082	11.484767370839327	2.15
C 	18.21033189523932	12.900953928498057	2.15
C 	19.488784550630434	13.518982089606764	2.15
C 	19.592782790551674	14.935168647265494	2.15
C 	20.871235445942784	15.5531968083742	2.15
C 	20.975233685864023	16.969383366032933	2.15
C 	22.25368634125514	17.587411527141633	2.15
C 	22.357684581176375	19.003598084800362	2.15
C 	23.63613723656749	19.62162624590907	2.15
C 	23.740135476488724	21.0378128035678	2.15
C 	25.01858813187984	21.655840964676507	2.15
C 	25.12258637180108	23.072027522335237	2.15
C 	26.40103902719219	23.69005568344394	2.15
C 	26.50503726711343	25.10624224110267	2.15
C 	27.783489922504543	25.724270402211378	2.15
C 	27.887488162425782	27.140456959870107	2.15
C 	29.1659408178169	27.758485120978808	2.15
C 	29.269939057738135	29.174671678637537	2.15
C 	30.54839171312925	29.79269983974625	2.15
C 	30.652389953050484	31.208886397404974	2.15
C 	31.9308426084416	31.826914558513682	2.15
C 	32.03484084836284	33.243101116172404	2.15
C 	33.313293503753954	33.861129277281115	2.15
C 	33.417291743675186	35.27731583493984	2.15
C 	34.69574439906631	35.89534399604856	2.15
C 	34.79974263898754	37.311530553707286	2.15
C 	36.07819529437865	37.92955871481599	2.15
C 	36.18219353429989	39.345745272474716	2.15
C 	37.46064618969101	39.96377343358342	2.15
C 	37.56464442961225	41.37995999124215	2.15
C 	38.84309708500337	41.997988152350864	2.15
C 	38.947095324924604	43.41417471000959	2.15
C 	40.22554798031572	44.032202871118294	2.15
C 	40.329546220236956	45.44838942877702	2.15
C 	41.60799887562806	46.066417589885724	2.15
C 	7.462719452504215	0.8757958513347681	2.15
C 	8.741172107895329	1.493824012443473	2.15
C 	8.845170347816566	2.9100105701022034	2.15
C 	10.123623003207681	3.5280387312109074	2.15
C 	10.227621243128919	4.944225288869638	2.15
C 	11.506073898520034	5.562253449978344	2.15
C 	11.610072138441272	6.978440007637074	2.15
C 	12.888524793832385	7.596468168745779	2.15
C 	12.992523033753622	9.012654726404511	2.15
C 	14.27097568914474	9.630682887513213	2.15
C 	14.374973929065977	11.046869445171945	2.15
C 	15.65342658445709	11.664897606280647	2.15
C 	15.757424824378328	13.08108416393938	2.15
C 	17.035877479769443	13.699112325048082	2.15
C 	17.13987571969068	15.115298882706814	2.15
C 	18.418328375081792	15.73332704381552	2.15
C 	18.52232661500303	17.14951360147425	2.15
C 	19.80077927039415	17.767541762582955	2.15
C 	19.904777510315384	19.183728320241688	2.15
C 	21.183230165706497	19.801756481350388	2.15
C 	21.287228405627733	21.21794303900912	2.15
C 	22.56568106101885	21.835971200117825	2.15
C 	22.66967930094009	23.25215775777656	2.15
C 	23.9481319563312	23.870185918885262	2.15
C 	24.05213019625244	25.286372476543992	2.15
C 	25.330582851643552	25.904400637652696	2.15
C 	25.43458109156479	27.32058719531143	2.15
C 	26.713033746955904	27.938615356420133	2.15
C 	26.81703198687714	29.354801914078866	2.15
C 	28.095484642268257	29.972830075187563	2.15
C 	28.199482882189493	31.389016632846296	2.15
C 	29.47793553758061	32.007044793955004	2.15
C 	29.581933777501845	33.42323135161374	2.15
C 	30.86038643289296	34.041259512722434	2.15
C 	30.964384672814198	35.45744607038117	2.15
C 	32.24283732820531	36.07547423148987	2.15
C 	32.34683556812655	37.491660789148604	2.15
C 	33.625288223517664	38.10968895025731	2.15
C 	33.7292864634389	39.52587550791604	2.15
C 	35.00773911883002	40.14390366902474	2.15
C 	35.111737358751256	41.56009022668347	2.15
C 	36.39019001414237	42.178118387792175	2.15
C 	36.49418825406361	43.59430494545091	2.15
C 	37.77264090945472	44.21233310655961	2.15
C 	37.87663914937596	45.628519664218345	2.15
C 	39.15509180476708	46.24654782532705	2.15
C 	3.6273614863308703	-0.9782886319913464	2.15
C 	4.905814141721985	-0.3602604708826415	2.15
C 	5.009812381643222	1.055926086776089	2.15
C 	6.288265037034337	1.6739542478847937	2.15
C 	6.392263276955575	3.090140805543524	2.15
C 	7.670715932346689	3.708168966652229	2.15
C 	7.7747141722679265	5.1243555243109595	2.15
C 	9.053166827659041	5.7423836854196635	2.15
C 	9.157165067580278	7.158570243078394	2.15
C 	10.435617722971392	7.7765984041871	2.15
C 	10.53961596289263	9.19278496184583	2.15
C 	11.818068618283744	9.810813122954535	2.15
C 	11.922066858204982	11.226999680613266	2.15
C 	13.200519513596095	11.84502784172197	2.15
C 	13.304517753517333	13.2612143993807	2.15
C 	14.58297040890845	13.879242560489404	2.15
C 	14.686968648829687	15.295429118148135	2.15
C 	15.9654213042208	15.913457279256841	2.15
C 	16.069419544142036	17.32964383691557	2.15
C 	17.347872199533153	17.94767199802428	2.15
C 	17.45187043945439	19.363858555683006	2.15
C 	18.730323094845506	19.98188671679171	2.15
C 	18.83432133476674	21.398073274450443	2.15
C 	20.11277399015786	22.016101435559147	2.15
C 	20.216772230079098	23.432287993217876	2.15
C 	21.495224885470208	24.050316154326584	2.15
C 	21.599223125391447	25.466502711985314	2.15
C 	22.87767578078256	26.084530873094018	2.15
C 	22.9816740207038	27.500717430752747	2.15
C 	24.260126676094913	28.118745591861455	2.15
C 	24.36412491601615	29.534932149520184	2.15
C 	25.642577571407266	30.15296031062889	2.15
C 	25.7465758113285	31.569146868287625	2.15
C 	27.025028466719615	32.18717502939632	2.15
C 	27.12902670664085	33.603361587055055	2.15
C 	28.407479362031967	34.22138974816376	2.15
C 	28.511477601953207	35.637576305822485	2.15
C 	29.78993025734432	36.25560446693119	2.15
C 	29.89392849726556	37.671791024589915	2.15
C 	31.172381152656673	38.28981918569863	2.15
C 	31.27637939257791	39.70600574335736	2.15
C 	32.55483204796902	40.32403390446607	2.15
C 	32.65883028789026	41.74022046212479	2.15
C 	33.937282943281375	42.3582486232335	2.15
C 	34.041281183202614	43.774435180892226	2.15
C 	35.319733838593734	44.39246334200094	2.15
C 	35.423732078514966	45.80864989965967	2.15
C 	36.70218473390609	46.426678060768374	2.15
C 	2.4529070708609924	-0.18013023544132076	2.15
C 	2.5569053107822297	1.2360563222174097	2.15
C 	3.8353579661733446	1.8540844833261145	2.15
C 	3.939356206094582	3.270271040984845	2.15
C 	5.217808861485696	3.88829920209355	2.15
C 	5.321807101406933	5.30448575975228	2.15
C 	6.600259756798048	5.922513920860985	2.15
C 	6.704257996719285	7.338700478519716	2.15
C 	7.9827106521104	7.9567286396284205	2.15
C 	8.086708892031638	9.37291519728715	2.15
C 	9.365161547422753	9.990943358395855	2.15
C 	9.46915978734399	11.407129916054586	2.15
C 	10.747612442735104	12.025158077163292	2.15
C 	10.851610682656341	13.441344634822022	2.15
C 	12.130063338047457	14.059372795930727	2.15
C 	12.234061577968694	15.475559353589455	2.15
C 	13.512514233359807	16.09358751469816	2.15
C 	13.616512473281045	17.50977407235689	2.15
C 	14.89496512867216	18.127802233465594	2.15
C 	14.998963368593397	19.543988791124324	2.15
C 	16.27741602398451	20.162016952233035	2.15
C 	16.38141426390575	21.57820350989176	2.15
C 	17.659866919296867	22.19623167100047	2.15
C 	17.763865159218103	23.612418228659198	2.15
C 	19.042317814609216	24.230446389767902	2.15
C 	19.146316054530455	25.64663294742663	2.15
C 	20.42476870992157	26.26466110853534	2.15
C 	20.528766949842808	27.68084766619407	2.15
C 	21.80721960523392	28.298875827302776	2.15
C 	21.911217845155157	29.715062384961502	2.15
C 	23.189670500546274	30.33309054607021	2.15
C 	23.29366874046751	31.74927710372894	2.15
C 	24.572121395858623	32.36730526483764	2.15
C 	24.67611963577986	33.78349182249637	2.15
C 	25.954572291170976	34.40151998360508	2.15
C 	26.058570531092215	35.8177065412638	2.15
C 	27.337023186483325	36.435734702372514	2.15
C 	27.441021426404564	37.85192126003125	2.15
C 	28.719474081795678	38.469949421139944	2.15
C 	28.823472321716917	39.88613597879868	2.15
C 	30.101924977108034	40.50416413990738	2.15
C 	30.20592321702927	41.920350697566114	2.15
C 	31.484375872420383	42.53837885867482	2.15
C 	31.58837411234162	43.95456541633355	2.15
C 	32.86682676773274	44.57259357744225	2.15
C 	32.97082500765397	45.98878013510098	2.15
C 	34.24927766304509	46.606808296209685	2.15
C 	2.764901790624704	4.068429437534871	2.15
C 	2.8689000305459413	5.484615995193601	2.15
C 	4.147352685937056	6.102644156302306	2.15
C 	4.2513509258582936	7.518830713961036	2.15
C 	5.529803581249408	8.136858875069741	2.15
C 	5.633801821170645	9.55304543272847	2.15
C 	6.91225447656176	10.171073593837175	2.15
C 	7.016252716482997	11.587260151495906	2.15
C 	8.294705371874112	12.205288312604612	2.15
C 	8.39870361179535	13.621474870263341	2.15
C 	9.677156267186465	14.239503031372047	2.15
C 	9.781154507107702	15.655689589030777	2.15
C 	11.059607162498816	16.273717750139483	2.15
C 	11.163605402420053	17.689904307798216	2.15
C 	12.442058057811167	18.307932468906916	2.15
C 	12.546056297732404	19.724119026565646	2.15
C 	13.82450895312352	20.34214718767435	2.15
C 	13.928507193044757	21.758333745333083	2.15
C 	15.206959848435872	22.37636190644179	2.15
C 	15.31095808835711	23.79254846410052	2.15
C 	16.589410743748225	24.410576625209224	2.15
C 	16.693408983669464	25.826763182867953	2.15
C 	17.971861639060577	26.444791343976657	2.15
C 	18.075859878981813	27.86097790163539	2.15
C 	19.35431253437293	28.479006062744094	2.15
C 	19.458310774294166	29.895192620402828	2.15
C 	20.736763429685283	30.51322078151153	2.15
C 	20.84076166960652	31.929407339170258	2.15
C 	22.119214324997632	32.547435500278965	2.15
C 	22.223212564918867	33.9636220579377	2.15
C 	23.501665220309985	34.5816502190464	2.15
C 	23.605663460231224	35.997836776705135	2.15
C 	24.884116115622334	36.61586493781383	2.15
C 	24.988114355543573	38.032051495472565	2.15
C 	26.26656701093469	38.65007965658127	2.15
C 	26.370565250855925	40.06626621424	2.15
C 	27.64901790624704	40.6842943753487	2.15
C 	27.753016146168275	42.10048093300743	2.15
C 	29.03146880155939	42.718509094116136	2.15
C 	29.135467041480627	44.13469565177487	2.15
C 	30.413919696871744	44.75272381288358	2.15
C 	30.517917936792983	46.16891037054231	2.15
C 	31.796370592184093	46.78693853165101	2.15
C 	16.90140546351194	28.659136298185413	2.15
C 	17.005403703433174	30.075322855844146	2.15
C 	18.283856358824288	30.69335101695285	2.15
C 	18.387854598745527	32.10953757461158	2.15
C 	19.66630725413664	32.72756573572028	2.15
C 	19.770305494057876	34.143752293379016	2.15
C 	21.048758149448993	34.76178045448772	2.15
C 	21.152756389370232	36.177967012146446	2.15
C 	22.431209044761342	36.79599517325516	2.15
C 	22.53520728468258	38.21218173091388	2.15
C 	23.8136599400737	38.830209892022594	2.15
C 	23.917658179994934	40.24639644968131	2.15
C 	25.196110835386047	40.86442461079003	2.15
C 	25.300109075307283	42.28061116844876	2.15
C 	26.5785617306984	42.89863932955746	2.15
C 	26.682559970619636	44.31482588721619	2.15
C 	27.96101262601075	44.9328540483249	2.15
H 	52.917667988445324	-1.4194064480162258	2.15
H 	55.17746810466481	-0.3269763885916971	2.15
H 	56.55991899997717	1.7072383301757492	2.15
H 	57.94236989528951	3.7414530489431828	2.15
H 	59.32482079060187	5.775667767710614	2.15
H 	59.50864866539223	8.278927105544007	2.15
H 	50.4647609175843	-1.2392762125749033	2.15
H 	59.63681551036559	10.024227440686811	2.15
H 	61.019266405677946	12.058442159454252	2.15
H 	62.40171730099027	14.092656878221671	2.15
H 	63.78416819630264	16.126871596989126	2.15
H 	65.16661909161499	18.161086315756563	2.15
H 	66.54906998692735	20.195301034523986	2.15
H 	67.93152088223971	22.229515753291416	2.15
H 	69.31397177755204	24.263730472058857	2.15
H 	70.6964226728644	26.297945190826297	2.15
H 	72.07887356817676	28.332159909593727	2.15
H 	73.4613244634891	30.366374628361168	2.15
H 	74.84377535880145	32.40058934712861	2.15
H 	75.0276032335918	34.903848684962	2.15
H 	48.01185384672334	-1.0591459771335914	2.15
H 	75.15577007856515	36.649149020104765	2.15
H 	75.33959795335552	39.15240835793817	2.15
H 	45.558946775862324	-0.8790157416922625	2.15
H 	74.26914177780688	41.36675331214694	2.15
H 	43.106039705001336	-0.6988855062509493	2.15
H 	73.19868560225824	43.58109826635568	2.15
H 	40.653132634140334	-0.51875527080962	2.15
H 	72.12822942670961	45.79544322056445	2.15
H 	38.20022556327935	-0.3386250353683081	2.15
H 	70.05225718528045	47.206272498973284	2.15
H 	35.74731849241836	-0.15849479992698312	2.15
H 	67.59935011441948	47.38640273441462	2.15
H 	31.911960526245018	-2.0125792832530967	2.15
H 	34.171760642464534	-0.920149223828554	2.15
H 	65.14644304355848	47.56653296985594	2.15
H 	29.459053455384034	-1.8324490478117803	2.15
H 	62.6935359726975	47.746663205297246	2.15
H 	27.00614638452304	-1.6523188123704557	2.15
H 	57.980828785616964	46.83436338131403	2.15
H 	60.24062890183649	47.92679344073858	2.15
H 	24.553239313662033	-1.4721885769291343	2.15
H 	56.40527093566315	46.07270895741246	2.15
H 	22.100332242801045	-1.2920583414878175	2.15
H 	53.95236386480215	46.25283919285378	2.15
H 	19.64742517194005	-1.1119281060464945	2.15
H 	51.49945679394116	46.43296942829511	2.15
H 	17.194518101079062	-0.9317978706051739	2.15
H 	49.04654972308018	46.61309966373642	2.15
H 	14.741611030218076	-0.7516676351638538	2.15
H 	46.59364265221915	46.793229899177746	2.15
H 	12.288703959357077	-0.5715373997225325	2.15
H 	44.140735581358186	46.97336013461907	2.15
H 	9.83579688849609	-0.3914071642812119	2.15
H 	41.68782851049717	47.15349037006038	2.15
H 	7.382889817635098	-0.21127692883989124	2.15
H 	39.23492143963621	47.33362060550171	2.15
H 	3.547531851461752	-2.0653614121660056	2.15
H 	5.807331967681257	-0.972931352741464	2.15
H 	36.78201436877521	47.51375084094303	2.15
H 	1.4715596100326012	-0.6545321337571575	2.15
H 	1.6553874848229573	1.8487272040762321	2.15
H 	34.32910729791423	47.69388107638434	2.15
H 	1.7835543297963126	3.5940275392190344	2.15
H 	1.9673822045866691	6.097286877052424	2.15
H 	3.349833099899021	8.13150159581986	2.15
H 	4.7322839952113736	10.165716314587295	2.15
H 	6.114734890523724	12.199931033354728	2.15
H 	7.497185785836076	14.234145752122162	2.15
H 	8.87963668114843	16.2683604708896	2.15
H 	10.262087576460786	18.302575189657045	2.15
H 	11.64453847177313	20.336789908424468	2.15
H 	13.026989367085482	22.371004627191905	2.15
H 	14.409440262397835	24.405219345959342	2.15
H 	15.791891157710193	26.43943406472678	2.15
H 	29.616400110833712	46.78158125240113	2.15
H 	31.876200227053207	47.87401131182567	2.15
H 	15.92005800268355	28.184734399869573	2.15
H 	16.103885877473903	30.687993737702968	2.15
H 	17.486336772786252	32.7222084564704	2.15
H 	18.8687876680986	34.756423175237835	2.15
H 	20.25123856341096	36.79063789400527	2.15
H 	21.633689458723303	38.824852612772695	2.15
H 	23.016140354035656	40.859067331540125	2.15
H 	24.39859124934801	42.893282050307576	2.15
H 	25.781042144660354	44.927496769075	2.15
H 	28.04084226087987	46.01992682849956	2.15
