2320

C 	0.0	0.0	0.0
C 	1.2297560733739028	0.7099999999999999	0.0
C 	2.4595121467478056	-2.3647750424515833e-16	0.0
C 	3.689268220121708	0.7099999999999995	0.0
C 	4.919024293495611	-4.729550084903167e-16	0.0
C 	6.148780366869514	0.7099999999999993	0.0
C 	7.378536440243416	-7.09432512735475e-16	0.0
C 	8.60829251361732	0.7099999999999991	0.0
C 	9.838048586991222	-9.459100169806333e-16	0.0
C 	11.067804660365125	0.7099999999999989	0.0
C 	12.297560733739026	-1.1823875212257916e-15	0.0
C 	13.527316807112928	0.7099999999999986	0.0
C 	14.757072880486833	-1.41886502547095e-15	0.0
C 	15.986828953860735	0.7099999999999984	0.0
C 	17.21658502723464	-7.671641100159832e-16	0.0
C 	18.44634110060854	0.7099999999999982	0.0
C 	19.676097173982445	-1.8918200339612667e-15	0.0
C 	20.905853247356347	0.7099999999999989	0.0
C 	22.135609320730246	-2.128297538206425e-15	0.0
C 	23.36536539410415	0.7099999999999967	0.0
C 	24.59512146747805	-2.364775042451583e-15	0.0
C 	25.824877540851954	0.7099999999999983	0.0
C 	27.05463361422586	-8.248957072964913e-16	0.0
C 	28.284389687599763	0.7099999999999999	0.0
C 	29.514145760973665	-2.8377300509419e-15	0.0
C 	30.743901834347565	0.7099999999999961	0.0
C 	31.97365790772147	-3.0742075551870582e-15	0.0
C 	33.20341398109537	0.7099999999999976	0.0
C 	34.43317005446928	-1.5343282200319664e-15	0.0
C 	35.66292612784318	0.7099999999999992	0.0
C 	36.892682201217085	-1.7708057242771246e-15	0.0
C 	38.122438274590984	0.7099999999999972	0.0
C 	39.35219434796489	-3.783640067922533e-15	0.0
C 	40.58195042133879	0.7099999999999969	0.0
C 	41.811706494712695	-4.67403893367191e-16	0.0
C 	43.0414625680866	0.7100000000000002	0.0
C 	44.27121864146049	-4.25659507641285e-15	0.0
C 	45.5009747148344	0.7099999999999964	0.0
C 	46.730730788208305	-9.403589018575075e-16	0.0
C 	47.96048686158221	0.7099999999999997	0.0
C 	49.1902429349561	-4.729550084903166e-15	0.0
C 	50.41999900833001	0.709999999999996	0.0
C 	51.64975508170391	-1.413313910347824e-15	0.0
C 	52.879511155077815	0.7099999999999993	0.0
C 	54.10926722845172	-1.6497914145929826e-15	0.0
C 	55.33902330182562	0.7099999999999991	0.0
C 	56.56877937519952	-5.438982597638641e-15	0.0
C 	57.798535448573425	0.7099999999999953	0.0
C 	59.02829152194733	-5.6754601018838e-15	0.0
C 	60.25804759532124	0.709999999999995	0.0
C 	1.2297560733739028	2.1299999999999994	0.0
C 	2.4595121467478056	2.8399999999999994	0.0
C 	3.689268220121708	2.1299999999999994	0.0
C 	4.919024293495611	2.8399999999999994	0.0
C 	6.148780366869514	2.129999999999999	0.0
C 	7.378536440243416	2.839999999999999	0.0
C 	8.60829251361732	2.1299999999999986	0.0
C 	9.838048586991222	2.8399999999999985	0.0
C 	11.067804660365123	2.129999999999998	0.0
C 	12.297560733739028	2.839999999999999	0.0
C 	13.527316807112928	2.1299999999999977	0.0
C 	14.757072880486833	2.839999999999998	0.0
C 	15.986828953860735	2.129999999999998	0.0
C 	17.216585027234636	2.839999999999997	0.0
C 	18.446341100608542	2.129999999999998	0.0
C 	19.676097173982445	2.8399999999999985	0.0
C 	20.905853247356344	2.1299999999999977	0.0
C 	22.13560932073025	2.8399999999999985	0.0
C 	23.36536539410415	2.129999999999997	0.0
C 	24.595121467478055	2.839999999999997	0.0
C 	25.824877540851954	2.1299999999999963	0.0
C 	27.05463361422586	2.839999999999997	0.0
C 	28.284389687599763	2.129999999999998	0.0
C 	29.514145760973665	2.8399999999999985	0.0
C 	30.743901834347568	2.129999999999996	0.0
C 	31.97365790772147	2.8399999999999967	0.0
C 	33.20341398109537	2.129999999999996	0.0
C 	34.43317005446928	2.8399999999999963	0.0
C 	35.66292612784318	2.1299999999999972	0.0
C 	36.89268220121708	2.8399999999999963	0.0
C 	38.122438274590984	2.129999999999997	0.0
C 	39.35219434796489	2.8399999999999976	0.0
C 	40.58195042133879	2.1299999999999986	0.0
C 	41.81170649471269	2.839999999999996	0.0
C 	43.0414625680866	2.129999999999998	0.0
C 	44.2712186414605	2.8399999999999954	0.0
C 	45.5009747148344	2.129999999999998	0.0
C 	46.7307307882083	2.8399999999999954	0.0
C 	47.96048686158221	2.1299999999999977	0.0
C 	49.19024293495611	2.839999999999995	0.0
C 	50.41999900833001	2.1299999999999977	0.0
C 	51.64975508170391	2.8399999999999945	0.0
C 	52.879511155077815	2.1299999999999972	0.0
C 	54.10926722845171	2.8399999999999945	0.0
C 	55.33902330182563	2.130000000000001	0.0
C 	56.56877937519952	2.8399999999999976	0.0
C 	57.798535448573425	2.129999999999997	0.0
C 	59.028291521947324	2.839999999999994	0.0
C 	60.25804759532124	2.129999999999997	0.0
C 	61.487803668695136	2.8399999999999936	0.0
C 	2.4595121467478056	4.259999999999999	0.0
C 	3.689268220121708	4.969999999999999	0.0
C 	4.919024293495611	4.259999999999999	0.0
C 	6.148780366869514	4.969999999999999	0.0
C 	7.378536440243416	4.259999999999999	0.0
C 	8.60829251361732	4.969999999999999	0.0
C 	9.83804858699122	4.259999999999998	0.0
C 	11.067804660365125	4.969999999999999	0.0
C 	12.297560733739028	4.259999999999998	0.0
C 	13.52731680711293	4.969999999999998	0.0
C 	14.757072880486831	4.259999999999998	0.0
C 	15.986828953860735	4.969999999999998	0.0
C 	17.21658502723464	4.259999999999997	0.0
C 	18.446341100608542	4.969999999999998	0.0
C 	19.676097173982445	4.259999999999999	0.0
C 	20.905853247356347	4.969999999999997	0.0
C 	22.135609320730246	4.259999999999996	0.0
C 	23.365365394104153	4.969999999999997	0.0
C 	24.595121467478055	4.259999999999998	0.0
C 	25.824877540851958	4.969999999999997	0.0
C 	27.054633614225857	4.259999999999995	0.0
C 	28.28438968759976	4.969999999999996	0.0
C 	29.514145760973665	4.259999999999997	0.0
C 	30.743901834347568	4.969999999999997	0.0
C 	31.97365790772147	4.259999999999996	0.0
C 	33.20341398109537	4.969999999999995	0.0
C 	34.43317005446927	4.2599999999999945	0.0
C 	35.66292612784318	4.969999999999995	0.0
C 	36.892682201217085	4.259999999999996	0.0
C 	38.122438274590984	4.969999999999997	0.0
C 	39.35219434796489	4.259999999999997	0.0
C 	40.58195042133879	4.969999999999994	0.0
C 	41.81170649471269	4.259999999999995	0.0
C 	43.041462568086594	4.969999999999996	0.0
C 	44.2712186414605	4.259999999999997	0.0
C 	45.500974714834406	4.969999999999998	0.0
C 	46.7307307882083	4.259999999999994	0.0
C 	47.960486861582204	4.9699999999999935	0.0
C 	49.19024293495611	4.259999999999996	0.0
C 	50.41999900833001	4.969999999999997	0.0
C 	51.64975508170391	4.259999999999993	0.0
C 	52.879511155077815	4.9699999999999935	0.0
C 	54.10926722845171	4.259999999999996	0.0
C 	55.33902330182562	4.969999999999997	0.0
C 	56.568779375199526	4.259999999999996	0.0
C 	57.798535448573425	4.969999999999996	0.0
C 	59.028291521947324	4.259999999999995	0.0
C 	60.25804759532123	4.969999999999996	0.0
C 	61.487803668695136	4.259999999999992	0.0
C 	62.717559742069035	4.969999999999993	0.0
C 	3.6892682201217086	6.389999999999999	0.0
C 	4.919024293495611	7.099999999999999	0.0
C 	6.148780366869514	6.389999999999999	0.0
C 	7.378536440243416	7.099999999999999	0.0
C 	8.608292513617318	6.389999999999998	0.0
C 	9.838048586991222	7.099999999999999	0.0
C 	11.067804660365125	6.389999999999998	0.0
C 	12.297560733739028	7.099999999999998	0.0
C 	13.52731680711293	6.389999999999999	0.0
C 	14.757072880486833	7.099999999999998	0.0
C 	15.986828953860735	6.389999999999998	0.0
C 	17.216585027234636	7.099999999999997	0.0
C 	18.44634110060854	6.389999999999997	0.0
C 	19.676097173982445	7.099999999999998	0.0
C 	20.905853247356347	6.389999999999998	0.0
C 	22.13560932073025	7.099999999999997	0.0
C 	23.365365394104153	6.389999999999998	0.0
C 	24.59512146747805	7.099999999999997	0.0
C 	25.824877540851958	6.389999999999998	0.0
C 	27.054633614225857	7.099999999999997	0.0
C 	28.28438968759976	6.389999999999999	0.0
C 	29.514145760973662	7.099999999999997	0.0
C 	30.743901834347568	6.389999999999999	0.0
C 	31.97365790772147	7.099999999999998	0.0
C 	33.20341398109537	6.389999999999995	0.0
C 	34.43317005446928	7.099999999999994	0.0
C 	35.66292612784318	6.389999999999995	0.0
C 	36.892682201217085	7.099999999999996	0.0
C 	38.122438274590984	6.389999999999996	0.0
C 	39.35219434796489	7.099999999999997	0.0
C 	40.58195042133879	6.389999999999994	0.0
C 	41.811706494712695	7.099999999999995	0.0
C 	43.041462568086594	6.389999999999996	0.0
C 	44.2712186414605	7.099999999999997	0.0
C 	45.500974714834406	6.389999999999998	0.0
C 	46.730730788208305	7.099999999999998	0.0
C 	47.960486861582204	6.389999999999995	0.0
C 	49.19024293495611	7.099999999999996	0.0
C 	50.41999900833001	6.389999999999995	0.0
C 	51.649755081703915	7.099999999999996	0.0
C 	52.879511155077815	6.389999999999995	0.0
C 	54.10926722845172	7.099999999999996	0.0
C 	55.33902330182562	6.389999999999995	0.0
C 	56.568779375199526	7.099999999999995	0.0
C 	57.79853544857343	6.389999999999998	0.0
C 	59.02829152194733	7.099999999999999	0.0
C 	60.25804759532123	6.389999999999994	0.0
C 	61.487803668695136	7.099999999999995	0.0
C 	62.71755974206904	6.389999999999994	0.0
C 	63.94731581544294	7.099999999999995	0.0
C 	4.919024293495611	8.519999999999998	0.0
C 	6.148780366869514	9.229999999999999	0.0
C 	7.378536440243416	8.519999999999998	0.0
C 	8.60829251361732	9.229999999999999	0.0
C 	9.838048586991222	8.519999999999998	0.0
C 	11.067804660365125	9.229999999999999	0.0
C 	12.297560733739028	8.519999999999998	0.0
C 	13.52731680711293	9.229999999999997	0.0
C 	14.757072880486833	8.519999999999998	0.0
C 	15.986828953860737	9.229999999999999	0.0
C 	17.216585027234636	8.519999999999998	0.0
C 	18.44634110060854	9.229999999999997	0.0
C 	19.67609717398244	8.519999999999996	0.0
C 	20.905853247356347	9.229999999999997	0.0
C 	22.13560932073025	8.519999999999998	0.0
C 	23.365365394104153	9.229999999999999	0.0
C 	24.595121467478055	8.519999999999996	0.0
C 	25.824877540851954	9.229999999999995	0.0
C 	27.05463361422586	8.519999999999996	0.0
C 	28.284389687599763	9.229999999999997	0.0
C 	29.514145760973662	8.519999999999996	0.0
C 	30.743901834347565	9.229999999999995	0.0
C 	31.97365790772147	8.52	0.0
C 	33.20341398109537	9.229999999999997	0.0
C 	34.43317005446928	8.519999999999994	0.0
C 	35.66292612784318	9.229999999999995	0.0
C 	36.89268220121708	8.519999999999992	0.0
C 	38.122438274590984	9.229999999999993	0.0
C 	39.35219434796489	8.519999999999998	0.0
C 	40.58195042133879	9.229999999999995	0.0
C 	41.811706494712695	8.519999999999994	0.0
C 	43.0414625680866	9.229999999999995	0.0
C 	44.27121864146049	8.519999999999992	0.0
C 	45.5009747148344	9.229999999999993	0.0
C 	46.730730788208305	8.519999999999998	0.0
C 	47.960486861582204	9.229999999999995	0.0
C 	49.19024293495611	8.519999999999996	0.0
C 	50.41999900833001	9.229999999999993	0.0
C 	51.64975508170391	8.519999999999994	0.0
C 	52.879511155077815	9.229999999999995	0.0
C 	54.10926722845171	8.51999999999999	0.0
C 	55.33902330182562	9.229999999999992	0.0
C 	56.568779375199526	8.519999999999998	0.0
C 	57.798535448573425	9.229999999999995	0.0
C 	59.02829152194733	8.519999999999994	0.0
C 	60.25804759532123	9.229999999999993	0.0
C 	61.48780366869513	8.519999999999992	0.0
C 	62.717559742069035	9.229999999999993	0.0
C 	63.94731581544294	8.519999999999992	0.0
C 	65.17707188881684	9.22999999999999	0.0
C 	6.148780366869514	10.649999999999997	0.0
C 	7.378536440243416	11.359999999999998	0.0
C 	8.608292513617318	10.649999999999997	0.0
C 	9.838048586991222	11.359999999999998	0.0
C 	11.067804660365125	10.649999999999997	0.0
C 	12.297560733739028	11.359999999999996	0.0
C 	13.52731680711293	10.649999999999997	0.0
C 	14.757072880486831	11.359999999999996	0.0
C 	15.986828953860735	10.649999999999997	0.0
C 	17.216585027234636	11.359999999999996	0.0
C 	18.44634110060854	10.649999999999997	0.0
C 	19.676097173982445	11.359999999999998	0.0
C 	20.905853247356347	10.649999999999997	0.0
C 	22.13560932073025	11.359999999999996	0.0
C 	23.365365394104153	10.649999999999997	0.0
C 	24.595121467478055	11.359999999999996	0.0
C 	25.824877540851958	10.649999999999997	0.0
C 	27.05463361422586	11.359999999999996	0.0
C 	28.284389687599763	10.649999999999995	0.0
C 	29.514145760973662	11.359999999999994	0.0
C 	30.743901834347565	10.649999999999995	0.0
C 	31.97365790772147	11.359999999999996	0.0
C 	33.20341398109537	10.649999999999997	0.0
C 	34.43317005446928	11.359999999999998	0.0
C 	35.66292612784318	10.649999999999991	0.0
C 	36.89268220121708	11.359999999999992	0.0
C 	38.122438274590984	10.649999999999993	0.0
C 	39.35219434796489	11.359999999999994	0.0
C 	40.58195042133879	10.649999999999993	0.0
C 	41.811706494712695	11.359999999999994	0.0
C 	43.041462568086594	10.649999999999991	0.0
C 	44.2712186414605	11.359999999999992	0.0
C 	45.5009747148344	10.649999999999993	0.0
C 	46.730730788208305	11.359999999999994	0.0
C 	47.960486861582204	10.649999999999995	0.0
C 	49.19024293495611	11.359999999999996	0.0
C 	50.41999900833001	10.649999999999993	0.0
C 	51.649755081703915	11.359999999999994	0.0
C 	52.879511155077815	10.649999999999995	0.0
C 	54.10926722845172	11.359999999999996	0.0
C 	55.33902330182562	10.649999999999993	0.0
C 	56.568779375199526	11.359999999999994	0.0
C 	57.798535448573425	10.649999999999993	0.0
C 	59.02829152194733	11.359999999999992	0.0
C 	60.25804759532124	10.649999999999995	0.0
C 	61.487803668695136	11.359999999999996	0.0
C 	62.717559742069035	10.649999999999991	0.0
C 	63.94731581544294	11.359999999999992	0.0
C 	65.17707188881684	10.649999999999991	0.0
C 	66.40682796219075	11.359999999999992	0.0
C 	7.378536440243417	12.779999999999998	0.0
C 	8.60829251361732	13.489999999999998	0.0
C 	9.838048586991222	12.78	0.0
C 	11.067804660365125	13.489999999999997	0.0
C 	12.297560733739028	12.779999999999998	0.0
C 	13.527316807112932	13.489999999999998	0.0
C 	14.757072880486833	12.779999999999998	0.0
C 	15.986828953860737	13.489999999999997	0.0
C 	17.216585027234636	12.779999999999996	0.0
C 	18.446341100608542	13.489999999999997	0.0
C 	19.676097173982445	12.779999999999998	0.0
C 	20.905853247356347	13.489999999999997	0.0
C 	22.13560932073025	12.779999999999996	0.0
C 	23.36536539410415	13.489999999999995	0.0
C 	24.595121467478055	12.779999999999996	0.0
C 	25.824877540851958	13.489999999999997	0.0
C 	27.05463361422586	12.779999999999998	0.0
C 	28.284389687599763	13.489999999999997	0.0
C 	29.514145760973662	12.779999999999996	0.0
C 	30.743901834347568	13.489999999999997	0.0
C 	31.97365790772147	12.779999999999996	0.0
C 	33.20341398109537	13.489999999999997	0.0
C 	34.43317005446928	12.779999999999998	0.0
C 	35.66292612784318	13.489999999999995	0.0
C 	36.89268220121708	12.779999999999994	0.0
C 	38.122438274590984	13.489999999999995	0.0
C 	39.35219434796489	12.779999999999996	0.0
C 	40.581950421338796	13.489999999999997	0.0
C 	41.811706494712695	12.779999999999996	0.0
C 	43.041462568086594	13.489999999999993	0.0
C 	44.2712186414605	12.779999999999994	0.0
C 	45.5009747148344	13.489999999999995	0.0
C 	46.730730788208305	12.779999999999996	0.0
C 	47.96048686158221	13.489999999999997	0.0
C 	49.19024293495611	12.779999999999998	0.0
C 	50.41999900833001	13.489999999999995	0.0
C 	51.649755081703915	12.779999999999996	0.0
C 	52.879511155077815	13.489999999999993	0.0
C 	54.10926722845172	12.779999999999998	0.0
C 	55.33902330182563	13.489999999999998	0.0
C 	56.56877937519952	12.779999999999998	0.0
C 	57.798535448573425	13.489999999999997	0.0
C 	59.02829152194733	12.779999999999994	0.0
C 	60.25804759532123	13.489999999999991	0.0
C 	61.487803668695136	12.779999999999998	0.0
C 	62.71755974206904	13.489999999999998	0.0
C 	63.94731581544294	12.779999999999994	0.0
C 	65.17707188881684	13.489999999999995	0.0
C 	66.40682796219075	12.77999999999999	0.0
C 	67.63658403556465	13.489999999999988	0.0
C 	8.60829251361732	14.909999999999998	0.0
C 	9.838048586991222	15.619999999999996	0.0
C 	11.067804660365125	14.909999999999997	0.0
C 	12.297560733739026	15.619999999999996	0.0
C 	13.527316807112934	14.909999999999998	0.0
C 	14.757072880486831	15.619999999999996	0.0
C 	15.986828953860737	14.909999999999998	0.0
C 	17.21658502723464	15.619999999999997	0.0
C 	18.446341100608542	14.909999999999997	0.0
C 	19.676097173982445	15.619999999999996	0.0
C 	20.905853247356347	14.909999999999997	0.0
C 	22.135609320730246	15.619999999999996	0.0
C 	23.365365394104153	14.909999999999995	0.0
C 	24.595121467478055	15.619999999999996	0.0
C 	25.824877540851958	14.909999999999997	0.0
C 	27.05463361422586	15.619999999999996	0.0
C 	28.284389687599763	14.909999999999997	0.0
C 	29.514145760973665	15.619999999999996	0.0
C 	30.743901834347568	14.909999999999997	0.0
C 	31.973657907721474	15.619999999999997	0.0
C 	33.203413981095366	14.909999999999993	0.0
C 	34.43317005446927	15.619999999999994	0.0
C 	35.662926127843185	14.909999999999998	0.0
C 	36.892682201217085	15.619999999999996	0.0
C 	38.122438274590984	14.909999999999995	0.0
C 	39.35219434796489	15.619999999999996	0.0
C 	40.58195042133879	14.909999999999993	0.0
C 	41.811706494712695	15.619999999999994	0.0
C 	43.0414625680866	14.909999999999998	0.0
C 	44.2712186414605	15.619999999999996	0.0
C 	45.5009747148344	14.909999999999995	0.0
C 	46.730730788208305	15.619999999999996	0.0
C 	47.960486861582204	14.909999999999993	0.0
C 	49.19024293495611	15.619999999999994	0.0
C 	50.41999900833002	14.909999999999998	0.0
C 	51.649755081703915	15.619999999999996	0.0
C 	52.87951115507782	14.909999999999997	0.0
C 	54.10926722845171	15.619999999999994	0.0
C 	55.33902330182562	14.909999999999995	0.0
C 	56.568779375199526	15.619999999999994	0.0
C 	57.798535448573425	14.909999999999991	0.0
C 	59.028291521947324	15.619999999999992	0.0
C 	60.25804759532124	14.909999999999998	0.0
C 	61.487803668695136	15.619999999999996	0.0
C 	62.717559742069035	14.909999999999993	0.0
C 	63.94731581544294	15.619999999999994	0.0
C 	65.17707188881684	14.909999999999993	0.0
C 	66.40682796219075	15.619999999999994	0.0
C 	67.63658403556465	14.909999999999997	0.0
C 	68.86634010893854	15.61999999999999	0.0
C 	9.838048586991222	17.039999999999996	0.0
C 	11.067804660365127	17.749999999999996	0.0
C 	12.297560733739028	17.039999999999996	0.0
C 	13.527316807112932	17.749999999999996	0.0
C 	14.757072880486833	17.039999999999996	0.0
C 	15.986828953860735	17.749999999999996	0.0
C 	17.21658502723464	17.039999999999996	0.0
C 	18.446341100608546	17.749999999999996	0.0
C 	19.676097173982445	17.039999999999996	0.0
C 	20.905853247356347	17.749999999999996	0.0
C 	22.13560932073025	17.039999999999996	0.0
C 	23.365365394104153	17.749999999999996	0.0
C 	24.595121467478055	17.039999999999996	0.0
C 	25.82487754085196	17.749999999999996	0.0
C 	27.05463361422586	17.039999999999996	0.0
C 	28.28438968759977	17.75	0.0
C 	29.514145760973665	17.039999999999996	0.0
C 	30.74390183434757	17.749999999999996	0.0
C 	31.973657907721467	17.039999999999992	0.0
C 	33.20341398109537	17.749999999999993	0.0
C 	34.43317005446927	17.039999999999996	0.0
C 	35.66292612784318	17.749999999999996	0.0
C 	36.892682201217085	17.039999999999996	0.0
C 	38.122438274590984	17.749999999999996	0.0
C 	39.35219434796488	17.039999999999992	0.0
C 	40.58195042133879	17.749999999999993	0.0
C 	41.811706494712695	17.039999999999992	0.0
C 	43.041462568086594	17.749999999999993	0.0
C 	44.2712186414605	17.039999999999996	0.0
C 	45.500974714834406	17.749999999999996	0.0
C 	46.7307307882083	17.039999999999992	0.0
C 	47.960486861582204	17.749999999999993	0.0
C 	49.19024293495611	17.039999999999992	0.0
C 	50.41999900833002	17.749999999999993	0.0
C 	51.649755081703915	17.039999999999996	0.0
C 	52.87951115507782	17.749999999999996	0.0
C 	54.10926722845172	17.039999999999992	0.0
C 	55.33902330182562	17.749999999999993	0.0
C 	56.568779375199526	17.039999999999996	0.0
C 	57.79853544857343	17.749999999999996	0.0
C 	59.028291521947324	17.039999999999992	0.0
C 	60.25804759532123	17.749999999999993	0.0
C 	61.487803668695136	17.039999999999996	0.0
C 	62.71755974206904	17.749999999999996	0.0
C 	63.94731581544294	17.04	0.0
C 	65.17707188881684	17.749999999999993	0.0
C 	66.40682796219075	17.039999999999996	0.0
C 	67.63658403556464	17.74999999999999	0.0
C 	68.86634010893856	17.03999999999999	0.0
C 	70.09609618231246	17.74999999999999	0.0
C 	11.067804660365125	19.169999999999995	0.0
C 	12.297560733739026	19.879999999999995	0.0
C 	13.52731680711293	19.169999999999995	0.0
C 	14.757072880486831	19.879999999999995	0.0
C 	15.986828953860737	19.169999999999998	0.0
C 	17.216585027234636	19.879999999999992	0.0
C 	18.446341100608542	19.169999999999995	0.0
C 	19.676097173982445	19.879999999999995	0.0
C 	20.905853247356347	19.169999999999995	0.0
C 	22.135609320730246	19.879999999999995	0.0
C 	23.365365394104153	19.169999999999995	0.0
C 	24.59512146747805	19.879999999999995	0.0
C 	25.824877540851958	19.169999999999995	0.0
C 	27.05463361422586	19.879999999999995	0.0
C 	28.284389687599763	19.169999999999995	0.0
C 	29.51414576097367	19.879999999999995	0.0
C 	30.743901834347565	19.16999999999999	0.0
C 	31.97365790772147	19.879999999999992	0.0
C 	33.20341398109537	19.169999999999995	0.0
C 	34.43317005446927	19.879999999999992	0.0
C 	35.66292612784318	19.169999999999995	0.0
C 	36.89268220121708	19.879999999999992	0.0
C 	38.122438274590984	19.169999999999995	0.0
C 	39.35219434796488	19.879999999999992	0.0
C 	40.58195042133879	19.16999999999999	0.0
C 	41.81170649471269	19.87999999999999	0.0
C 	43.0414625680866	19.169999999999995	0.0
C 	44.27121864146049	19.879999999999992	0.0
C 	45.5009747148344	19.16999999999999	0.0
C 	46.730730788208305	19.879999999999992	0.0
C 	47.960486861582204	19.169999999999995	0.0
C 	49.1902429349561	19.879999999999992	0.0
C 	50.41999900833002	19.169999999999995	0.0
C 	51.649755081703915	19.879999999999992	0.0
C 	52.879511155077815	19.16999999999999	0.0
C 	54.10926722845172	19.879999999999992	0.0
C 	55.33902330182562	19.16999999999999	0.0
C 	56.56877937519952	19.879999999999992	0.0
C 	57.79853544857343	19.169999999999995	0.0
C 	59.02829152194733	19.879999999999992	0.0
C 	60.25804759532123	19.169999999999995	0.0
C 	61.48780366869513	19.879999999999992	0.0
C 	62.717559742069035	19.16999999999999	0.0
C 	63.94731581544294	19.879999999999992	0.0
C 	65.17707188881684	19.169999999999995	0.0
C 	66.40682796219075	19.87999999999999	0.0
C 	67.63658403556465	19.169999999999995	0.0
C 	68.86634010893854	19.87999999999999	0.0
C 	70.09609618231245	19.16999999999999	0.0
C 	71.32585225568636	19.879999999999992	0.0
C 	12.297560733739028	21.299999999999994	0.0
C 	13.527316807112932	22.009999999999994	0.0
C 	14.757072880486831	21.299999999999994	0.0
C 	15.986828953860735	22.009999999999994	0.0
C 	17.216585027234636	21.299999999999994	0.0
C 	18.44634110060854	22.009999999999994	0.0
C 	19.676097173982445	21.299999999999994	0.0
C 	20.905853247356347	22.009999999999994	0.0
C 	22.13560932073025	21.299999999999994	0.0
C 	23.365365394104153	22.009999999999994	0.0
C 	24.595121467478055	21.299999999999994	0.0
C 	25.824877540851958	22.009999999999994	0.0
C 	27.05463361422586	21.299999999999994	0.0
C 	28.284389687599766	22.009999999999994	0.0
C 	29.514145760973662	21.29999999999999	0.0
C 	30.743901834347568	22.00999999999999	0.0
C 	31.97365790772147	21.299999999999994	0.0
C 	33.20341398109537	22.009999999999994	0.0
C 	34.43317005446928	21.299999999999994	0.0
C 	35.662926127843185	22.009999999999994	0.0
C 	36.89268220121708	21.299999999999994	0.0
C 	38.122438274590984	22.009999999999994	0.0
C 	39.35219434796489	21.299999999999994	0.0
C 	40.58195042133879	22.009999999999994	0.0
C 	41.811706494712695	21.299999999999994	0.0
C 	43.0414625680866	22.009999999999994	0.0
C 	44.2712186414605	21.29999999999999	0.0
C 	45.5009747148344	22.00999999999999	0.0
C 	46.730730788208305	21.299999999999994	0.0
C 	47.96048686158221	22.009999999999994	0.0
C 	49.19024293495611	21.299999999999994	0.0
C 	50.41999900833002	22.009999999999994	0.0
C 	51.649755081703915	21.299999999999994	0.0
C 	52.879511155077815	22.00999999999999	0.0
C 	54.10926722845172	21.299999999999994	0.0
C 	55.33902330182563	22.009999999999994	0.0
C 	56.568779375199526	21.29999999999999	0.0
C 	57.798535448573425	22.00999999999999	0.0
C 	59.02829152194733	21.299999999999994	0.0
C 	60.25804759532124	22.009999999999994	0.0
C 	61.48780366869513	21.29999999999999	0.0
C 	62.717559742069035	22.00999999999999	0.0
C 	63.94731581544294	21.299999999999994	0.0
C 	65.17707188881684	22.009999999999987	0.0
C 	66.40682796219075	21.299999999999994	0.0
C 	67.63658403556465	22.009999999999994	0.0
C 	68.86634010893854	21.29999999999999	0.0
C 	70.09609618231245	22.00999999999999	0.0
C 	71.32585225568636	21.299999999999983	0.0
C 	72.55560832906026	22.00999999999999	0.0
C 	13.527316807112932	23.429999999999996	0.0
C 	14.757072880486836	24.139999999999997	0.0
C 	15.986828953860737	23.429999999999996	0.0
C 	17.216585027234643	24.139999999999997	0.0
C 	18.446341100608542	23.429999999999996	0.0
C 	19.676097173982445	24.139999999999997	0.0
C 	20.90585324735635	23.429999999999996	0.0
C 	22.135609320730254	24.139999999999997	0.0
C 	23.365365394104156	23.429999999999993	0.0
C 	24.595121467478062	24.139999999999997	0.0
C 	25.824877540851958	23.429999999999993	0.0
C 	27.054633614225864	24.139999999999993	0.0
C 	28.284389687599766	23.429999999999996	0.0
C 	29.514145760973673	24.139999999999997	0.0
C 	30.743901834347575	23.429999999999996	0.0
C 	31.973657907721478	24.139999999999997	0.0
C 	33.20341398109537	23.429999999999993	0.0
C 	34.43317005446928	24.139999999999993	0.0
C 	35.66292612784318	23.429999999999993	0.0
C 	36.892682201217085	24.139999999999993	0.0
C 	38.122438274590984	23.429999999999993	0.0
C 	39.35219434796489	24.139999999999993	0.0
C 	40.58195042133879	23.429999999999996	0.0
C 	41.811706494712695	24.139999999999993	0.0
C 	43.041462568086594	23.42999999999999	0.0
C 	44.2712186414605	24.13999999999999	0.0
C 	45.5009747148344	23.429999999999993	0.0
C 	46.730730788208305	24.139999999999993	0.0
C 	47.96048686158221	23.429999999999993	0.0
C 	49.19024293495611	24.139999999999993	0.0
C 	50.41999900833001	23.429999999999993	0.0
C 	51.649755081703915	24.13999999999999	0.0
C 	52.87951115507782	23.429999999999993	0.0
C 	54.10926722845172	24.139999999999993	0.0
C 	55.33902330182563	23.429999999999993	0.0
C 	56.56877937519953	24.139999999999993	0.0
C 	57.798535448573425	23.429999999999993	0.0
C 	59.02829152194733	24.139999999999993	0.0
C 	60.25804759532124	23.429999999999993	0.0
C 	61.487803668695136	24.13999999999999	0.0
C 	62.71755974206904	23.429999999999993	0.0
C 	63.947315815442934	24.139999999999986	0.0
C 	65.17707188881684	23.429999999999993	0.0
C 	66.40682796219075	24.139999999999993	0.0
C 	67.63658403556464	23.42999999999999	0.0
C 	68.86634010893856	24.139999999999997	0.0
C 	70.09609618231245	23.42999999999999	0.0
C 	71.32585225568636	24.139999999999997	0.0
C 	72.55560832906026	23.42999999999999	0.0
C 	73.78536440243417	24.13999999999999	0.0
C 	14.757072880486835	25.559999999999995	0.0
C 	15.986828953860735	26.269999999999996	0.0
C 	17.21658502723464	25.559999999999995	0.0
C 	18.44634110060854	26.269999999999996	0.0
C 	19.676097173982445	25.56	0.0
C 	20.905853247356344	26.269999999999996	0.0
C 	22.13560932073025	25.56	0.0
C 	23.365365394104153	26.269999999999996	0.0
C 	24.595121467478055	25.559999999999995	0.0
C 	25.824877540851958	26.269999999999996	0.0
C 	27.054633614225857	25.559999999999995	0.0
C 	28.28438968759976	26.269999999999996	0.0
C 	29.514145760973665	25.559999999999995	0.0
C 	30.743901834347568	26.269999999999996	0.0
C 	31.973657907721474	25.559999999999995	0.0
C 	33.20341398109538	26.269999999999996	0.0
C 	34.43317005446927	25.55999999999999	0.0
C 	35.66292612784318	26.269999999999992	0.0
C 	36.892682201217085	25.559999999999995	0.0
C 	38.12243827459098	26.269999999999992	0.0
C 	39.35219434796489	25.559999999999995	0.0
C 	40.58195042133879	26.269999999999992	0.0
C 	41.81170649471269	25.55999999999999	0.0
C 	43.041462568086594	26.269999999999992	0.0
C 	44.2712186414605	25.55999999999999	0.0
C 	45.5009747148344	26.26999999999999	0.0
C 	46.730730788208305	25.559999999999995	0.0
C 	47.960486861582204	26.269999999999992	0.0
C 	49.19024293495611	25.55999999999999	0.0
C 	50.41999900833001	26.269999999999992	0.0
C 	51.649755081703915	25.559999999999995	0.0
C 	52.879511155077815	26.269999999999992	0.0
C 	54.10926722845172	25.559999999999995	0.0
C 	55.33902330182562	26.269999999999992	0.0
C 	56.568779375199526	25.55999999999999	0.0
C 	57.79853544857343	26.269999999999992	0.0
C 	59.028291521947324	25.55999999999999	0.0
C 	60.25804759532123	26.269999999999992	0.0
C 	61.487803668695136	25.559999999999995	0.0
C 	62.717559742069035	26.26999999999999	0.0
C 	63.94731581544294	25.55999999999999	0.0
C 	65.17707188881683	26.269999999999985	0.0
C 	66.40682796219075	25.55999999999999	0.0
C 	67.63658403556465	26.269999999999992	0.0
C 	68.86634010893856	25.559999999999995	0.0
C 	70.09609618231246	26.269999999999996	0.0
C 	71.32585225568636	25.559999999999995	0.0
C 	72.55560832906026	26.269999999999996	0.0
C 	73.78536440243415	25.559999999999988	0.0
C 	75.01512047580806	26.26999999999999	0.0
C 	15.986828953860735	27.689999999999994	0.0
C 	17.21658502723464	28.399999999999995	0.0
C 	18.446341100608542	27.689999999999994	0.0
C 	19.676097173982445	28.399999999999995	0.0
C 	20.905853247356344	27.689999999999994	0.0
C 	22.13560932073025	28.399999999999995	0.0
C 	23.365365394104153	27.689999999999994	0.0
C 	24.59512146747806	28.399999999999995	0.0
C 	25.824877540851954	27.689999999999994	0.0
C 	27.054633614225857	28.399999999999995	0.0
C 	28.284389687599763	27.689999999999994	0.0
C 	29.514145760973665	28.399999999999995	0.0
C 	30.74390183434757	27.689999999999994	0.0
C 	31.973657907721474	28.399999999999995	0.0
C 	33.20341398109537	27.68999999999999	0.0
C 	34.43317005446928	28.39999999999999	0.0
C 	35.66292612784318	27.689999999999994	0.0
C 	36.892682201217085	28.399999999999995	0.0
C 	38.122438274590984	27.689999999999994	0.0
C 	39.35219434796489	28.399999999999995	0.0
C 	40.58195042133879	27.689999999999994	0.0
C 	41.811706494712695	28.399999999999995	0.0
C 	43.041462568086594	27.689999999999994	0.0
C 	44.2712186414605	28.399999999999995	0.0
C 	45.500974714834406	27.689999999999994	0.0
C 	46.730730788208305	28.399999999999995	0.0
C 	47.960486861582204	27.68999999999999	0.0
C 	49.19024293495611	28.39999999999999	0.0
C 	50.41999900833002	27.689999999999994	0.0
C 	51.649755081703915	28.399999999999995	0.0
C 	52.87951115507782	27.689999999999994	0.0
C 	54.10926722845173	28.399999999999995	0.0
C 	55.33902330182562	27.68999999999999	0.0
C 	56.568779375199526	28.39999999999999	0.0
C 	57.79853544857343	27.689999999999994	0.0
C 	59.02829152194733	28.39999999999999	0.0
C 	60.25804759532124	27.689999999999994	0.0
C 	61.48780366869513	28.399999999999988	0.0
C 	62.717559742069035	27.689999999999994	0.0
C 	63.94731581544294	28.399999999999995	0.0
C 	65.17707188881684	27.68999999999999	0.0
C 	66.40682796219075	28.39999999999999	0.0
C 	67.63658403556464	27.689999999999987	0.0
C 	68.86634010893856	28.399999999999995	0.0
C 	70.09609618231245	27.689999999999994	0.0
C 	71.32585225568636	28.399999999999995	0.0
C 	72.55560832906026	27.68999999999999	0.0
C 	73.78536440243415	28.39999999999999	0.0
C 	75.01512047580808	27.689999999999994	0.0
C 	76.24487654918197	28.399999999999984	0.0
C 	17.21658502723464	29.819999999999997	0.0
C 	18.446341100608546	30.529999999999998	0.0
C 	19.676097173982445	29.819999999999997	0.0
C 	20.905853247356355	30.529999999999998	0.0
C 	22.13560932073025	29.819999999999993	0.0
C 	23.365365394104156	30.529999999999994	0.0
C 	24.59512146747806	29.819999999999997	0.0
C 	25.82487754085196	30.529999999999998	0.0
C 	27.054633614225867	29.819999999999997	0.0
C 	28.28438968759977	30.529999999999998	0.0
C 	29.514145760973665	29.819999999999997	0.0
C 	30.74390183434757	30.529999999999998	0.0
C 	31.973657907721474	29.819999999999997	0.0
C 	33.20341398109538	30.529999999999998	0.0
C 	34.43317005446928	29.819999999999997	0.0
C 	35.662926127843185	30.529999999999998	0.0
C 	36.892682201217085	29.819999999999993	0.0
C 	38.12243827459099	30.529999999999994	0.0
C 	39.35219434796488	29.819999999999993	0.0
C 	40.58195042133879	30.529999999999994	0.0
C 	41.811706494712695	29.819999999999993	0.0
C 	43.0414625680866	30.529999999999994	0.0
C 	44.2712186414605	29.819999999999993	0.0
C 	45.500974714834406	30.529999999999994	0.0
C 	46.730730788208305	29.81999999999999	0.0
C 	47.960486861582204	30.52999999999999	0.0
C 	49.19024293495611	29.819999999999993	0.0
C 	50.41999900833002	30.529999999999994	0.0
C 	51.649755081703915	29.819999999999993	0.0
C 	52.87951115507782	30.529999999999994	0.0
C 	54.10926722845172	29.819999999999993	0.0
C 	55.33902330182563	30.52999999999999	0.0
C 	56.568779375199526	29.819999999999993	0.0
C 	57.798535448573425	30.52999999999999	0.0
C 	59.02829152194734	29.819999999999993	0.0
C 	60.25804759532124	30.529999999999994	0.0
C 	61.487803668695136	29.819999999999993	0.0
C 	62.71755974206904	30.529999999999994	0.0
C 	63.947315815442934	29.81999999999999	0.0
C 	65.17707188881685	30.529999999999998	0.0
C 	66.40682796219073	29.819999999999986	0.0
C 	67.63658403556465	30.529999999999994	0.0
C 	68.86634010893856	29.819999999999993	0.0
C 	70.09609618231245	30.529999999999994	0.0
C 	71.32585225568637	29.819999999999997	0.0
C 	72.55560832906026	30.52999999999999	0.0
C 	73.78536440243417	29.819999999999997	0.0
C 	75.01512047580806	30.529999999999987	0.0
C 	76.24487654918197	29.81999999999999	0.0
C 	77.47463262255587	30.52999999999999	0.0
C 	18.446341100608542	31.949999999999996	0.0
C 	19.676097173982445	32.65999999999999	0.0
C 	20.905853247356347	31.949999999999992	0.0
C 	22.135609320730254	32.66	0.0
C 	23.365365394104156	31.949999999999996	0.0
C 	24.595121467478055	32.65999999999999	0.0
C 	25.824877540851958	31.949999999999992	0.0
C 	27.05463361422586	32.66	0.0
C 	28.284389687599766	31.949999999999996	0.0
C 	29.51414576097367	32.66	0.0
C 	30.743901834347568	31.949999999999992	0.0
C 	31.97365790772147	32.66	0.0
C 	33.20341398109537	31.949999999999992	0.0
C 	34.43317005446928	32.66	0.0
C 	35.66292612784318	31.949999999999996	0.0
C 	36.892682201217085	32.66	0.0
C 	38.122438274590984	31.949999999999992	0.0
C 	39.35219434796489	32.65999999999999	0.0
C 	40.58195042133879	31.949999999999992	0.0
C 	41.81170649471269	32.65999999999999	0.0
C 	43.0414625680866	31.949999999999996	0.0
C 	44.2712186414605	32.65999999999999	0.0
C 	45.5009747148344	31.949999999999992	0.0
C 	46.730730788208305	32.65999999999999	0.0
C 	47.96048686158221	31.949999999999992	0.0
C 	49.1902429349561	32.65999999999999	0.0
C 	50.41999900833002	31.949999999999992	0.0
C 	51.649755081703915	32.65999999999999	0.0
C 	52.879511155077815	31.949999999999992	0.0
C 	54.10926722845172	32.65999999999999	0.0
C 	55.33902330182563	31.949999999999992	0.0
C 	56.568779375199526	32.65999999999999	0.0
C 	57.79853544857343	31.949999999999992	0.0
C 	59.028291521947324	32.65999999999999	0.0
C 	60.25804759532124	31.949999999999992	0.0
C 	61.487803668695136	32.65999999999999	0.0
C 	62.717559742069035	31.94999999999999	0.0
C 	63.94731581544294	32.65999999999999	0.0
C 	65.17707188881685	31.949999999999992	0.0
C 	66.40682796219076	32.66	0.0
C 	67.63658403556465	31.949999999999992	0.0
C 	68.86634010893856	32.65999999999999	0.0
C 	70.09609618231245	31.94999999999999	0.0
C 	71.32585225568636	32.65999999999999	0.0
C 	72.55560832906026	31.949999999999996	0.0
C 	73.78536440243415	32.65999999999999	0.0
C 	75.01512047580806	31.949999999999992	0.0
C 	76.24487654918195	32.65999999999998	0.0
C 	77.47463262255587	31.949999999999985	0.0
C 	78.70438869592978	32.65999999999999	0.0
C 	19.676097173982445	34.07999999999999	0.0
C 	20.90585324735635	34.78999999999999	0.0
C 	22.135609320730254	34.07999999999999	0.0
C 	23.365365394104156	34.78999999999999	0.0
C 	24.595121467478055	34.07999999999999	0.0
C 	25.824877540851958	34.78999999999999	0.0
C 	27.054633614225864	34.07999999999999	0.0
C 	28.284389687599766	34.78999999999999	0.0
C 	29.514145760973665	34.07999999999999	0.0
C 	30.743901834347568	34.78999999999999	0.0
C 	31.97365790772147	34.07999999999999	0.0
C 	33.20341398109537	34.78999999999999	0.0
C 	34.43317005446928	34.07999999999999	0.0
C 	35.662926127843185	34.78999999999999	0.0
C 	36.89268220121708	34.07999999999999	0.0
C 	38.122438274590984	34.78999999999999	0.0
C 	39.35219434796489	34.07999999999999	0.0
C 	40.581950421338796	34.78999999999999	0.0
C 	41.811706494712695	34.07999999999999	0.0
C 	43.0414625680866	34.78999999999999	0.0
C 	44.2712186414605	34.07999999999999	0.0
C 	45.5009747148344	34.78999999999999	0.0
C 	46.730730788208305	34.07999999999999	0.0
C 	47.96048686158221	34.78999999999999	0.0
C 	49.19024293495611	34.07999999999999	0.0
C 	50.41999900833002	34.78999999999999	0.0
C 	51.649755081703915	34.07999999999999	0.0
C 	52.87951115507782	34.78999999999999	0.0
C 	54.10926722845172	34.07999999999999	0.0
C 	55.33902330182562	34.78999999999999	0.0
C 	56.56877937519953	34.07999999999999	0.0
C 	57.79853544857343	34.78999999999999	0.0
C 	59.02829152194733	34.07999999999999	0.0
C 	60.25804759532124	34.78999999999999	0.0
C 	61.487803668695136	34.07999999999999	0.0
C 	62.71755974206905	34.79	0.0
C 	63.947315815442934	34.079999999999984	0.0
C 	65.17707188881685	34.78999999999999	0.0
C 	66.40682796219075	34.07999999999999	0.0
C 	67.63658403556465	34.78999999999999	0.0
C 	68.86634010893854	34.07999999999999	0.0
C 	70.09609618231245	34.78999999999999	0.0
C 	71.32585225568636	34.07999999999999	0.0
C 	72.55560832906025	34.789999999999985	0.0
C 	73.78536440243417	34.07999999999999	0.0
C 	75.01512047580808	34.78999999999999	0.0
C 	76.24487654918197	34.07999999999999	0.0
C 	77.47463262255587	34.78999999999999	0.0
C 	78.70438869592977	34.079999999999984	0.0
C 	79.93414476930369	34.78999999999999	0.0
C 	20.90585324735635	36.209999999999994	0.0
C 	22.135609320730254	36.919999999999995	0.0
C 	23.36536539410416	36.209999999999994	0.0
C 	24.595121467478062	36.919999999999995	0.0
C 	25.82487754085196	36.209999999999994	0.0
C 	27.054633614225864	36.919999999999995	0.0
C 	28.284389687599766	36.209999999999994	0.0
C 	29.514145760973673	36.919999999999995	0.0
C 	30.743901834347575	36.209999999999994	0.0
C 	31.973657907721478	36.919999999999995	0.0
C 	33.20341398109537	36.209999999999994	0.0
C 	34.43317005446928	36.919999999999995	0.0
C 	35.662926127843185	36.209999999999994	0.0
C 	36.89268220121709	36.919999999999995	0.0
C 	38.12243827459099	36.209999999999994	0.0
C 	39.3521943479649	36.919999999999995	0.0
C 	40.581950421338796	36.209999999999994	0.0
C 	41.811706494712695	36.919999999999995	0.0
C 	43.041462568086594	36.209999999999994	0.0
C 	44.2712186414605	36.919999999999995	0.0
C 	45.500974714834406	36.209999999999994	0.0
C 	46.730730788208305	36.919999999999995	0.0
C 	47.96048686158221	36.209999999999994	0.0
C 	49.19024293495612	36.919999999999995	0.0
C 	50.41999900833002	36.20999999999999	0.0
C 	51.649755081703915	36.91999999999999	0.0
C 	52.87951115507782	36.209999999999994	0.0
C 	54.10926722845172	36.91999999999999	0.0
C 	55.33902330182563	36.209999999999994	0.0
C 	56.56877937519953	36.919999999999995	0.0
C 	57.79853544857343	36.20999999999999	0.0
C 	59.02829152194733	36.91999999999999	0.0
C 	60.25804759532123	36.20999999999999	0.0
C 	61.48780366869515	36.919999999999995	0.0
C 	62.71755974206904	36.209999999999994	0.0
C 	63.94731581544295	36.919999999999995	0.0
C 	65.17707188881684	36.209999999999994	0.0
C 	66.40682796219075	36.919999999999995	0.0
C 	67.63658403556467	36.209999999999994	0.0
C 	68.86634010893856	36.91999999999999	0.0
C 	70.09609618231246	36.209999999999994	0.0
C 	71.32585225568636	36.91999999999999	0.0
C 	72.55560832906026	36.209999999999994	0.0
C 	73.78536440243417	36.919999999999995	0.0
C 	75.01512047580806	36.20999999999999	0.0
C 	76.24487654918198	36.919999999999995	0.0
C 	77.47463262255586	36.20999999999999	0.0
C 	78.70438869592978	36.919999999999995	0.0
C 	79.93414476930369	36.20999999999999	0.0
C 	81.16390084267759	36.91999999999999	0.0
C 	22.13560932073025	38.33999999999999	0.0
C 	23.365365394104153	39.04999999999999	0.0
C 	24.59512146747806	38.33999999999999	0.0
C 	25.82487754085196	39.04999999999999	0.0
C 	27.05463361422586	38.33999999999999	0.0
C 	28.284389687599763	39.04999999999999	0.0
C 	29.514145760973665	38.33999999999999	0.0
C 	30.74390183434757	39.04999999999999	0.0
C 	31.973657907721474	38.339999999999996	0.0
C 	33.20341398109538	39.04999999999999	0.0
C 	34.43317005446927	38.33999999999999	0.0
C 	35.66292612784318	39.04999999999999	0.0
C 	36.892682201217085	38.33999999999999	0.0
C 	38.12243827459099	39.04999999999999	0.0
C 	39.35219434796489	38.33999999999999	0.0
C 	40.581950421338796	39.04999999999999	0.0
C 	41.811706494712695	38.33999999999999	0.0
C 	43.0414625680866	39.04999999999999	0.0
C 	44.27121864146049	38.33999999999999	0.0
C 	45.5009747148344	39.04999999999999	0.0
C 	46.730730788208305	38.33999999999999	0.0
C 	47.960486861582204	39.04999999999999	0.0
C 	49.19024293495611	38.33999999999999	0.0
C 	50.41999900833002	39.04999999999999	0.0
C 	51.649755081703915	38.33999999999999	0.0
C 	52.879511155077815	39.04999999999999	0.0
C 	54.10926722845173	38.33999999999999	0.0
C 	55.33902330182562	39.04999999999998	0.0
C 	56.568779375199526	38.33999999999999	0.0
C 	57.79853544857343	39.04999999999999	0.0
C 	59.02829152194733	38.33999999999999	0.0
C 	60.25804759532123	39.04999999999999	0.0
C 	61.48780366869513	38.33999999999998	0.0
C 	62.71755974206905	39.04999999999999	0.0
C 	63.94731581544294	38.33999999999999	0.0
C 	65.17707188881685	39.04999999999999	0.0
C 	66.40682796219075	38.33999999999999	0.0
C 	67.63658403556465	39.04999999999999	0.0
C 	68.86634010893856	38.33999999999999	0.0
C 	70.09609618231245	39.04999999999998	0.0
C 	71.32585225568636	38.33999999999999	0.0
C 	72.55560832906025	39.04999999999998	0.0
C 	73.78536440243415	38.33999999999999	0.0
C 	75.01512047580806	39.04999999999999	0.0
C 	76.24487654918197	38.33999999999999	0.0
C 	77.47463262255587	39.05	0.0
C 	78.70438869592977	38.33999999999998	0.0
C 	79.93414476930369	39.04999999999999	0.0
C 	81.16390084267758	38.33999999999998	0.0
C 	82.39365691605148	39.04999999999998	0.0
C 	23.365365394104156	40.46999999999999	0.0
C 	24.59512146747806	41.17999999999999	0.0
C 	25.82487754085196	40.46999999999999	0.0
C 	27.054633614225867	41.17999999999999	0.0
C 	28.284389687599763	40.46999999999999	0.0
C 	29.51414576097367	41.17999999999999	0.0
C 	30.74390183434757	40.46999999999999	0.0
C 	31.973657907721474	41.17999999999999	0.0
C 	33.20341398109537	40.46999999999999	0.0
C 	34.43317005446928	41.17999999999999	0.0
C 	35.66292612784318	40.46999999999999	0.0
C 	36.892682201217085	41.17999999999999	0.0
C 	38.12243827459099	40.46999999999999	0.0
C 	39.3521943479649	41.17999999999999	0.0
C 	40.58195042133879	40.46999999999999	0.0
C 	41.811706494712695	41.17999999999999	0.0
C 	43.0414625680866	40.46999999999999	0.0
C 	44.2712186414605	41.17999999999999	0.0
C 	45.500974714834406	40.46999999999999	0.0
C 	46.73073078820831	41.17999999999999	0.0
C 	47.960486861582204	40.46999999999999	0.0
C 	49.19024293495611	41.17999999999999	0.0
C 	50.41999900833002	40.46999999999999	0.0
C 	51.649755081703915	41.179999999999986	0.0
C 	52.87951115507782	40.46999999999999	0.0
C 	54.10926722845173	41.17999999999999	0.0
C 	55.33902330182563	40.46999999999999	0.0
C 	56.568779375199526	41.17999999999999	0.0
C 	57.798535448573425	40.469999999999985	0.0
C 	59.028291521947345	41.17999999999999	0.0
C 	60.25804759532124	40.46999999999999	0.0
C 	61.48780366869514	41.17999999999999	0.0
C 	62.71755974206904	40.46999999999999	0.0
C 	63.94731581544295	41.17999999999999	0.0
C 	65.17707188881685	40.46999999999999	0.0
C 	66.40682796219075	41.179999999999986	0.0
C 	67.63658403556465	40.46999999999999	0.0
C 	68.86634010893854	41.179999999999986	0.0
C 	70.09609618231246	40.46999999999999	0.0
C 	71.32585225568636	41.17999999999999	0.0
C 	72.55560832906026	40.469999999999985	0.0
C 	73.78536440243417	41.179999999999986	0.0
C 	75.01512047580806	40.469999999999985	0.0
C 	76.24487654918198	41.17999999999999	0.0
C 	77.47463262255587	40.46999999999999	0.0
C 	78.70438869592978	41.17999999999999	0.0
C 	79.93414476930367	40.469999999999985	0.0
C 	81.16390084267758	41.179999999999986	0.0
C 	82.3936569160515	40.46999999999999	0.0
C 	83.62341298942539	41.179999999999986	0.0
C 	24.595121467478055	42.59999999999999	0.0
C 	25.82487754085196	43.30999999999999	0.0
C 	27.05463361422586	42.59999999999999	0.0
C 	28.284389687599766	43.30999999999999	0.0
C 	29.514145760973662	42.59999999999999	0.0
C 	30.743901834347568	43.30999999999999	0.0
C 	31.97365790772147	42.59999999999999	0.0
C 	33.20341398109537	43.30999999999999	0.0
C 	34.43317005446927	42.59999999999999	0.0
C 	35.66292612784318	43.30999999999999	0.0
C 	36.89268220121708	42.59999999999999	0.0
C 	38.122438274590984	43.30999999999999	0.0
C 	39.35219434796489	42.59999999999999	0.0
C 	40.581950421338796	43.30999999999999	0.0
C 	41.81170649471269	42.59999999999999	0.0
C 	43.041462568086594	43.30999999999999	0.0
C 	44.2712186414605	42.59999999999999	0.0
C 	45.5009747148344	43.30999999999999	0.0
C 	46.730730788208305	42.59999999999999	0.0
C 	47.96048686158221	43.30999999999999	0.0
C 	49.19024293495611	42.59999999999999	0.0
C 	50.41999900833001	43.30999999999999	0.0
C 	51.64975508170392	42.599999999999994	0.0
C 	52.879511155077815	43.30999999999999	0.0
C 	54.10926722845172	42.59999999999999	0.0
C 	55.33902330182563	43.30999999999999	0.0
C 	56.568779375199526	42.59999999999999	0.0
C 	57.798535448573425	43.30999999999999	0.0
C 	59.028291521947324	42.59999999999998	0.0
C 	60.258047595321244	43.30999999999999	0.0
C 	61.487803668695136	42.59999999999999	0.0
C 	62.71755974206904	43.30999999999999	0.0
C 	63.94731581544294	42.59999999999999	0.0
C 	65.17707188881684	43.30999999999999	0.0
C 	66.40682796219076	42.599999999999994	0.0
C 	67.63658403556465	43.30999999999999	0.0
C 	68.86634010893856	42.59999999999999	0.0
C 	70.09609618231245	43.30999999999998	0.0
C 	71.32585225568636	42.59999999999999	0.0
C 	72.55560832906026	43.30999999999999	0.0
C 	73.78536440243415	42.59999999999999	0.0
C 	75.01512047580806	43.30999999999999	0.0
C 	76.24487654918197	42.59999999999998	0.0
C 	77.47463262255587	43.30999999999999	0.0
C 	78.70438869592978	42.59999999999999	0.0
C 	79.93414476930367	43.30999999999999	0.0
C 	81.16390084267758	42.59999999999999	0.0
C 	82.39365691605148	43.30999999999999	0.0
C 	83.62341298942539	42.59999999999999	0.0
C 	84.85316906279928	43.30999999999998	0.0
C 	25.82487754085196	44.72999999999999	0.0
C 	27.054633614225864	45.43999999999999	0.0
C 	28.284389687599766	44.72999999999999	0.0
C 	29.514145760973673	45.43999999999999	0.0
C 	30.743901834347568	44.72999999999999	0.0
C 	31.97365790772147	45.43999999999999	0.0
C 	33.20341398109537	44.72999999999999	0.0
C 	34.43317005446928	45.43999999999999	0.0
C 	35.662926127843185	44.72999999999999	0.0
C 	36.892682201217085	45.43999999999999	0.0
C 	38.122438274590984	44.72999999999999	0.0
C 	39.35219434796489	45.43999999999999	0.0
C 	40.581950421338796	44.72999999999999	0.0
C 	41.811706494712695	45.43999999999999	0.0
C 	43.0414625680866	44.72999999999999	0.0
C 	44.27121864146051	45.43999999999999	0.0
C 	45.500974714834406	44.72999999999999	0.0
C 	46.730730788208305	45.43999999999999	0.0
C 	47.960486861582204	44.72999999999999	0.0
C 	49.19024293495611	45.43999999999998	0.0
C 	50.41999900833002	44.72999999999999	0.0
C 	51.64975508170391	45.43999999999998	0.0
C 	52.87951115507782	44.72999999999999	0.0
C 	54.10926722845172	45.43999999999999	0.0
C 	55.33902330182562	44.72999999999998	0.0
C 	56.568779375199526	45.43999999999998	0.0
C 	57.798535448573425	44.72999999999998	0.0
C 	59.02829152194734	45.43999999999999	0.0
C 	60.25804759532124	44.72999999999999	0.0
C 	61.48780366869514	45.43999999999999	0.0
C 	62.717559742069035	44.72999999999998	0.0
C 	63.94731581544294	45.43999999999998	0.0
C 	65.17707188881685	44.72999999999999	0.0
C 	66.40682796219075	45.43999999999998	0.0
C 	67.63658403556465	44.72999999999999	0.0
C 	68.86634010893856	45.43999999999999	0.0
C 	70.09609618231245	44.72999999999999	0.0
C 	71.32585225568636	45.43999999999998	0.0
C 	72.55560832906026	44.72999999999998	0.0
C 	73.78536440243417	45.43999999999999	0.0
C 	75.01512047580806	44.72999999999998	0.0
C 	76.24487654918198	45.43999999999999	0.0
C 	77.47463262255587	44.72999999999999	0.0
C 	78.70438869592978	45.43999999999999	0.0
C 	79.93414476930369	44.72999999999999	0.0
C 	81.16390084267758	45.43999999999998	0.0
C 	82.39365691605148	44.72999999999999	0.0
C 	83.62341298942538	45.43999999999998	0.0
C 	84.8531690627993	44.72999999999998	0.0
C 	86.08292513617319	45.43999999999998	0.0
C 	27.054633614225864	46.85999999999999	0.0
C 	28.28438968759977	47.56999999999999	0.0
C 	29.514145760973673	46.85999999999999	0.0
C 	30.74390183434758	47.56999999999999	0.0
C 	31.973657907721474	46.85999999999999	0.0
C 	33.20341398109538	47.56999999999999	0.0
C 	34.43317005446928	46.85999999999999	0.0
C 	35.662926127843185	47.56999999999999	0.0
C 	36.892682201217085	46.85999999999999	0.0
C 	38.122438274590984	47.56999999999999	0.0
C 	39.35219434796489	46.85999999999999	0.0
C 	40.581950421338796	47.56999999999999	0.0
C 	41.8117064947127	46.85999999999999	0.0
C 	43.0414625680866	47.56999999999999	0.0
C 	44.2712186414605	46.85999999999999	0.0
C 	45.500974714834406	47.56999999999999	0.0
C 	46.73073078820831	46.859999999999985	0.0
C 	47.960486861582204	47.569999999999986	0.0
C 	49.19024293495612	46.85999999999999	0.0
C 	50.41999900833002	47.56999999999999	0.0
C 	51.649755081703915	46.859999999999985	0.0
C 	52.87951115507782	47.569999999999986	0.0
C 	54.10926722845172	46.859999999999985	0.0
C 	55.339023301825634	47.56999999999999	0.0
C 	56.56877937519953	46.85999999999999	0.0
C 	57.79853544857344	47.56999999999999	0.0
C 	59.02829152194733	46.859999999999985	0.0
C 	60.25804759532124	47.569999999999986	0.0
C 	61.48780366869515	46.85999999999999	0.0
C 	62.71755974206904	47.569999999999986	0.0
C 	63.94731581544295	46.85999999999999	0.0
C 	65.17707188881685	47.56999999999999	0.0
C 	66.40682796219075	46.859999999999985	0.0
C 	67.63658403556465	47.569999999999986	0.0
C 	68.86634010893856	46.859999999999985	0.0
C 	70.09609618231246	47.56999999999999	0.0
C 	71.32585225568636	46.859999999999985	0.0
C 	72.55560832906028	47.56999999999999	0.0
C 	73.78536440243417	46.859999999999985	0.0
C 	75.01512047580808	47.569999999999986	0.0
C 	76.24487654918197	46.859999999999985	0.0
C 	77.47463262255587	47.569999999999986	0.0
C 	78.70438869592978	46.85999999999999	0.0
C 	79.93414476930367	47.569999999999986	0.0
C 	81.16390084267758	46.85999999999999	0.0
C 	82.39365691605148	47.56999999999999	0.0
C 	83.62341298942539	46.859999999999985	0.0
C 	84.8531690627993	47.569999999999986	0.0
C 	86.08292513617319	46.85999999999998	0.0
C 	87.31268120954711	47.569999999999986	0.0
C 	28.284389687599763	48.98999999999999	0.0
C 	29.51414576097367	49.69999999999999	0.0
C 	30.74390183434757	48.98999999999999	0.0
C 	31.973657907721478	49.69999999999999	0.0
C 	33.20341398109537	48.98999999999999	0.0
C 	34.43317005446928	49.69999999999999	0.0
C 	35.66292612784318	48.98999999999999	0.0
C 	36.892682201217085	49.69999999999999	0.0
C 	38.122438274590984	48.98999999999999	0.0
C 	39.35219434796488	49.69999999999999	0.0
C 	40.58195042133879	48.98999999999999	0.0
C 	41.811706494712695	49.69999999999999	0.0
C 	43.041462568086594	48.98999999999999	0.0
C 	44.2712186414605	49.69999999999999	0.0
C 	45.5009747148344	48.98999999999999	0.0
C 	46.730730788208305	49.69999999999998	0.0
C 	47.96048686158221	48.98999999999999	0.0
C 	49.1902429349561	49.69999999999998	0.0
C 	50.41999900833002	48.98999999999999	0.0
C 	51.64975508170392	49.69999999999999	0.0
C 	52.879511155077815	48.98999999999999	0.0
C 	54.10926722845172	49.69999999999999	0.0
C 	55.33902330182562	48.98999999999998	0.0
C 	56.56877937519953	49.69999999999999	0.0
C 	57.79853544857343	48.98999999999999	0.0
C 	59.02829152194734	49.69999999999999	0.0
C 	60.25804759532124	48.98999999999999	0.0
C 	61.487803668695136	49.69999999999999	0.0
C 	62.71755974206905	48.98999999999999	0.0
C 	63.94731581544294	49.69999999999998	0.0
C 	65.17707188881685	48.98999999999999	0.0
C 	66.40682796219075	49.69999999999999	0.0
C 	67.63658403556465	48.98999999999999	0.0
C 	68.86634010893856	49.69999999999999	0.0
C 	70.09609618231245	48.98999999999998	0.0
C 	71.32585225568637	49.69999999999999	0.0
C 	72.55560832906025	48.98999999999998	0.0
C 	73.78536440243417	49.69999999999999	0.0
C 	75.01512047580806	48.98999999999999	0.0
C 	76.24487654918197	49.69999999999999	0.0
C 	77.47463262255587	48.98999999999998	0.0
C 	78.70438869592978	49.69999999999998	0.0
C 	79.93414476930369	48.98999999999999	0.0
C 	81.16390084267758	49.69999999999998	0.0
C 	82.39365691605148	48.98999999999999	0.0
C 	83.62341298942539	49.69999999999999	0.0
C 	84.85316906279928	48.98999999999998	0.0
C 	86.08292513617319	49.69999999999998	0.0
C 	87.3126812095471	48.98999999999998	0.0
C 	88.542437282921	49.69999999999999	0.0
C 	29.51414576097367	51.11999999999999	0.0
C 	30.74390183434757	51.82999999999999	0.0
C 	31.973657907721474	51.11999999999999	0.0
C 	33.20341398109538	51.82999999999999	0.0
C 	34.43317005446928	51.11999999999999	0.0
C 	35.66292612784318	51.82999999999999	0.0
C 	36.892682201217085	51.11999999999999	0.0
C 	38.12243827459099	51.82999999999999	0.0
C 	39.35219434796489	51.12	0.0
C 	40.581950421338796	51.83	0.0
C 	41.811706494712695	51.11999999999999	0.0
C 	43.041462568086594	51.82999999999999	0.0
C 	44.2712186414605	51.12	0.0
C 	45.5009747148344	51.82999999999999	0.0
C 	46.73073078820831	51.11999999999999	0.0
C 	47.96048686158221	51.82999999999999	0.0
C 	49.19024293495611	51.11999999999999	0.0
C 	50.41999900833002	51.82999999999999	0.0
C 	51.649755081703915	51.11999999999998	0.0
C 	52.879511155077815	51.829999999999984	0.0
C 	54.10926722845171	51.11999999999999	0.0
C 	55.33902330182563	51.83	0.0
C 	56.568779375199526	51.11999999999999	0.0
C 	57.79853544857343	51.82999999999999	0.0
C 	59.02829152194733	51.11999999999999	0.0
C 	60.25804759532124	51.82999999999999	0.0
C 	61.48780366869514	51.11999999999999	0.0
C 	62.717559742069035	51.829999999999984	0.0
C 	63.94731581544295	51.11999999999999	0.0
C 	65.17707188881685	51.82999999999999	0.0
C 	66.40682796219075	51.11999999999999	0.0
C 	67.63658403556465	51.82999999999999	0.0
C 	68.86634010893854	51.11999999999998	0.0
C 	70.09609618231246	51.82999999999999	0.0
C 	71.32585225568636	51.11999999999999	0.0
C 	72.55560832906026	51.82999999999999	0.0
C 	73.78536440243417	51.11999999999999	0.0
C 	75.01512047580806	51.82999999999999	0.0
C 	76.24487654918198	51.11999999999999	0.0
C 	77.47463262255587	51.829999999999984	0.0
C 	78.70438869592978	51.11999999999999	0.0
C 	79.93414476930367	51.829999999999984	0.0
C 	81.16390084267758	51.11999999999999	0.0
C 	82.39365691605148	51.82999999999999	0.0
C 	83.62341298942538	51.11999999999998	0.0
C 	84.8531690627993	51.82999999999999	0.0
C 	86.08292513617319	51.11999999999998	0.0
C 	87.3126812095471	51.82999999999999	0.0
C 	88.542437282921	51.11999999999998	0.0
C 	89.7721933562949	51.829999999999984	0.0
C 	52.59548004623466	-0.46505774494294483	2.15
C 	53.941311188448275	-0.012135525739685354	2.15
C 	54.22198461178663	1.3798495422231614	2.15
C 	55.56781575400025	1.832771761426421	2.15
C 	55.84848917733861	3.2247568293892677	2.15
C 	50.184491185145795	0.021082884613388104	2.15
C 	51.53032232735941	0.4740051038166424	2.15
C 	51.810995750697764	1.8659901717794891	2.15
C 	53.15682689291138	2.3189123909827485	2.15
C 	53.43750031624974	3.7108974589455954	2.15
C 	54.78333145846335	4.163819678148855	2.15
C 	55.064004881801715	5.5558047461117015	2.15
C 	56.40983602401533	6.008726965314954	2.15
C 	56.69050944735368	7.4007120332778005	2.15
C 	58.03634058956729	7.853634252481064	2.15
C 	58.31701401290565	9.245619320443911	2.15
C 	59.662845155119264	9.69854153964717	2.15
C 	59.94351857845762	11.090526607610016	2.15
C 	61.28934972067123	11.543448826813268	2.15
C 	61.570023144009596	12.935433894776114	2.15
C 	47.773502324056935	0.5072235141697089	2.15
C 	49.11933346627055	0.9601457333729684	2.15
C 	49.4000068896089	2.3521308013358153	2.15
C 	50.74583803182251	2.805053020539068	2.15
C 	51.02651145516087	4.197038088501914	2.15
C 	52.37234259737449	4.649960307705173	2.15
C 	52.65301602071285	6.04194537566802	2.15
C 	53.99884716292646	6.494867594871282	2.15
C 	54.279520586264816	7.886852662834128	2.15
C 	55.62535172847843	8.33977488203738	2.15
C 	55.90602515181679	9.731759950000228	2.15
C 	57.2518562940304	10.184682169203489	2.15
C 	57.53252971736875	11.576667237166335	2.15
C 	58.87836085958237	12.029589456369596	2.15
C 	59.159034282920736	13.421574524332442	2.15
C 	60.50486542513434	13.874496743535696	2.15
C 	60.7855388484727	15.266481811498544	2.15
C 	62.131369990686316	15.719404030701801	2.15
C 	62.41204341402467	17.11138909866465	2.15
C 	63.75787455623828	17.564311317867908	2.15
C 	64.03854797957663	18.956296385830754	2.15
C 	65.38437912179026	19.409218605034006	2.15
C 	65.66505254512862	20.801203672996856	2.15
C 	67.01088368734223	21.254125892200108	2.15
C 	67.29155711068059	22.646110960162954	2.15
C 	43.7360088974161	-0.8515431434400661	2.15
C 	45.08184003962971	-0.39862092423681184	2.15
C 	45.362513462968074	0.9933641437260349	2.15
C 	46.70834460518168	1.4462863629292961	2.15
C 	46.989018028520036	2.838271430892143	2.15
C 	48.334849170733655	3.291193650095402	2.15
C 	48.61552259407201	4.683178718058249	2.15
C 	49.96135373628562	5.136100937261501	2.15
C 	50.24202715962398	6.528086005224348	2.15
C 	51.5878583018376	6.981008224427608	2.15
C 	51.868531725175956	8.372993292390454	2.15
C 	53.21436286738957	8.825915511593713	2.15
C 	53.49503629072793	10.217900579556561	2.15
C 	54.840867432941536	10.670822798759815	2.15
C 	55.12154085627989	12.062807866722661	2.15
C 	56.467371998493505	12.515730085925922	2.15
C 	56.74804542183187	13.907715153888768	2.15
C 	58.09387656404548	14.360637373092027	2.15
C 	58.374549987383844	15.752622441054875	2.15
C 	59.72038112959745	16.20554466025813	2.15
C 	60.001054552935805	17.597529728220977	2.15
C 	61.34688569514942	18.050451947424236	2.15
C 	61.62755911848778	19.442437015387082	2.15
C 	62.97339026070139	19.89535923459034	2.15
C 	63.25406368403975	21.287344302553187	2.15
C 	64.59989482625336	21.74026652175644	2.15
C 	64.88056824959172	23.132251589719285	2.15
C 	66.22639939180534	23.58517380892254	2.15
C 	66.5070728151437	24.977158876885387	2.15
C 	67.8529039573573	25.430081096088657	2.15
C 	68.13357738069567	26.822066164051503	2.15
C 	69.47940852290928	27.274988383254755	2.15
C 	69.76008194624764	28.6669734512176	2.15
C 	71.10591308846125	29.119895670420853	2.15
C 	71.3865865117996	30.511880738383702	2.15
C 	72.73241765401323	30.96480295758697	2.15
C 	73.01309107735159	32.35678802554981	2.15
C 	41.32502003632723	-0.36540251388374534	2.15
C 	42.67085117854084	0.08751970531951761	2.15
C 	42.95152460187921	1.4795047732823607	2.15
C 	44.29735574409282	1.9324269924856168	2.15
C 	44.578029167431175	3.32441206044846	2.15
C 	45.92386030964479	3.7773342796517246	2.15
C 	46.20453373298315	5.169319347614568	2.15
C 	47.550364875196756	5.6222415668178325	2.15
C 	47.83103829853511	7.014226634780676	2.15
C 	49.17686944074873	7.467148853983932	2.15
C 	49.45754286408709	8.859133921946775	2.15
C 	50.8033740063007	9.312056141150038	2.15
C 	51.084047429639064	10.704041209112882	2.15
C 	52.429878571852676	11.156963428316145	2.15
C 	52.71055199519103	12.548948496278987	2.15
C 	54.056383137404644	13.001870715482244	2.15
C 	54.33705656074301	14.393855783445087	2.15
C 	55.68288770295661	14.846778002648351	2.15
C 	55.96356112629497	16.238763070611196	2.15
C 	57.30939226850859	16.69168528981446	2.15
C 	57.590065691846945	18.0836703577773	2.15
C 	58.93589683406055	18.53659257698056	2.15
C 	59.21657025739891	19.928577644943402	2.15
C 	60.56240139961253	20.381499864146665	2.15
C 	60.84307482295089	21.773484932109508	2.15
C 	62.188905965164494	22.22640715131277	2.15
C 	62.46957938850286	23.618392219275616	2.15
C 	63.81541053071647	24.07131443847887	2.15
C 	64.09608395405483	25.463299506441714	2.15
C 	65.44191509626845	25.916221725644967	2.15
C 	65.7225885196068	27.308206793607813	2.15
C 	67.06841966182041	27.761129012811082	2.15
C 	67.34909308515877	29.15311408077393	2.15
C 	68.69492422737238	29.60603629997718	2.15
C 	68.97559765071074	30.998021367940026	2.15
C 	70.32142879292435	31.450943587143282	2.15
C 	70.60210221626271	32.84292865510613	2.15
C 	71.94793335847632	33.295850874309394	2.15
C 	72.22860678181469	34.687835942272244	2.15
C 	73.57443792402829	35.140758161475496	2.15
C 	73.85511134736664	36.532743229438346	2.15
C 	75.20094248958027	36.98566544864159	2.15
C 	75.48161591291863	38.37765051660444	2.15
C 	38.91403117523837	0.12073811567258759	2.15
C 	40.25986231745198	0.573660334875841	2.15
C 	40.54053574079035	1.9656454028386876	2.15
C 	41.88636688300395	2.418567622041948	2.15
C 	42.16704030634231	3.810552690004795	2.15
C 	43.51287144855592	4.263474909208047	2.15
C 	43.793544871894284	5.655459977170894	2.15
C 	45.139376014107896	6.108382196374153	2.15
C 	45.42004943744625	7.500367264337	2.15
C 	46.76588057965987	7.953289483540262	2.15
C 	47.04655400299823	9.345274551503108	2.15
C 	48.39238514521183	9.798196770706362	2.15
C 	48.673058568550196	11.19018183866921	2.15
C 	50.01888971076381	11.643104057872469	2.15
C 	50.299563134102165	13.035089125835315	2.15
C 	51.64539427631578	13.488011345038576	2.15
C 	51.92606769965414	14.879996413001422	2.15
C 	53.27189884186775	15.332918632204674	2.15
C 	53.55257226520611	16.72490370016752	2.15
C 	54.89840340741972	17.177825919370783	2.15
C 	55.17907683075808	18.56981098733363	2.15
C 	56.52490797297169	19.022733206536888	2.15
C 	56.80558139631005	20.414718274499734	2.15
C 	58.151412538523665	20.867640493702986	2.15
C 	58.43208596186202	22.259625561665835	2.15
C 	59.777917104075634	22.712547780869095	2.15
C 	60.058590527414	24.10453284883194	2.15
C 	61.4044216696276	24.557455068035203	2.15
C 	61.68509509296596	25.94944013599805	2.15
C 	63.03092623517957	26.4023623552013	2.15
C 	63.311599658517935	27.79434742316415	2.15
C 	64.65743080073155	28.2472696423674	2.15
C 	64.9381042240699	29.639254710330246	2.15
C 	66.28393536628352	30.09217692953351	2.15
C 	66.56460878962189	31.48416199749636	2.15
C 	67.9104399318355	31.937084216699613	2.15
C 	68.19111335517385	33.32906928466246	2.15
C 	69.53694449738745	33.78199150386572	2.15
C 	69.81761792072582	35.17397657182856	2.15
C 	71.16344906293943	35.62689879103183	2.15
C 	71.44412248627779	37.01888385899468	2.15
C 	72.7899536284914	37.47180607819793	2.15
C 	73.07062705182976	38.86379114616077	2.15
C 	74.41645819404339	39.31671336536402	2.15
C 	74.69713161738174	40.70869843332687	2.15
C 	36.5030423141495	0.6068787452289154	2.15
C 	37.848873456363116	1.0598009644321749	2.15
C 	38.12954687970148	2.4517860323950216	2.15
C 	39.47537802191509	2.904708251598274	2.15
C 	39.75605144525345	4.296693319561121	2.15
C 	41.10188258746707	4.749615538764381	2.15
C 	41.38255601080542	6.141600606727228	2.15
C 	42.72838715301903	6.594522825930481	2.15
C 	43.009060576357385	7.986507893893328	2.15
C 	44.354891718571004	8.439430113096588	2.15
C 	44.63556514190936	9.831415181059434	2.15
C 	45.98139628412297	10.284337400262693	2.15
C 	46.262069707461336	11.67632246822554	2.15
C 	47.60790084967495	12.129244687428795	2.15
C 	47.888574273013305	13.52122975539164	2.15
C 	49.23440541522692	13.974151974594902	2.15
C 	49.51507883856528	15.366137042557748	2.15
C 	50.860909980778885	15.819059261761009	2.15
C 	51.14158340411725	17.211044329723855	2.15
C 	52.48741454633086	17.663966548927107	2.15
C 	52.76808796966922	19.055951616889956	2.15
C 	54.11391911188282	19.508873836093215	2.15
C 	54.394592535221186	20.90085890405606	2.15
C 	55.740423677434805	21.35378112325932	2.15
C 	56.02109710077316	22.745766191222167	2.15
C 	57.366928242986766	23.198688410425422	2.15
C 	57.64760166632513	24.59067347838827	2.15
C 	58.99343280853874	25.043595697591527	2.15
C 	59.2741062318771	26.435580765554374	2.15
C 	60.61993737409071	26.888502984757636	2.15
C 	60.90061079742907	28.280488052720482	2.15
C 	62.246441939642686	28.733410271923734	2.15
C 	62.52711536298104	30.12539533988658	2.15
C 	63.87294650519466	30.578317559089832	2.15
C 	64.15361992853302	31.970302627052682	2.15
C 	65.49945107074663	32.42322484625595	2.15
C 	65.78012449408499	33.81520991421879	2.15
C 	67.1259556362986	34.26813213342205	2.15
C 	67.40662905963696	35.66011720138489	2.15
C 	68.75246020185057	36.113039420588144	2.15
C 	69.03313362518892	37.505024488550994	2.15
C 	70.37896476740255	37.95794670775426	2.15
C 	70.6596381907409	39.34993177571711	2.15
C 	72.0054693329545	39.80285399492036	2.15
C 	72.28614275629288	41.19483906288321	2.15
C 	73.63197389850649	41.64776128208646	2.15
C 	73.91264732184484	43.039746350049306	2.15
C 	32.465548887508675	-0.7518879123808658	2.15
C 	33.81138002972229	-0.2989656931776063	2.15
C 	34.09205345306064	1.093019374785237	2.15
C 	35.437884595274255	1.5459415939884973	2.15
C 	35.71855801861262	2.9379266619513404	2.15
C 	37.064389160826224	3.3908488811546054	2.15
C 	37.34506258416458	4.782833949117449	2.15
C 	38.69089372637819	5.235756168320704	2.15
C 	38.971567149716556	6.627741236283548	2.15
C 	40.31739829193017	7.08066345548681	2.15
C 	40.598071715268524	8.472648523449655	2.15
C 	41.94390285748214	8.92557074265291	2.15
C 	42.2245762808205	10.317555810615755	2.15
C 	43.570407423034105	10.770478029819017	2.15
C 	43.85108084637247	12.162463097781862	2.15
C 	45.19691198858608	12.615385316985124	2.15
C 	45.47758541192444	14.007370384947967	2.15
C 	46.82341655413805	14.460292604151224	2.15
C 	47.10408997747641	15.852277672114067	2.15
C 	48.44992111969003	16.30519989131733	2.15
C 	48.73059454302839	17.69718495928017	2.15
C 	50.076425685242	18.150107178483438	2.15
C 	50.35709910858036	19.54209224644628	2.15
C 	51.70293025079396	19.99501446564954	2.15
C 	51.98360367413232	21.386999533612382	2.15
C 	53.32943481634594	21.839921752815645	2.15
C 	53.610108239684294	23.231906820778487	2.15
C 	54.955939381897906	23.684829039981746	2.15
C 	55.23661280523627	25.076814107944593	2.15
C 	56.582443947449875	25.529736327147848	2.15
C 	56.86311737078823	26.921721395110694	2.15
C 	58.20894851300185	27.37464361431396	2.15
C 	58.48962193634021	28.766628682276803	2.15
C 	59.83545307855382	29.219550901480062	2.15
C 	60.116126501892175	30.611535969442908	2.15
C 	61.461957644105794	31.06445818864616	2.15
C 	61.74263106744415	32.456443256609006	2.15
C 	63.08846220965777	32.90936547581226	2.15
C 	63.36913563299613	34.30135054377511	2.15
C 	64.71496677520973	34.754272762978374	2.15
C 	64.99564019854809	36.146257830941224	2.15
C 	66.3414713407617	36.599180050144476	2.15
C 	66.62214476410006	37.99116511810732	2.15
C 	67.96797590631367	38.44408733731057	2.15
C 	68.24864932965204	39.83607240527342	2.15
C 	69.59448047186565	40.288994624476686	2.15
C 	69.87515389520402	41.680979692439536	2.15
C 	71.22098503741762	42.13390191164279	2.15
C 	71.50165846075598	43.52588697960564	2.15
C 	72.84748960296959	43.97880919880889	2.15
C 	73.12816302630794	45.37079426677173	2.15
C 	30.054560026419807	-0.2657472828245398	2.15
C 	31.40039116863342	0.18717493637872146	2.15
C 	31.681064591971776	1.5791600043415681	2.15
C 	33.02689573418539	2.0320822235448244	2.15
C 	33.30756915752375	3.424067291507671	2.15
C 	34.653400299737356	3.876989510710928	2.15
C 	34.93407372307571	5.268974578673775	2.15
C 	36.27990486528934	5.721896797877034	2.15
C 	36.560578288627696	7.113881865839881	2.15
C 	37.9064094308413	7.566804085043135	2.15
C 	38.18708285417966	8.958789153005982	2.15
C 	39.532913996393276	9.411711372209242	2.15
C 	39.81358741973163	10.803696440172088	2.15
C 	41.15941856194524	11.256618659375341	2.15
C 	41.4400919852836	12.648603727338187	2.15
C 	42.78592312749722	13.101525946541447	2.15
C 	43.06659655083558	14.493511014504294	2.15
C 	44.41242769304918	14.946433233707555	2.15
C 	44.693101116387545	16.3384183016704	2.15
C 	46.03893225860116	16.791340520873653	2.15
C 	46.319605681939514	18.1833255888365	2.15
C 	47.66543682415313	18.63624780803976	2.15
C 	47.94611024749149	20.02823287600261	2.15
C 	49.2919413897051	20.481155095205867	2.15
C 	49.572614813043465	21.873140163168713	2.15
C 	50.91844595525708	22.326062382371965	2.15
C 	51.199119378595434	23.718047450334815	2.15
C 	52.54495052080904	24.170969669538074	2.15
C 	52.8256239441474	25.56295473750092	2.15
C 	54.171455086361014	26.015876956704183	2.15
C 	54.45212850969937	27.40786202466703	2.15
C 	55.797959651912976	27.86078424387028	2.15
C 	56.07863307525134	29.252769311833127	2.15
C 	57.42446421746496	29.705691531036386	2.15
C 	57.705137640803315	31.097676598999232	2.15
C 	59.05096878301693	31.550598818202495	2.15
C 	59.33164220635528	32.942583886165345	2.15
C 	60.677473348568896	33.3955061053686	2.15
C 	60.95814677190726	34.78749117333144	2.15
C 	62.30397791412087	35.24041339253469	2.15
C 	62.58465133745923	36.63239846049754	2.15
C 	63.93048247967284	37.08532067970081	2.15
C 	64.2111559030112	38.47730574766366	2.15
C 	65.55698704522482	38.93022796686691	2.15
C 	65.83766046856317	40.32221303482975	2.15
C 	67.18349161077678	40.775135254033	2.15
C 	67.46416503411514	42.16712032199585	2.15
C 	68.80999617632875	42.62004254119912	2.15
C 	69.09066959966711	44.01202760916197	2.15
C 	70.43650074188072	44.46494982836522	2.15
C 	70.71717416521909	45.85693489632807	2.15
C 	72.0630053074327	46.30985711553132	2.15
C 	27.643571165330943	0.22039334673179053	2.15
C 	28.989402307544555	0.6733155659350484	2.15
C 	29.270075730882912	2.065300633897895	2.15
C 	30.615906873096527	2.5182228531011535	2.15
C 	30.896580296434887	3.9102079210640004	2.15
C 	32.242411438648496	4.363130140267258	2.15
C 	32.52308486198685	5.755115208230105	2.15
C 	33.86891600420047	6.208037427433361	2.15
C 	34.14958942753883	7.600022495396208	2.15
C 	35.49542056975243	8.052944714599468	2.15
C 	35.7760939930908	9.444929782562316	2.15
C 	37.121925135304416	9.897852001765568	2.15
C 	37.40259855864277	11.289837069728414	2.15
C 	38.74842970085638	11.742759288931675	2.15
C 	39.02910312419474	13.134744356894522	2.15
C 	40.37493426640835	13.587666576097774	2.15
C 	40.65560768974671	14.97965164406062	2.15
C 	42.001438831960314	15.432573863263881	2.15
C 	42.28211225529868	16.82455893122673	2.15
C 	43.6279433975123	17.27748115042999	2.15
C 	43.90861682085066	18.669466218392834	2.15
C 	45.254447963064266	19.122388437596086	2.15
C 	45.53512138640262	20.514373505558936	2.15
C 	46.880952528616234	20.967295724762195	2.15
C 	47.1616259519546	22.35928079272504	2.15
C 	48.50745709416821	22.8122030119283	2.15
C 	48.788130517506566	24.204188079891146	2.15
C 	50.13396165972018	24.657110299094402	2.15
C 	50.41463508305854	26.049095367057248	2.15
C 	51.76046622527215	26.50201758626051	2.15
C 	52.0411396486105	27.894002654223357	2.15
C 	53.38697079082412	28.346924873426616	2.15
C 	53.66764421416248	29.738909941389462	2.15
C 	55.013475356376084	30.191832160592714	2.15
C 	55.29414877971444	31.58381722855556	2.15
C 	56.63997992192806	32.03673944775882	2.15
C 	56.920653345266416	33.42872451572167	2.15
C 	58.26648448748003	33.88164673492493	2.15
C 	58.54715791081839	35.27363180288778	2.15
C 	59.892989053032004	35.72655402209103	2.15
C 	60.17366247637036	37.11853909005387	2.15
C 	61.51949361858397	37.571461309257124	2.15
C 	61.800167041922336	38.963446377219974	2.15
C 	63.14599818413594	39.41636859642324	2.15
C 	63.426671607474304	40.80835366438609	2.15
C 	64.77250274968792	41.26127588358934	2.15
C 	65.05317617302629	42.65326095155219	2.15
C 	66.39900731523988	43.10618317075544	2.15
C 	66.67968073857824	44.498168238718286	2.15
C 	68.02551188079185	44.95109045792155	2.15
C 	68.30618530413022	46.3430755258844	2.15
C 	69.65201644634382	46.795997745087654	2.15
C 	25.232582304242076	0.7065339762881139	2.15
C 	26.57841344645569	1.1594561954913742	2.15
C 	26.859086869794048	2.5514412634542176	2.15
C 	28.204918012007663	3.004363482657477	2.15
C 	28.48559143534602	4.396348550620321	2.15
C 	29.831422577559632	4.849270769823585	2.15
C 	30.112096000897992	6.2412558377864285	2.15
C 	31.457927143111604	6.694178056989687	2.15
C 	31.738600566449964	8.08616312495253	2.15
C 	33.08443170866357	8.539085344155792	2.15
C 	33.36510513200193	9.931070412118634	2.15
C 	34.71093627421555	10.383992631321897	2.15
C 	34.991609697553905	11.775977699284741	2.15
C 	36.33744083976751	12.228899918487997	2.15
C 	36.61811426310587	13.620884986450841	2.15
C 	37.96394540531949	14.073807205654104	2.15
C 	38.24461882865785	15.465792273616946	2.15
C 	39.590449970871454	15.918714492820206	2.15
C 	39.87112339420982	17.31069956078305	2.15
C 	41.21695453642343	17.763621779986313	2.15
C 	41.497627959761786	19.155606847949155	2.15
C 	42.8434591019754	19.608529067152418	2.15
C 	43.124132525313755	21.00051413511526	2.15
C 	44.469963667527374	21.453436354318516	2.15
C 	44.75063709086573	22.845421422281362	2.15
C 	46.09646823307935	23.298343641484625	2.15
C 	46.377141656417706	24.690328709447467	2.15
C 	47.72297279863131	25.143250928650726	2.15
C 	48.003646221969674	26.535235996613572	2.15
C 	49.34947736418329	26.988158215816828	2.15
C 	49.63015078752164	28.380143283779674	2.15
C 	50.97598192973526	28.83306550298294	2.15
C 	51.25665535307362	30.225050570945783	2.15
C 	52.60248649528723	30.67797279014904	2.15
C 	52.88315991862559	32.069957858111884	2.15
C 	54.2289910608392	32.52288007731514	2.15
C 	54.509664484177556	33.914865145277986	2.15
C 	55.85549562639117	34.36778736448125	2.15
C 	56.13616904972953	35.759772432444095	2.15
C 	57.482000191943136	36.212694651647354	2.15
C 	57.76267361528149	37.6046797196102	2.15
C 	59.10850475749511	38.057601938813455	2.15
C 	59.389178180833476	39.4495870067763	2.15
C 	60.73500932304709	39.90250922597955	2.15
C 	61.015682746385444	41.2944942939424	2.15
C 	62.361513888599056	41.747416513145666	2.15
C 	62.64218731193741	43.139401581108515	2.15
C 	63.988018454151025	43.59232380031177	2.15
C 	64.26869187748939	44.98430886827461	2.15
C 	65.614523019703	45.43723108747787	2.15
C 	21.195088877601243	-0.6522326813216646	2.15
C 	22.540920019814855	-0.19931046211840592	2.15
C 	22.821593443153215	1.192674605844439	2.15
C 	24.167424585366827	1.645596825047701	2.15
C 	24.448098008705184	3.0375818930105463	2.15
C 	25.7939291509188	3.490504112213804	2.15
C 	26.074602574257156	4.882489180176649	2.15
C 	27.420433716470768	5.3354113993799075	2.15
C 	27.701107139809128	6.727396467342753	2.15
C 	29.04693828202274	7.180318686546014	2.15
C 	29.3276117053611	8.572303754508859	2.15
C 	30.67344284757471	9.025225973712118	2.15
C 	30.95411627091307	10.417211041674962	2.15
C 	32.29994741312668	10.87013326087822	2.15
C 	32.580620836465044	12.262118328841067	2.15
C 	33.92645197867865	12.715040548044328	2.15
C 	34.20712540201701	14.107025616007174	2.15
C 	35.552956544230625	14.559947835210426	2.15
C 	35.83362996756898	15.951932903173274	2.15
C 	37.17946110978259	16.404855122376535	2.15
C 	37.46013453312095	17.79684019033938	2.15
C 	38.80596567533457	18.249762409542633	2.15
C 	39.086639098672926	19.64174747750548	2.15
C 	40.43247024088654	20.094669696708742	2.15
C 	40.713143664224894	21.486654764671588	2.15
C 	42.058974806438506	21.939576983874847	2.15
C 	42.33964822977687	23.331562051837693	2.15
C 	43.685479371990475	23.78448427104095	2.15
C 	43.96615279532883	25.176469339003795	2.15
C 	45.31198393754245	25.629391558207054	2.15
C 	45.592657360880814	27.0213766261699	2.15
C 	46.938488503094426	27.474298845373163	2.15
C 	47.21916192643278	28.86628391333601	2.15
C 	48.56499306864639	29.31920613253926	2.15
C 	48.84566649198475	30.711191200502107	2.15
C 	50.191497634198356	31.16411341970537	2.15
C 	50.47217105753671	32.556098487668216	2.15
C 	51.81800219975034	33.009020706871475	2.15
C 	52.098675623088695	34.401005774834324	2.15
C 	53.4445067653023	34.853927994037576	2.15
C 	53.725180188640664	36.24591306200042	2.15
C 	55.071011330854276	36.698835281203685	2.15
C 	55.35168475419263	38.09082034916653	2.15
C 	56.69751589640624	38.54374256836979	2.15
C 	56.9781893197446	39.935727636332636	2.15
C 	58.32402046195821	40.38864985553589	2.15
C 	58.60469388529657	41.78063492349873	2.15
C 	59.95052502751019	42.23355714270198	2.15
C 	60.23119845084855	43.62554221066483	2.15
C 	61.57702959306216	44.0784644298681	2.15
C 	61.85770301640052	45.47044949783095	2.15
C 	63.20353415861413	45.9233717170342	2.15
C 	18.78410001651238	-0.1660920517653377	2.15
C 	20.12993115872599	0.2868301674379205	2.15
C 	20.41060458206435	1.6788152354007655	2.15
C 	21.75643572427796	2.1317374546040235	2.15
C 	22.03710914761632	3.5237225225668687	2.15
C 	23.382940289829936	3.976644741770131	2.15
C 	23.663613713168292	5.368629809732976	2.15
C 	25.009444855381904	5.821552028936234	2.15
C 	25.290118278720264	7.2135370968990795	2.15
C 	26.635949420933876	7.666459316102337	2.15
C 	26.916622844272236	9.058444384065183	2.15
C 	28.262453986485845	9.511366603268444	2.15
C 	28.543127409824205	10.903351671231288	2.15
C 	29.888958552037817	11.356273890434547	2.15
C 	30.169631975376177	12.748258958397393	2.15
C 	31.515463117589785	13.20118117760065	2.15
C 	31.796136540928146	14.593166245563495	2.15
C 	33.14196768314176	15.046088464766756	2.15
C 	33.42264110648012	16.4380735327296	2.15
C 	34.768472248693726	16.89099575193286	2.15
C 	35.04914567203209	18.282980819895702	2.15
C 	36.3949768142457	18.735903039098964	2.15
C 	36.67565023758406	20.127888107061807	2.15
C 	38.02148137979766	20.580810326265063	2.15
C 	38.30215480313603	21.97279539422791	2.15
C 	39.647985945349646	22.42571761343117	2.15
C 	39.928659368688	23.817702681394014	2.15
C 	41.274490510901614	24.270624900597277	2.15
C 	41.55516393423997	25.662609968560123	2.15
C 	42.90099507645358	26.11553218776338	2.15
C 	43.18166849979195	27.50751725572622	2.15
C 	44.52749964200556	27.96043947492948	2.15
C 	44.808173065343915	29.352424542892326	2.15
C 	46.154004207557534	29.805346762095596	2.15
C 	46.43467763089589	31.197331830058435	2.15
C 	47.7805087731095	31.650254049261694	2.15
C 	48.06118219644786	33.04223911722453	2.15
C 	49.40701333866147	33.49516133642779	2.15
C 	49.68768676199983	34.88714640439064	2.15
C 	51.03351790421344	35.34006862359391	2.15
C 	51.314191327551804	36.73205369155674	2.15
C 	52.660022469765416	37.18497591076001	2.15
C 	52.94069589310377	38.576960978722845	2.15
C 	54.286527035317384	39.029883197926104	2.15
C 	54.56720045865575	40.42186826588895	2.15
C 	55.91303160086935	40.87479048509222	2.15
C 	56.19370502420771	42.26677555305506	2.15
C 	57.53953616642133	42.71969777225832	2.15
C 	57.820209589759685	44.111682840221164	2.15
C 	59.1660407319733	44.56460505942442	2.15
C 	59.44671415531165	45.95659012738726	2.15
C 	60.79254529752527	46.40951234659053	2.15
C 	16.373111155423516	0.3200485777909905	2.15
C 	17.718942297637128	0.7729707969942486	2.15
C 	17.999615720975488	2.1649558649570935	2.15
C 	19.345446863189096	2.617878084160352	2.15
C 	19.626120286527456	4.009863152123197	2.15
C 	20.97195142874107	4.462785371326455	2.15
C 	21.25262485207943	5.8547704392893	2.15
C 	22.59845599429304	6.307692658492562	2.15
C 	22.8791294176314	7.699677726455407	2.15
C 	24.224960559845016	8.152599945658665	2.15
C 	24.505633983183376	9.544585013621509	2.15
C 	25.85146512539698	9.99750723282477	2.15
C 	26.13213854873534	11.389492300787614	2.15
C 	27.477969690948953	11.842414519990873	2.15
C 	27.758643114287313	13.234399587953721	2.15
C 	29.104474256500925	13.68732180715698	2.15
C 	29.38514767983928	15.079306875119824	2.15
C 	30.730978822052897	15.53222909432308	2.15
C 	31.011652245391254	16.924214162285928	2.15
C 	32.357483387604866	17.377136381489187	2.15
C 	32.63815681094322	18.769121449452033	2.15
C 	33.983987953156834	19.222043668655285	2.15
C 	34.2646613764952	20.614028736618135	2.15
C 	35.61049251870881	21.066950955821394	2.15
C 	35.89116594204717	22.45893602378424	2.15
C 	37.23699708426078	22.911858242987492	2.15
C 	37.517670507599135	24.30384331095034	2.15
C 	38.86350164981275	24.7567655301536	2.15
C 	39.144175073151104	26.148750598116447	2.15
C 	40.49000621536472	26.601672817319706	2.15
C 	40.770679638703086	27.993657885282552	2.15
C 	42.11651078091669	28.446580104485808	2.15
C 	42.39718420425505	29.838565172448654	2.15
C 	43.74301534646866	30.291487391651913	2.15
C 	44.02368876980702	31.683472459614762	2.15
C 	45.369519912020635	32.13639467881802	2.15
C 	45.65019333535899	33.528379746780864	2.15
C 	46.99602447757261	33.98130196598412	2.15
C 	47.27669790091097	35.373287033946966	2.15
C 	48.62252904312457	35.826209253150225	2.15
C 	48.903202466462936	37.218194321113074	2.15
C 	50.24903360867655	37.67111654031633	2.15
C 	50.529707032014905	39.06310160827918	2.15
C 	51.87553817422851	39.516023827482435	2.15
C 	52.15621159756687	40.908008895445285	2.15
C 	53.50204273978049	41.360931114648544	2.15
C 	53.78271616311885	42.752916182611386	2.15
C 	55.12854730533246	43.205838401814646	2.15
C 	55.40922072867082	44.597823469777495	2.15
C 	56.75505187088443	45.05074568898075	2.15
C 	57.035725294222786	46.4427307569436	2.15
C 	58.381556436436405	46.89565297614685	2.15
C 	13.962122294334652	0.8061892073473169	2.15
C 	15.307953436548264	1.2591114265505767	2.15
C 	15.588626859886622	2.6510964945134217	2.15
C 	16.934458002100236	3.1040187137166804	2.15
C 	17.215131425438592	4.4960037816795255	2.15
C 	18.560962567652208	4.948926000882784	2.15
C 	18.841635990990564	6.340911068845629	2.15
C 	20.187467133204176	6.793833288048887	2.15
C 	20.468140556542537	8.185818356011731	2.15
C 	21.81397169875615	8.638740575214994	2.15
C 	22.09464512209451	10.030725643177838	2.15
C 	23.440476264308117	10.483647862381098	2.15
C 	23.721149687646477	11.87563293034394	2.15
C 	25.06698082986009	12.328555149547201	2.15
C 	25.34765425319845	13.720540217510047	2.15
C 	26.69348539541206	14.173462436713308	2.15
C 	26.974158818750418	15.565447504676154	2.15
C 	28.31998996096403	16.01836972387941	2.15
C 	28.600663384302386	17.410354791842252	2.15
C 	29.946494526516002	17.863277011045515	2.15
C 	30.227167949854362	19.25526207900836	2.15
C 	31.57299909206797	19.70818429821162	2.15
C 	31.85367251540633	21.10016936617447	2.15
C 	33.19950365761994	21.55309158537772	2.15
C 	33.4801770809583	22.945076653340568	2.15
C 	34.82600822317191	23.397998872543827	2.15
C 	35.106681646510275	24.789983940506673	2.15
C 	36.45251278872389	25.24290615970993	2.15
C 	36.73318621206224	26.634891227672775	2.15
C 	38.079017354275855	27.087813446876034	2.15
C 	38.35969077761421	28.47979851483888	2.15
C 	39.705521919827824	28.932720734042142	2.15
C 	39.98619534316618	30.32470580200499	2.15
C 	41.3320264853798	30.77762802120824	2.15
C 	41.61269990871816	32.16961308917109	2.15
C 	42.958531050931775	32.622535308374346	2.15
C 	43.23920447427013	34.014520376337195	2.15
C 	44.585035616483744	34.467442595540454	2.15
C 	44.8657090398221	35.859427663503304	2.15
C 	46.21154018203571	36.312349882706556	2.15
C 	46.492213605374076	37.7043349506694	2.15
C 	47.83804474758769	38.15725716987266	2.15
C 	48.118718170926044	39.54924223783551	2.15
C 	49.464549313139656	40.002164457038766	2.15
C 	49.74522273647802	41.394149525001616	2.15
C 	51.091053878691625	41.84707174420487	2.15
C 	51.37172730202998	43.23905681216771	2.15
C 	52.7175584442436	43.69197903137097	2.15
C 	52.99823186758196	45.08396409933382	2.15
C 	54.34406300979557	45.53688631853708	2.15
C 	9.924628867693817	-0.5525774502624614	2.15
C 	11.270460009907428	-0.09965523105920296	2.15
C 	11.551133433245788	1.292329836903642	2.15
C 	12.8969645754594	1.745252056106902	2.15
C 	13.177637998797758	3.1372371240697468	2.15
C 	14.52346914101137	3.590159343273007	2.15
C 	14.80414256434973	4.9821444112358515	2.15
C 	16.14997370656334	5.43506663043911	2.15
C 	16.4306471299017	6.827051698401955	2.15
C 	17.776478272115313	7.279973917605213	2.15
C 	18.057151695453673	8.67195898556806	2.15
C 	19.402982837667285	9.124881204771317	2.15
C 	19.683656261005645	10.516866272734163	2.15
C 	21.029487403219253	10.969788491937424	2.15
C 	21.310160826557613	12.361773559900268	2.15
C 	22.655991968771225	12.814695779103527	2.15
C 	22.936665392109585	14.206680847066373	2.15
C 	24.282496534323194	14.65960306626963	2.15
C 	24.563169957661554	16.051588134232475	2.15
C 	25.90900109987517	16.504510353435737	2.15
C 	26.189674523213526	17.89649542139858	2.15
C 	27.535505665427138	18.349417640601843	2.15
C 	27.816179088765498	19.74140270856469	2.15
C 	29.162010230979106	20.194324927767944	2.15
C 	29.442683654317467	21.586309995730787	2.15
C 	30.78851479653108	22.03923221493405	2.15
C 	31.06918821986944	23.431217282896895	2.15
C 	32.41501936208305	23.88413950210015	2.15
C 	32.69569278542141	25.276124570062994	2.15
C 	34.04152392763502	25.729046789266256	2.15
C 	34.32219735097338	27.121031857229102	2.15
C 	35.66802849318699	27.57395407643236	2.15
C 	35.94870191652535	28.9659391443952	2.15
C 	37.29453305873896	29.41886136359846	2.15
C 	37.57520648207732	30.81084643156131	2.15
C 	38.92103762429093	31.263768650764575	2.15
C 	39.20171104762929	32.65575371872742	2.15
C 	40.5475421898429	33.10867593793068	2.15
C 	40.82821561318126	34.50066100589351	2.15
C 	42.17404675539488	34.95358322509677	2.15
C 	42.45472017873324	36.34556829305962	2.15
C 	43.80055132094685	36.79849051226289	2.15
C 	44.081224744285215	38.19047558022572	2.15
C 	45.42705588649882	38.64339779942899	2.15
C 	45.70772930983718	40.035382867391824	2.15
C 	47.05356045205078	40.48830508659509	2.15
C 	47.334233875389145	41.88029015455793	2.15
C 	48.680065017602764	42.3332123737612	2.15
C 	48.96073844094112	43.72519744172404	2.15
C 	50.30656958315473	44.1781196609273	2.15
C 	50.58724300649309	45.57010472889014	2.15
C 	51.9330741487067	46.0230269480934	2.15
C 	7.513640006604952	-0.06643682070613495	2.15
C 	8.859471148818564	0.3864853984971243	2.15
C 	9.140144572156924	1.7784704664599693	2.15
C 	10.485975714370536	2.2313926856632276	2.15
C 	10.766649137708894	3.6233777536260727	2.15
C 	12.112480279922508	4.076299972829332	2.15
C 	12.393153703260868	5.4682850407921775	2.15
C 	13.738984845474477	5.921207259995437	2.15
C 	14.019658268812837	7.313192327958284	2.15
C 	15.365489411026449	7.76611454716154	2.15
C 	15.646162834364807	9.158099615124387	2.15
C 	16.991993976578417	9.611021834327643	2.15
C 	17.272667399916777	11.00300690229049	2.15
C 	18.61849854213039	11.455929121493746	2.15
C 	18.89917196546875	12.847914189456594	2.15
C 	20.24500310768236	13.300836408659853	2.15
C 	20.52567653102072	14.6928214766227	2.15
C 	21.87150767323433	15.145743695825956	2.15
C 	22.15218109657269	16.537728763788802	2.15
C 	23.498012238786306	16.99065098299206	2.15
C 	23.778685662124662	18.382636050954908	2.15
C 	25.124516804338274	18.835558270158167	2.15
C 	25.405190227676634	20.227543338121013	2.15
C 	26.751021369890246	20.680465557324272	2.15
C 	27.031694793228606	22.072450625287118	2.15
C 	28.377525935442215	22.525372844490374	2.15
C 	28.658199358780575	23.91735791245322	2.15
C 	30.004030500994183	24.37028013165648	2.15
C 	30.284703924332543	25.76226519961933	2.15
C 	31.630535066546155	26.21518741882258	2.15
C 	31.911208489884515	27.607172486785426	2.15
C 	33.25703963209813	28.06009470598869	2.15
C 	33.537713055436484	29.452079773951535	2.15
C 	34.883544197650096	29.905001993154787	2.15
C 	35.16421762098846	31.296987061117633	2.15
C 	36.510048763202064	31.749909280320892	2.15
C 	36.79072218654043	33.14189434828374	2.15
C 	38.13655332875404	33.594816567487	2.15
C 	38.4172267520924	34.98680163544985	2.15
C 	39.76305789430601	35.4397238546531	2.15
C 	40.043731317644365	36.831708922615945	2.15
C 	41.389562459857984	37.284631141819204	2.15
C 	41.67023588319635	38.676616209782054	2.15
C 	43.01606702540996	39.12953842898531	2.15
C 	43.29674044874832	40.52152349694816	2.15
C 	44.64257159096193	40.974445716151415	2.15
C 	44.92324501430029	42.36643078411426	2.15
C 	46.2690761565139	42.819353003317524	2.15
C 	46.549749579852254	44.211338071280366	2.15
C 	47.89558072206587	44.664260290483625	2.15
C 	48.17625414540423	46.056245358446475	2.15
C 	49.52208528761784	46.50916757764973	2.15
C 	5.102651145516088	0.4197038088501918	2.15
C 	6.4484822877297	0.872626028053451	2.15
C 	6.729155711068059	2.2646110960162957	2.15
C 	8.07498685328167	2.717533315219555	2.15
C 	8.35566027662003	4.1095183831824	2.15
C 	9.701491418833642	4.562440602385658	2.15
C 	9.982164842172	5.9544256703485035	2.15
C 	11.327995984385613	6.4073478895517635	2.15
C 	11.608669407723973	7.799332957514609	2.15
C 	12.954500549937585	8.252255176717869	2.15
C 	13.235173973275943	9.644240244680713	2.15
C 	14.581005115489553	10.097162463883972	2.15
C 	14.861678538827912	11.489147531846816	2.15
C 	16.207509681041525	11.942069751050076	2.15
C 	16.488183104379882	13.33405481901292	2.15
C 	17.834014246593494	13.78697703821618	2.15
C 	18.114687669931854	15.178962106179023	2.15
C 	19.460518812145466	15.631884325382288	2.15
C 	19.741192235483826	17.02386939334513	2.15
C 	21.08702337769744	17.476791612548386	2.15
C 	21.367696801035798	18.868776680511232	2.15
C 	22.71352794324941	19.321698899714495	2.15
C 	22.99420136658777	20.713683967677337	2.15
C 	24.340032508801382	21.1666061868806	2.15
C 	24.620705932139742	22.558591254843442	2.15
C 	25.96653707435335	23.0115134740467	2.15
C 	26.24721049769171	24.403498542009547	2.15
C 	27.593041639905323	24.856420761212807	2.15
C 	27.873715063243683	26.24840582917565	2.15
C 	29.219546205457295	26.701328048378915	2.15
C 	29.500219628795655	28.09331311634176	2.15
C 	30.846050771009264	28.546235335545013	2.15
C 	31.12672419434762	29.93822040350786	2.15
C 	32.472555336561236	30.391142622711122	2.15
C 	32.75322875989959	31.78312769067396	2.15
C 	34.099059902113204	32.236049909877224	2.15
C 	34.37973332545156	33.62803497784006	2.15
C 	35.72556446766518	34.080957197043325	2.15
C 	36.006237891003536	35.472942265006175	2.15
C 	37.35206903321715	35.925864484209434	2.15
C 	37.632742456555505	37.31784955217228	2.15
C 	38.97857359876912	37.770771771375536	2.15
C 	39.25924702210747	39.16275683933837	2.15
C 	40.60507816432109	39.61567905854164	2.15
C 	40.88575158765945	41.00766412650449	2.15
C 	42.23158272987306	41.460586345707746	2.15
C 	42.512256153211425	42.85257141367059	2.15
C 	43.85808729542504	43.30549363287385	2.15
C 	44.13876071876339	44.69747870083668	2.15
C 	45.484591860977005	45.15040092003996	2.15
C 	2.4109888610888643	-0.4861406295563266	2.15
C 	2.6916622844272236	0.9058444384065184	2.15
C 	4.037493426640835	1.3587666576097774	2.15
C 	4.318166849979194	2.7507517255726226	2.15
C 	5.663997992192806	3.2036739447758817	2.15
C 	5.9446714155311655	4.595659012738727	2.15
C 	7.290502557744777	5.048581231941986	2.15
C 	7.571175981083136	6.440566299904831	2.15
C 	8.917007123296747	6.89348851910809	2.15
C 	9.197680546635107	8.285473587070934	2.15
C 	10.54351168884872	8.738395806274193	2.15
C 	10.82418511218708	10.13038087423704	2.15
C 	12.170016254400691	10.5833030934403	2.15
C 	12.45068967773905	11.975288161403144	2.15
C 	13.796520819952661	12.428210380606403	2.15
C 	14.077194243291022	13.820195448569248	2.15
C 	15.423025385504632	14.273117667772507	2.15
C 	15.70369880884299	15.66510273573535	2.15
C 	17.049529951056602	16.118024954938612	2.15
C 	17.330203374394962	17.510010022901454	2.15
C 	18.676034516608574	17.962932242104717	2.15
C 	18.95670793994693	19.35491731006756	2.15
C 	20.302539082160546	19.80783952927082	2.15
C 	20.583212505498906	21.199824597233665	2.15
C 	21.92904364771252	21.652746816436924	2.15
C 	22.20971707105088	23.044731884399766	2.15
C 	23.555548213264487	23.49765410360303	2.15
C 	23.836221636602847	24.889639171565875	2.15
C 	25.18205277881646	25.342561390769134	2.15
C 	25.46272620215482	26.734546458731977	2.15
C 	26.808557344368428	27.187468677935236	2.15
C 	27.089230767706788	28.57945374589808	2.15
C 	28.435061909920403	29.03237596510134	2.15
C 	28.71573533325876	30.424361033064187	2.15
C 	30.061566475472368	30.87728325226744	2.15
C 	30.34223989881073	32.26926832023029	2.15
C 	31.68807104102434	32.72219053943355	2.15
C 	31.9687444643627	34.11417560739639	2.15
C 	33.31457560657631	34.56709782659965	2.15
C 	33.59524902991467	35.95908289456249	2.15
C 	34.94108017212828	36.41200511376575	2.15
C 	35.22175359546664	37.8039901817286	2.15
C 	36.56758473768026	38.25691240093186	2.15
C 	36.84825816101861	39.64889746889471	2.15
C 	38.194089303232225	40.10181968809796	2.15
C 	38.47476272657058	41.493804756060804	2.15
C 	39.8205938687842	41.94672697526406	2.15
C 	40.10126729212256	43.33871204322691	2.15
C 	41.44709843433617	43.79163426243017	2.15
C 	41.727771857674526	45.18361933039302	2.15
C 	43.07360299988814	45.636541549596274	2.15
C 	1.6265045655519712	1.844907287166104	2.15
C 	1.9071779888903304	3.236892355128949	2.15
C 	3.2530091311039424	3.689814574332208	2.15
C 	3.5336825544423016	5.081799642295053	2.15
C 	4.879513696655913	5.534721861498312	2.15
C 	5.160187119994273	6.926706929461157	2.15
C 	6.506018262207885	7.379629148664416	2.15
C 	6.786691685546244	8.771614216627261	2.15
C 	8.132522827759855	9.22453643583052	2.15
C 	8.413196251098213	10.616521503793365	2.15
C 	9.759027393311825	11.069443722996624	2.15
C 	10.039700816650186	12.46142879095947	2.15
C 	11.385531958863798	12.91435101016273	2.15
C 	11.666205382202158	14.306336078125574	2.15
C 	13.01203652441577	14.759258297328833	2.15
C 	13.292709947754128	16.15124336529168	2.15
C 	14.63854108996774	16.604165584494936	2.15
C 	14.919214513306098	17.99615065245778	2.15
C 	16.26504565551971	18.44907287166104	2.15
C 	16.545719078858067	19.841057939623887	2.15
C 	17.89155022107168	20.293980158827146	2.15
C 	18.17222364441004	21.685965226789992	2.15
C 	19.51805478662365	22.138887445993248	2.15
C 	19.79872820996201	23.530872513956094	2.15
C 	21.144559352175623	23.983794733159353	2.15
C 	21.425232775513983	25.3757798011222	2.15
C 	22.771063917727595	25.82870202032546	2.15
C 	23.051737341065955	27.220687088288308	2.15
C 	24.397568483279564	27.673609307491564	2.15
C 	24.678241906617924	29.065594375454406	2.15
C 	26.02407304883154	29.518516594657665	2.15
C 	26.304746472169896	30.910501662620515	2.15
C 	27.650577614383508	31.363423881823774	2.15
C 	27.931251037721868	32.75540894978662	2.15
C 	29.27708217993548	33.20833116898987	2.15
C 	29.55775560327384	34.60031623695272	2.15
C 	30.90358674548745	35.05323845615598	2.15
C 	31.18426016882581	36.44522352411883	2.15
C 	32.53009131103942	36.89814574332208	2.15
C 	32.81076473437778	38.290130811284925	2.15
C 	34.15659587659139	38.743053030488184	2.15
C 	34.43726929992975	40.135038098451034	2.15
C 	35.78310044214336	40.58796031765429	2.15
C 	36.06377386548172	41.97994538561714	2.15
C 	37.40960500769533	42.432867604820395	2.15
C 	37.69027843103369	43.824852672783244	2.15
C 	39.0361095732473	44.277774891986496	2.15
C 	39.316782996585665	45.669759959949346	2.15
C 	40.66261413879928	46.122682179152605	2.15
C 	5.721533966670991	9.710677065386847	2.15
C 	6.00220739000935	11.102662133349693	2.15
C 	7.3480385322229615	11.55558435255295	2.15
C 	7.628711955561322	12.947569420515796	2.15
C 	8.974543097774934	13.400491639719057	2.15
C 	9.255216521113292	14.7924767076819	2.15
C 	10.601047663326904	15.24539892688516	2.15
C 	10.881721086665264	16.63738399484801	2.15
C 	12.227552228878876	17.090306214051264	2.15
C 	12.508225652217236	18.48229128201411	2.15
C 	13.854056794430846	18.935213501217365	2.15
C 	14.134730217769206	20.32719856918021	2.15
C 	15.480561359982817	20.78012078838347	2.15
C 	15.761234783321177	22.172105856346317	2.15
C 	17.107065925534787	22.625028075549576	2.15
C 	17.387739348873147	24.017013143512422	2.15
C 	18.73357049108676	24.46993536271568	2.15
C 	19.01424391442512	25.861920430678527	2.15
C 	20.36007505663873	26.314842649881783	2.15
C 	20.64074847997709	27.70682771784463	2.15
C 	21.9865796221907	28.15974993704789	2.15
C 	22.26725304552906	29.551735005010734	2.15
C 	23.613084187742675	30.004657224213993	2.15
C 	23.893757611081032	31.39664229217684	2.15
C 	25.239588753294644	31.849564511380102	2.15
C 	25.520262176633	33.24154957934294	2.15
C 	26.866093318846616	33.6944717985462	2.15
C 	27.146766742184976	35.086456866509046	2.15
C 	28.492597884398585	35.539379085712305	2.15
C 	28.773271307736945	36.93136415367515	2.15
C 	30.119102449950557	37.384286372878414	2.15
C 	30.399775873288917	38.776271440841256	2.15
C 	31.745607015502525	39.229193660044515	2.15
C 	32.026280438840885	40.62117872800735	2.15
C 	33.3721115810545	41.07410094721062	2.15
C 	33.652785004392854	42.46608601517346	2.15
C 	34.998616146606466	42.919008234376726	2.15
C 	35.27928956994483	44.31099330233957	2.15
C 	36.625120712158434	44.76391552154283	2.15
C 	36.9057941354968	46.15590058950567	2.15
C 	38.25162527771042	46.608822808708936	2.15
C 	11.443067933341982	19.421354130773693	2.15
C 	11.72374135668034	20.81333919873654	2.15
C 	13.069572498893955	21.2662614179398	2.15
C 	13.350245922232313	22.658246485902644	2.15
C 	14.696077064445923	23.1111687051059	2.15
C 	14.976750487784283	24.503153773068746	2.15
C 	16.322581629997895	24.956075992272005	2.15
C 	16.603255053336255	26.348061060234855	2.15
C 	17.949086195549867	26.800983279438114	2.15
C 	18.229759618888227	28.192968347400956	2.15
C 	19.575590761101836	28.645890566604212	2.15
C 	19.856264184440196	30.037875634567058	2.15
C 	21.202095326653808	30.49079785377032	2.15
C 	21.482768749992168	31.882782921733167	2.15
C 	22.82859989220578	32.335705140936426	2.15
C 	23.109273315544137	33.72769020889927	2.15
C 	24.455104457757752	34.18061242810253	2.15
C 	24.735777881096112	35.57259749606537	2.15
C 	26.08160902330972	36.025519715268636	2.15
C 	26.36228244664808	37.41750478323148	2.15
C 	27.708113588861693	37.87042700243473	2.15
C 	27.988787012200053	39.26241207039758	2.15
C 	29.33461815441366	39.71533428960084	2.15
C 	29.61529157775202	41.10731935756369	2.15
C 	30.961122719965633	41.56024157676694	2.15
C 	31.241796143303993	42.952226644729784	2.15
C 	32.587627285517605	43.40514886393305	2.15
C 	32.86830070885596	44.79713393189589	2.15
C 	34.214131851069574	45.25005615109915	2.15
C 	17.164601900012975	29.132031196160543	2.15
C 	17.445275323351336	30.524016264123386	2.15
C 	18.791106465564944	30.976938483326645	2.15
C 	19.071779888903304	32.36892355128949	2.15
C 	20.417611031116916	32.82184577049275	2.15
C 	20.698284454455276	34.2138308384556	2.15
C 	22.044115596668885	34.66675305765885	2.15
C 	22.324789020007245	36.0587381256217	2.15
C 	23.670620162220857	36.51166034482496	2.15
C 	23.951293585559217	37.9036454127878	2.15
C 	25.29712472777283	38.35656763199107	2.15
C 	25.57779815111119	39.74855269995391	2.15
C 	26.923629293324797	40.201474919157164	2.15
C 	27.204302716663157	41.59345998712001	2.15
C 	28.550133858876773	42.04638220632327	2.15
C 	28.830807282215133	43.43836727428612	2.15
C 	30.17663842442874	43.891289493489374	2.15
C 	30.457311847767098	45.28327456145222	2.15
C 	31.803142989980714	45.73619678065548	2.15
C 	22.886135866683965	38.842708261547386	2.15
C 	23.16680929002232	40.234693329510236	2.15
C 	24.512640432235937	40.6876155487135	2.15
C 	24.793313855574294	42.07960061667634	2.15
C 	26.13914499778791	42.5325228358796	2.15
C 	26.419818421126266	43.92450790384244	2.15
C 	27.765649563339878	44.3774301230457	2.15
C 	28.046322986678234	45.76941519100855	2.15
C 	29.392154128891846	46.2223374102118	2.15
H 	52.380033545221416	-1.5335533252806224	2.15
H 	54.758932254345474	-0.7329654589424655	2.15
H 	56.38543681989746	1.1119418282236462	2.15
H 	56.88155674424905	3.5724224765241637	2.15
H 	49.969044684132534	-1.0474126957242869	2.15
H 	57.22745708991253	5.287897032112172	2.15
H 	58.85396165546449	7.1328043192782795	2.15
H 	60.480466221016464	8.977711606444391	2.15
H 	62.10697078656843	10.822618893610485	2.15
H 	62.60309071092004	13.283099541911012	2.15
H 	47.55805582304369	-0.5612720661679685	2.15
H 	62.948991056583516	14.998574097499018	2.15
H 	64.57549562213548	16.843481384665125	2.15
H 	66.20200018768746	18.688388671831227	2.15
H 	67.82850475323943	20.533295958997332	2.15
H 	68.32462467759103	22.993776607297853	2.15
H 	43.52056239640285	-1.920038723777743	2.15
H 	45.8994611055269	-1.1194508574395996	2.15
H 	68.67052502325448	24.709251162885863	2.15
H 	70.29702958880648	26.554158450051975	2.15
H 	71.92353415435845	28.399065737218063	2.15
H 	73.55003871991045	30.2439730243842	2.15
H 	74.04615864426204	32.70445367268471	2.15
H 	41.109573535313984	-1.4338980942214228	2.15
H 	74.39205898992547	34.4199282282727	2.15
H 	76.01856355547747	36.26483551543881	2.15
H 	76.51468347982907	38.72531616373935	2.15
H 	38.698584674225124	-0.9477574646650894	2.15
H 	75.73019918429219	41.05636408046177	2.15
H 	36.28759581313625	-0.4616168351087596	2.15
H 	74.94571488875529	43.3874119971842	2.15
H 	32.25010238649543	-1.820383492718543	2.15
H 	34.629001095619486	-1.0197956263803851	2.15
H 	74.16123059321839	45.71845991390662	2.15
H 	29.839113525406564	-1.3342428631622172	2.15
H 	72.27845180844595	47.378352695869	2.15
H 	27.428124664317693	-0.8481022336058855	2.15
H 	67.48856423823302	47.06390545908719	2.15
H 	69.86746294735705	47.864493325425336	2.15
H 	25.017135803228825	-0.36196160404956224	2.15
H 	65.82996952071626	46.505726667815544	2.15
H 	20.979642376587996	-1.7207282616593418	2.15
H 	23.35854108571206	-0.9201403953211857	2.15
H 	63.41898065962738	46.991867297371876	2.15
H 	18.56865351549913	-1.2345876321030138	2.15
H 	61.00799179853853	47.47800792692821	2.15
H 	16.15766465441027	-0.7484470025466867	2.15
H 	56.218104228325586	47.163560690146376	2.15
H 	58.59700293744966	47.964148556484524	2.15
H 	13.746675793321403	-0.26230637299035986	2.15
H 	54.55950951080882	46.605381898874754	2.15
H 	9.709182366680572	-1.6210730306001386	2.15
H 	12.088081075804627	-0.8204851642619856	2.15
H 	52.14852064971995	47.09152252843108	2.15
H 	7.298193505591704	-1.1349324010438118	2.15
H 	47.35863307950703	46.777075291649254	2.15
H 	49.73753178863109	47.5776631579874	2.15
H 	4.887204644502839	-0.6487917714874849	2.15
H 	45.700038361990245	46.21889650037763	2.15
H 	43.289049500901385	46.70503712993395	2.15
H 	0.5934369986415229	1.4972416400312076	2.15
H 	1.0895569229931295	3.9577222883317296	2.15
H 	2.7160614885451007	5.802629575497834	2.15
H 	4.342566054097071	7.647536862663937	2.15
H 	40.87806063981253	47.19117775949028	2.15
H 	4.688466399760543	9.36301141825195	2.15
H 	5.184586324112152	11.823492066552475	2.15
H 	6.811090889664121	13.668399353718577	2.15
H 	8.43759545521609	15.513306640884679	2.15
H 	10.064100020768064	17.35821392805079	2.15
H 	36.08817306959959	46.87673052270844	2.15
H 	38.46707177872367	47.67731838904661	2.15
H 	10.410000366431534	19.073688483638797	2.15
H 	10.906120290783138	21.53416913193932	2.15
H 	12.532624856335113	23.379076419105427	2.15
H 	14.159129421887084	25.22398370627153	2.15
H 	15.785633987439056	27.068890993437638	2.15
H 	34.42957835208282	46.31855173143683	2.15
H 	16.131534333102525	28.78436554902565	2.15
H 	16.627654257454136	31.24484619732617	2.15
H 	18.254158823006108	33.08975348449228	2.15
H 	19.880663388558084	34.93466077165839	2.15
H 	21.507167954110045	36.77956805882448	2.15
H 	32.01858949099397	46.80469236099316	2.15
H 	21.853068299773515	38.49504261441249	2.15
H 	22.349188224125122	40.955523262713015	2.15
H 	23.975692789677087	42.80043054987911	2.15
H 	25.602197355229066	44.64533783704522	2.15
H 	27.228701920781035	46.49024512421133	2.15
H 	29.607600629905093	47.290832990549475	2.15
