2332

C 	0.0	0.0	0.0
C 	1.2297560733739028	0.7099999999999999	0.0
C 	2.4595121467478056	-2.3647750424515833e-16	0.0
C 	3.689268220121708	0.7099999999999995	0.0
C 	4.919024293495611	-4.729550084903167e-16	0.0
C 	6.148780366869514	0.7099999999999993	0.0
C 	7.378536440243416	-7.09432512735475e-16	0.0
C 	8.60829251361732	0.7099999999999991	0.0
C 	9.838048586991222	-9.459100169806333e-16	0.0
C 	11.067804660365125	0.7099999999999989	0.0
C 	12.297560733739026	-1.1823875212257916e-15	0.0
C 	13.527316807112928	0.7099999999999986	0.0
C 	14.757072880486833	-1.41886502547095e-15	0.0
C 	15.986828953860735	0.7099999999999984	0.0
C 	17.21658502723464	-7.671641100159832e-16	0.0
C 	18.44634110060854	0.7099999999999982	0.0
C 	19.676097173982445	-1.8918200339612667e-15	0.0
C 	20.905853247356347	0.7099999999999989	0.0
C 	22.135609320730246	-2.128297538206425e-15	0.0
C 	23.36536539410415	0.7099999999999967	0.0
C 	24.59512146747805	-2.364775042451583e-15	0.0
C 	25.824877540851954	0.7099999999999983	0.0
C 	27.05463361422586	-8.248957072964913e-16	0.0
C 	28.284389687599763	0.7099999999999999	0.0
C 	29.514145760973665	-2.8377300509419e-15	0.0
C 	30.743901834347565	0.7099999999999961	0.0
C 	31.97365790772147	-3.0742075551870582e-15	0.0
C 	33.20341398109537	0.7099999999999976	0.0
C 	34.43317005446928	-1.5343282200319664e-15	0.0
C 	35.66292612784318	0.7099999999999992	0.0
C 	36.892682201217085	-1.7708057242771246e-15	0.0
C 	38.122438274590984	0.7099999999999972	0.0
C 	39.35219434796489	-3.783640067922533e-15	0.0
C 	40.58195042133879	0.7099999999999969	0.0
C 	41.811706494712695	-4.67403893367191e-16	0.0
C 	43.0414625680866	0.7100000000000002	0.0
C 	44.27121864146049	-4.25659507641285e-15	0.0
C 	45.5009747148344	0.7099999999999964	0.0
C 	46.730730788208305	-9.403589018575075e-16	0.0
C 	47.96048686158221	0.7099999999999997	0.0
C 	49.1902429349561	-4.729550084903166e-15	0.0
C 	50.41999900833001	0.709999999999996	0.0
C 	51.64975508170391	-1.413313910347824e-15	0.0
C 	52.879511155077815	0.7099999999999993	0.0
C 	54.10926722845172	-1.6497914145929826e-15	0.0
C 	55.33902330182562	0.7099999999999991	0.0
C 	56.56877937519952	-5.438982597638641e-15	0.0
C 	57.798535448573425	0.7099999999999953	0.0
C 	59.02829152194733	-5.6754601018838e-15	0.0
C 	60.25804759532124	0.709999999999995	0.0
C 	1.2297560733739028	2.1299999999999994	0.0
C 	2.4595121467478056	2.8399999999999994	0.0
C 	3.689268220121708	2.1299999999999994	0.0
C 	4.919024293495611	2.8399999999999994	0.0
C 	6.148780366869514	2.129999999999999	0.0
C 	7.378536440243416	2.839999999999999	0.0
C 	8.60829251361732	2.1299999999999986	0.0
C 	9.838048586991222	2.8399999999999985	0.0
C 	11.067804660365123	2.129999999999998	0.0
C 	12.297560733739028	2.839999999999999	0.0
C 	13.527316807112928	2.1299999999999977	0.0
C 	14.757072880486833	2.839999999999998	0.0
C 	15.986828953860735	2.129999999999998	0.0
C 	17.216585027234636	2.839999999999997	0.0
C 	18.446341100608542	2.129999999999998	0.0
C 	19.676097173982445	2.8399999999999985	0.0
C 	20.905853247356344	2.1299999999999977	0.0
C 	22.13560932073025	2.8399999999999985	0.0
C 	23.36536539410415	2.129999999999997	0.0
C 	24.595121467478055	2.839999999999997	0.0
C 	25.824877540851954	2.1299999999999963	0.0
C 	27.05463361422586	2.839999999999997	0.0
C 	28.284389687599763	2.129999999999998	0.0
C 	29.514145760973665	2.8399999999999985	0.0
C 	30.743901834347568	2.129999999999996	0.0
C 	31.97365790772147	2.8399999999999967	0.0
C 	33.20341398109537	2.129999999999996	0.0
C 	34.43317005446928	2.8399999999999963	0.0
C 	35.66292612784318	2.1299999999999972	0.0
C 	36.89268220121708	2.8399999999999963	0.0
C 	38.122438274590984	2.129999999999997	0.0
C 	39.35219434796489	2.8399999999999976	0.0
C 	40.58195042133879	2.1299999999999986	0.0
C 	41.81170649471269	2.839999999999996	0.0
C 	43.0414625680866	2.129999999999998	0.0
C 	44.2712186414605	2.8399999999999954	0.0
C 	45.5009747148344	2.129999999999998	0.0
C 	46.7307307882083	2.8399999999999954	0.0
C 	47.96048686158221	2.1299999999999977	0.0
C 	49.19024293495611	2.839999999999995	0.0
C 	50.41999900833001	2.1299999999999977	0.0
C 	51.64975508170391	2.8399999999999945	0.0
C 	52.879511155077815	2.1299999999999972	0.0
C 	54.10926722845171	2.8399999999999945	0.0
C 	55.33902330182563	2.130000000000001	0.0
C 	56.56877937519952	2.8399999999999976	0.0
C 	57.798535448573425	2.129999999999997	0.0
C 	59.028291521947324	2.839999999999994	0.0
C 	60.25804759532124	2.129999999999997	0.0
C 	61.487803668695136	2.8399999999999936	0.0
C 	2.4595121467478056	4.259999999999999	0.0
C 	3.689268220121708	4.969999999999999	0.0
C 	4.919024293495611	4.259999999999999	0.0
C 	6.148780366869514	4.969999999999999	0.0
C 	7.378536440243416	4.259999999999999	0.0
C 	8.60829251361732	4.969999999999999	0.0
C 	9.83804858699122	4.259999999999998	0.0
C 	11.067804660365125	4.969999999999999	0.0
C 	12.297560733739028	4.259999999999998	0.0
C 	13.52731680711293	4.969999999999998	0.0
C 	14.757072880486831	4.259999999999998	0.0
C 	15.986828953860735	4.969999999999998	0.0
C 	17.21658502723464	4.259999999999997	0.0
C 	18.446341100608542	4.969999999999998	0.0
C 	19.676097173982445	4.259999999999999	0.0
C 	20.905853247356347	4.969999999999997	0.0
C 	22.135609320730246	4.259999999999996	0.0
C 	23.365365394104153	4.969999999999997	0.0
C 	24.595121467478055	4.259999999999998	0.0
C 	25.824877540851958	4.969999999999997	0.0
C 	27.054633614225857	4.259999999999995	0.0
C 	28.28438968759976	4.969999999999996	0.0
C 	29.514145760973665	4.259999999999997	0.0
C 	30.743901834347568	4.969999999999997	0.0
C 	31.97365790772147	4.259999999999996	0.0
C 	33.20341398109537	4.969999999999995	0.0
C 	34.43317005446927	4.2599999999999945	0.0
C 	35.66292612784318	4.969999999999995	0.0
C 	36.892682201217085	4.259999999999996	0.0
C 	38.122438274590984	4.969999999999997	0.0
C 	39.35219434796489	4.259999999999997	0.0
C 	40.58195042133879	4.969999999999994	0.0
C 	41.81170649471269	4.259999999999995	0.0
C 	43.041462568086594	4.969999999999996	0.0
C 	44.2712186414605	4.259999999999997	0.0
C 	45.500974714834406	4.969999999999998	0.0
C 	46.7307307882083	4.259999999999994	0.0
C 	47.960486861582204	4.9699999999999935	0.0
C 	49.19024293495611	4.259999999999996	0.0
C 	50.41999900833001	4.969999999999997	0.0
C 	51.64975508170391	4.259999999999993	0.0
C 	52.879511155077815	4.9699999999999935	0.0
C 	54.10926722845171	4.259999999999996	0.0
C 	55.33902330182562	4.969999999999997	0.0
C 	56.568779375199526	4.259999999999996	0.0
C 	57.798535448573425	4.969999999999996	0.0
C 	59.028291521947324	4.259999999999995	0.0
C 	60.25804759532123	4.969999999999996	0.0
C 	61.487803668695136	4.259999999999992	0.0
C 	62.717559742069035	4.969999999999993	0.0
C 	3.6892682201217086	6.389999999999999	0.0
C 	4.919024293495611	7.099999999999999	0.0
C 	6.148780366869514	6.389999999999999	0.0
C 	7.378536440243416	7.099999999999999	0.0
C 	8.608292513617318	6.389999999999998	0.0
C 	9.838048586991222	7.099999999999999	0.0
C 	11.067804660365125	6.389999999999998	0.0
C 	12.297560733739028	7.099999999999998	0.0
C 	13.52731680711293	6.389999999999999	0.0
C 	14.757072880486833	7.099999999999998	0.0
C 	15.986828953860735	6.389999999999998	0.0
C 	17.216585027234636	7.099999999999997	0.0
C 	18.44634110060854	6.389999999999997	0.0
C 	19.676097173982445	7.099999999999998	0.0
C 	20.905853247356347	6.389999999999998	0.0
C 	22.13560932073025	7.099999999999997	0.0
C 	23.365365394104153	6.389999999999998	0.0
C 	24.59512146747805	7.099999999999997	0.0
C 	25.824877540851958	6.389999999999998	0.0
C 	27.054633614225857	7.099999999999997	0.0
C 	28.28438968759976	6.389999999999999	0.0
C 	29.514145760973662	7.099999999999997	0.0
C 	30.743901834347568	6.389999999999999	0.0
C 	31.97365790772147	7.099999999999998	0.0
C 	33.20341398109537	6.389999999999995	0.0
C 	34.43317005446928	7.099999999999994	0.0
C 	35.66292612784318	6.389999999999995	0.0
C 	36.892682201217085	7.099999999999996	0.0
C 	38.122438274590984	6.389999999999996	0.0
C 	39.35219434796489	7.099999999999997	0.0
C 	40.58195042133879	6.389999999999994	0.0
C 	41.811706494712695	7.099999999999995	0.0
C 	43.041462568086594	6.389999999999996	0.0
C 	44.2712186414605	7.099999999999997	0.0
C 	45.500974714834406	6.389999999999998	0.0
C 	46.730730788208305	7.099999999999998	0.0
C 	47.960486861582204	6.389999999999995	0.0
C 	49.19024293495611	7.099999999999996	0.0
C 	50.41999900833001	6.389999999999995	0.0
C 	51.649755081703915	7.099999999999996	0.0
C 	52.879511155077815	6.389999999999995	0.0
C 	54.10926722845172	7.099999999999996	0.0
C 	55.33902330182562	6.389999999999995	0.0
C 	56.568779375199526	7.099999999999995	0.0
C 	57.79853544857343	6.389999999999998	0.0
C 	59.02829152194733	7.099999999999999	0.0
C 	60.25804759532123	6.389999999999994	0.0
C 	61.487803668695136	7.099999999999995	0.0
C 	62.71755974206904	6.389999999999994	0.0
C 	63.94731581544294	7.099999999999995	0.0
C 	4.919024293495611	8.519999999999998	0.0
C 	6.148780366869514	9.229999999999999	0.0
C 	7.378536440243416	8.519999999999998	0.0
C 	8.60829251361732	9.229999999999999	0.0
C 	9.838048586991222	8.519999999999998	0.0
C 	11.067804660365125	9.229999999999999	0.0
C 	12.297560733739028	8.519999999999998	0.0
C 	13.52731680711293	9.229999999999997	0.0
C 	14.757072880486833	8.519999999999998	0.0
C 	15.986828953860737	9.229999999999999	0.0
C 	17.216585027234636	8.519999999999998	0.0
C 	18.44634110060854	9.229999999999997	0.0
C 	19.67609717398244	8.519999999999996	0.0
C 	20.905853247356347	9.229999999999997	0.0
C 	22.13560932073025	8.519999999999998	0.0
C 	23.365365394104153	9.229999999999999	0.0
C 	24.595121467478055	8.519999999999996	0.0
C 	25.824877540851954	9.229999999999995	0.0
C 	27.05463361422586	8.519999999999996	0.0
C 	28.284389687599763	9.229999999999997	0.0
C 	29.514145760973662	8.519999999999996	0.0
C 	30.743901834347565	9.229999999999995	0.0
C 	31.97365790772147	8.52	0.0
C 	33.20341398109537	9.229999999999997	0.0
C 	34.43317005446928	8.519999999999994	0.0
C 	35.66292612784318	9.229999999999995	0.0
C 	36.89268220121708	8.519999999999992	0.0
C 	38.122438274590984	9.229999999999993	0.0
C 	39.35219434796489	8.519999999999998	0.0
C 	40.58195042133879	9.229999999999995	0.0
C 	41.811706494712695	8.519999999999994	0.0
C 	43.0414625680866	9.229999999999995	0.0
C 	44.27121864146049	8.519999999999992	0.0
C 	45.5009747148344	9.229999999999993	0.0
C 	46.730730788208305	8.519999999999998	0.0
C 	47.960486861582204	9.229999999999995	0.0
C 	49.19024293495611	8.519999999999996	0.0
C 	50.41999900833001	9.229999999999993	0.0
C 	51.64975508170391	8.519999999999994	0.0
C 	52.879511155077815	9.229999999999995	0.0
C 	54.10926722845171	8.51999999999999	0.0
C 	55.33902330182562	9.229999999999992	0.0
C 	56.568779375199526	8.519999999999998	0.0
C 	57.798535448573425	9.229999999999995	0.0
C 	59.02829152194733	8.519999999999994	0.0
C 	60.25804759532123	9.229999999999993	0.0
C 	61.48780366869513	8.519999999999992	0.0
C 	62.717559742069035	9.229999999999993	0.0
C 	63.94731581544294	8.519999999999992	0.0
C 	65.17707188881684	9.22999999999999	0.0
C 	6.148780366869514	10.649999999999997	0.0
C 	7.378536440243416	11.359999999999998	0.0
C 	8.608292513617318	10.649999999999997	0.0
C 	9.838048586991222	11.359999999999998	0.0
C 	11.067804660365125	10.649999999999997	0.0
C 	12.297560733739028	11.359999999999996	0.0
C 	13.52731680711293	10.649999999999997	0.0
C 	14.757072880486831	11.359999999999996	0.0
C 	15.986828953860735	10.649999999999997	0.0
C 	17.216585027234636	11.359999999999996	0.0
C 	18.44634110060854	10.649999999999997	0.0
C 	19.676097173982445	11.359999999999998	0.0
C 	20.905853247356347	10.649999999999997	0.0
C 	22.13560932073025	11.359999999999996	0.0
C 	23.365365394104153	10.649999999999997	0.0
C 	24.595121467478055	11.359999999999996	0.0
C 	25.824877540851958	10.649999999999997	0.0
C 	27.05463361422586	11.359999999999996	0.0
C 	28.284389687599763	10.649999999999995	0.0
C 	29.514145760973662	11.359999999999994	0.0
C 	30.743901834347565	10.649999999999995	0.0
C 	31.97365790772147	11.359999999999996	0.0
C 	33.20341398109537	10.649999999999997	0.0
C 	34.43317005446928	11.359999999999998	0.0
C 	35.66292612784318	10.649999999999991	0.0
C 	36.89268220121708	11.359999999999992	0.0
C 	38.122438274590984	10.649999999999993	0.0
C 	39.35219434796489	11.359999999999994	0.0
C 	40.58195042133879	10.649999999999993	0.0
C 	41.811706494712695	11.359999999999994	0.0
C 	43.041462568086594	10.649999999999991	0.0
C 	44.2712186414605	11.359999999999992	0.0
C 	45.5009747148344	10.649999999999993	0.0
C 	46.730730788208305	11.359999999999994	0.0
C 	47.960486861582204	10.649999999999995	0.0
C 	49.19024293495611	11.359999999999996	0.0
C 	50.41999900833001	10.649999999999993	0.0
C 	51.649755081703915	11.359999999999994	0.0
C 	52.879511155077815	10.649999999999995	0.0
C 	54.10926722845172	11.359999999999996	0.0
C 	55.33902330182562	10.649999999999993	0.0
C 	56.568779375199526	11.359999999999994	0.0
C 	57.798535448573425	10.649999999999993	0.0
C 	59.02829152194733	11.359999999999992	0.0
C 	60.25804759532124	10.649999999999995	0.0
C 	61.487803668695136	11.359999999999996	0.0
C 	62.717559742069035	10.649999999999991	0.0
C 	63.94731581544294	11.359999999999992	0.0
C 	65.17707188881684	10.649999999999991	0.0
C 	66.40682796219075	11.359999999999992	0.0
C 	7.378536440243417	12.779999999999998	0.0
C 	8.60829251361732	13.489999999999998	0.0
C 	9.838048586991222	12.78	0.0
C 	11.067804660365125	13.489999999999997	0.0
C 	12.297560733739028	12.779999999999998	0.0
C 	13.527316807112932	13.489999999999998	0.0
C 	14.757072880486833	12.779999999999998	0.0
C 	15.986828953860737	13.489999999999997	0.0
C 	17.216585027234636	12.779999999999996	0.0
C 	18.446341100608542	13.489999999999997	0.0
C 	19.676097173982445	12.779999999999998	0.0
C 	20.905853247356347	13.489999999999997	0.0
C 	22.13560932073025	12.779999999999996	0.0
C 	23.36536539410415	13.489999999999995	0.0
C 	24.595121467478055	12.779999999999996	0.0
C 	25.824877540851958	13.489999999999997	0.0
C 	27.05463361422586	12.779999999999998	0.0
C 	28.284389687599763	13.489999999999997	0.0
C 	29.514145760973662	12.779999999999996	0.0
C 	30.743901834347568	13.489999999999997	0.0
C 	31.97365790772147	12.779999999999996	0.0
C 	33.20341398109537	13.489999999999997	0.0
C 	34.43317005446928	12.779999999999998	0.0
C 	35.66292612784318	13.489999999999995	0.0
C 	36.89268220121708	12.779999999999994	0.0
C 	38.122438274590984	13.489999999999995	0.0
C 	39.35219434796489	12.779999999999996	0.0
C 	40.581950421338796	13.489999999999997	0.0
C 	41.811706494712695	12.779999999999996	0.0
C 	43.041462568086594	13.489999999999993	0.0
C 	44.2712186414605	12.779999999999994	0.0
C 	45.5009747148344	13.489999999999995	0.0
C 	46.730730788208305	12.779999999999996	0.0
C 	47.96048686158221	13.489999999999997	0.0
C 	49.19024293495611	12.779999999999998	0.0
C 	50.41999900833001	13.489999999999995	0.0
C 	51.649755081703915	12.779999999999996	0.0
C 	52.879511155077815	13.489999999999993	0.0
C 	54.10926722845172	12.779999999999998	0.0
C 	55.33902330182563	13.489999999999998	0.0
C 	56.56877937519952	12.779999999999998	0.0
C 	57.798535448573425	13.489999999999997	0.0
C 	59.02829152194733	12.779999999999994	0.0
C 	60.25804759532123	13.489999999999991	0.0
C 	61.487803668695136	12.779999999999998	0.0
C 	62.71755974206904	13.489999999999998	0.0
C 	63.94731581544294	12.779999999999994	0.0
C 	65.17707188881684	13.489999999999995	0.0
C 	66.40682796219075	12.77999999999999	0.0
C 	67.63658403556465	13.489999999999988	0.0
C 	8.60829251361732	14.909999999999998	0.0
C 	9.838048586991222	15.619999999999996	0.0
C 	11.067804660365125	14.909999999999997	0.0
C 	12.297560733739026	15.619999999999996	0.0
C 	13.527316807112934	14.909999999999998	0.0
C 	14.757072880486831	15.619999999999996	0.0
C 	15.986828953860737	14.909999999999998	0.0
C 	17.21658502723464	15.619999999999997	0.0
C 	18.446341100608542	14.909999999999997	0.0
C 	19.676097173982445	15.619999999999996	0.0
C 	20.905853247356347	14.909999999999997	0.0
C 	22.135609320730246	15.619999999999996	0.0
C 	23.365365394104153	14.909999999999995	0.0
C 	24.595121467478055	15.619999999999996	0.0
C 	25.824877540851958	14.909999999999997	0.0
C 	27.05463361422586	15.619999999999996	0.0
C 	28.284389687599763	14.909999999999997	0.0
C 	29.514145760973665	15.619999999999996	0.0
C 	30.743901834347568	14.909999999999997	0.0
C 	31.973657907721474	15.619999999999997	0.0
C 	33.203413981095366	14.909999999999993	0.0
C 	34.43317005446927	15.619999999999994	0.0
C 	35.662926127843185	14.909999999999998	0.0
C 	36.892682201217085	15.619999999999996	0.0
C 	38.122438274590984	14.909999999999995	0.0
C 	39.35219434796489	15.619999999999996	0.0
C 	40.58195042133879	14.909999999999993	0.0
C 	41.811706494712695	15.619999999999994	0.0
C 	43.0414625680866	14.909999999999998	0.0
C 	44.2712186414605	15.619999999999996	0.0
C 	45.5009747148344	14.909999999999995	0.0
C 	46.730730788208305	15.619999999999996	0.0
C 	47.960486861582204	14.909999999999993	0.0
C 	49.19024293495611	15.619999999999994	0.0
C 	50.41999900833002	14.909999999999998	0.0
C 	51.649755081703915	15.619999999999996	0.0
C 	52.87951115507782	14.909999999999997	0.0
C 	54.10926722845171	15.619999999999994	0.0
C 	55.33902330182562	14.909999999999995	0.0
C 	56.568779375199526	15.619999999999994	0.0
C 	57.798535448573425	14.909999999999991	0.0
C 	59.028291521947324	15.619999999999992	0.0
C 	60.25804759532124	14.909999999999998	0.0
C 	61.487803668695136	15.619999999999996	0.0
C 	62.717559742069035	14.909999999999993	0.0
C 	63.94731581544294	15.619999999999994	0.0
C 	65.17707188881684	14.909999999999993	0.0
C 	66.40682796219075	15.619999999999994	0.0
C 	67.63658403556465	14.909999999999997	0.0
C 	68.86634010893854	15.61999999999999	0.0
C 	9.838048586991222	17.039999999999996	0.0
C 	11.067804660365127	17.749999999999996	0.0
C 	12.297560733739028	17.039999999999996	0.0
C 	13.527316807112932	17.749999999999996	0.0
C 	14.757072880486833	17.039999999999996	0.0
C 	15.986828953860735	17.749999999999996	0.0
C 	17.21658502723464	17.039999999999996	0.0
C 	18.446341100608546	17.749999999999996	0.0
C 	19.676097173982445	17.039999999999996	0.0
C 	20.905853247356347	17.749999999999996	0.0
C 	22.13560932073025	17.039999999999996	0.0
C 	23.365365394104153	17.749999999999996	0.0
C 	24.595121467478055	17.039999999999996	0.0
C 	25.82487754085196	17.749999999999996	0.0
C 	27.05463361422586	17.039999999999996	0.0
C 	28.28438968759977	17.75	0.0
C 	29.514145760973665	17.039999999999996	0.0
C 	30.74390183434757	17.749999999999996	0.0
C 	31.973657907721467	17.039999999999992	0.0
C 	33.20341398109537	17.749999999999993	0.0
C 	34.43317005446927	17.039999999999996	0.0
C 	35.66292612784318	17.749999999999996	0.0
C 	36.892682201217085	17.039999999999996	0.0
C 	38.122438274590984	17.749999999999996	0.0
C 	39.35219434796488	17.039999999999992	0.0
C 	40.58195042133879	17.749999999999993	0.0
C 	41.811706494712695	17.039999999999992	0.0
C 	43.041462568086594	17.749999999999993	0.0
C 	44.2712186414605	17.039999999999996	0.0
C 	45.500974714834406	17.749999999999996	0.0
C 	46.7307307882083	17.039999999999992	0.0
C 	47.960486861582204	17.749999999999993	0.0
C 	49.19024293495611	17.039999999999992	0.0
C 	50.41999900833002	17.749999999999993	0.0
C 	51.649755081703915	17.039999999999996	0.0
C 	52.87951115507782	17.749999999999996	0.0
C 	54.10926722845172	17.039999999999992	0.0
C 	55.33902330182562	17.749999999999993	0.0
C 	56.568779375199526	17.039999999999996	0.0
C 	57.79853544857343	17.749999999999996	0.0
C 	59.028291521947324	17.039999999999992	0.0
C 	60.25804759532123	17.749999999999993	0.0
C 	61.487803668695136	17.039999999999996	0.0
C 	62.71755974206904	17.749999999999996	0.0
C 	63.94731581544294	17.04	0.0
C 	65.17707188881684	17.749999999999993	0.0
C 	66.40682796219075	17.039999999999996	0.0
C 	67.63658403556464	17.74999999999999	0.0
C 	68.86634010893856	17.03999999999999	0.0
C 	70.09609618231246	17.74999999999999	0.0
C 	11.067804660365125	19.169999999999995	0.0
C 	12.297560733739026	19.879999999999995	0.0
C 	13.52731680711293	19.169999999999995	0.0
C 	14.757072880486831	19.879999999999995	0.0
C 	15.986828953860737	19.169999999999998	0.0
C 	17.216585027234636	19.879999999999992	0.0
C 	18.446341100608542	19.169999999999995	0.0
C 	19.676097173982445	19.879999999999995	0.0
C 	20.905853247356347	19.169999999999995	0.0
C 	22.135609320730246	19.879999999999995	0.0
C 	23.365365394104153	19.169999999999995	0.0
C 	24.59512146747805	19.879999999999995	0.0
C 	25.824877540851958	19.169999999999995	0.0
C 	27.05463361422586	19.879999999999995	0.0
C 	28.284389687599763	19.169999999999995	0.0
C 	29.51414576097367	19.879999999999995	0.0
C 	30.743901834347565	19.16999999999999	0.0
C 	31.97365790772147	19.879999999999992	0.0
C 	33.20341398109537	19.169999999999995	0.0
C 	34.43317005446927	19.879999999999992	0.0
C 	35.66292612784318	19.169999999999995	0.0
C 	36.89268220121708	19.879999999999992	0.0
C 	38.122438274590984	19.169999999999995	0.0
C 	39.35219434796488	19.879999999999992	0.0
C 	40.58195042133879	19.16999999999999	0.0
C 	41.81170649471269	19.87999999999999	0.0
C 	43.0414625680866	19.169999999999995	0.0
C 	44.27121864146049	19.879999999999992	0.0
C 	45.5009747148344	19.16999999999999	0.0
C 	46.730730788208305	19.879999999999992	0.0
C 	47.960486861582204	19.169999999999995	0.0
C 	49.1902429349561	19.879999999999992	0.0
C 	50.41999900833002	19.169999999999995	0.0
C 	51.649755081703915	19.879999999999992	0.0
C 	52.879511155077815	19.16999999999999	0.0
C 	54.10926722845172	19.879999999999992	0.0
C 	55.33902330182562	19.16999999999999	0.0
C 	56.56877937519952	19.879999999999992	0.0
C 	57.79853544857343	19.169999999999995	0.0
C 	59.02829152194733	19.879999999999992	0.0
C 	60.25804759532123	19.169999999999995	0.0
C 	61.48780366869513	19.879999999999992	0.0
C 	62.717559742069035	19.16999999999999	0.0
C 	63.94731581544294	19.879999999999992	0.0
C 	65.17707188881684	19.169999999999995	0.0
C 	66.40682796219075	19.87999999999999	0.0
C 	67.63658403556465	19.169999999999995	0.0
C 	68.86634010893854	19.87999999999999	0.0
C 	70.09609618231245	19.16999999999999	0.0
C 	71.32585225568636	19.879999999999992	0.0
C 	12.297560733739028	21.299999999999994	0.0
C 	13.527316807112932	22.009999999999994	0.0
C 	14.757072880486831	21.299999999999994	0.0
C 	15.986828953860735	22.009999999999994	0.0
C 	17.216585027234636	21.299999999999994	0.0
C 	18.44634110060854	22.009999999999994	0.0
C 	19.676097173982445	21.299999999999994	0.0
C 	20.905853247356347	22.009999999999994	0.0
C 	22.13560932073025	21.299999999999994	0.0
C 	23.365365394104153	22.009999999999994	0.0
C 	24.595121467478055	21.299999999999994	0.0
C 	25.824877540851958	22.009999999999994	0.0
C 	27.05463361422586	21.299999999999994	0.0
C 	28.284389687599766	22.009999999999994	0.0
C 	29.514145760973662	21.29999999999999	0.0
C 	30.743901834347568	22.00999999999999	0.0
C 	31.97365790772147	21.299999999999994	0.0
C 	33.20341398109537	22.009999999999994	0.0
C 	34.43317005446928	21.299999999999994	0.0
C 	35.662926127843185	22.009999999999994	0.0
C 	36.89268220121708	21.299999999999994	0.0
C 	38.122438274590984	22.009999999999994	0.0
C 	39.35219434796489	21.299999999999994	0.0
C 	40.58195042133879	22.009999999999994	0.0
C 	41.811706494712695	21.299999999999994	0.0
C 	43.0414625680866	22.009999999999994	0.0
C 	44.2712186414605	21.29999999999999	0.0
C 	45.5009747148344	22.00999999999999	0.0
C 	46.730730788208305	21.299999999999994	0.0
C 	47.96048686158221	22.009999999999994	0.0
C 	49.19024293495611	21.299999999999994	0.0
C 	50.41999900833002	22.009999999999994	0.0
C 	51.649755081703915	21.299999999999994	0.0
C 	52.879511155077815	22.00999999999999	0.0
C 	54.10926722845172	21.299999999999994	0.0
C 	55.33902330182563	22.009999999999994	0.0
C 	56.568779375199526	21.29999999999999	0.0
C 	57.798535448573425	22.00999999999999	0.0
C 	59.02829152194733	21.299999999999994	0.0
C 	60.25804759532124	22.009999999999994	0.0
C 	61.48780366869513	21.29999999999999	0.0
C 	62.717559742069035	22.00999999999999	0.0
C 	63.94731581544294	21.299999999999994	0.0
C 	65.17707188881684	22.009999999999987	0.0
C 	66.40682796219075	21.299999999999994	0.0
C 	67.63658403556465	22.009999999999994	0.0
C 	68.86634010893854	21.29999999999999	0.0
C 	70.09609618231245	22.00999999999999	0.0
C 	71.32585225568636	21.299999999999983	0.0
C 	72.55560832906026	22.00999999999999	0.0
C 	13.527316807112932	23.429999999999996	0.0
C 	14.757072880486836	24.139999999999997	0.0
C 	15.986828953860737	23.429999999999996	0.0
C 	17.216585027234643	24.139999999999997	0.0
C 	18.446341100608542	23.429999999999996	0.0
C 	19.676097173982445	24.139999999999997	0.0
C 	20.90585324735635	23.429999999999996	0.0
C 	22.135609320730254	24.139999999999997	0.0
C 	23.365365394104156	23.429999999999993	0.0
C 	24.595121467478062	24.139999999999997	0.0
C 	25.824877540851958	23.429999999999993	0.0
C 	27.054633614225864	24.139999999999993	0.0
C 	28.284389687599766	23.429999999999996	0.0
C 	29.514145760973673	24.139999999999997	0.0
C 	30.743901834347575	23.429999999999996	0.0
C 	31.973657907721478	24.139999999999997	0.0
C 	33.20341398109537	23.429999999999993	0.0
C 	34.43317005446928	24.139999999999993	0.0
C 	35.66292612784318	23.429999999999993	0.0
C 	36.892682201217085	24.139999999999993	0.0
C 	38.122438274590984	23.429999999999993	0.0
C 	39.35219434796489	24.139999999999993	0.0
C 	40.58195042133879	23.429999999999996	0.0
C 	41.811706494712695	24.139999999999993	0.0
C 	43.041462568086594	23.42999999999999	0.0
C 	44.2712186414605	24.13999999999999	0.0
C 	45.5009747148344	23.429999999999993	0.0
C 	46.730730788208305	24.139999999999993	0.0
C 	47.96048686158221	23.429999999999993	0.0
C 	49.19024293495611	24.139999999999993	0.0
C 	50.41999900833001	23.429999999999993	0.0
C 	51.649755081703915	24.13999999999999	0.0
C 	52.87951115507782	23.429999999999993	0.0
C 	54.10926722845172	24.139999999999993	0.0
C 	55.33902330182563	23.429999999999993	0.0
C 	56.56877937519953	24.139999999999993	0.0
C 	57.798535448573425	23.429999999999993	0.0
C 	59.02829152194733	24.139999999999993	0.0
C 	60.25804759532124	23.429999999999993	0.0
C 	61.487803668695136	24.13999999999999	0.0
C 	62.71755974206904	23.429999999999993	0.0
C 	63.947315815442934	24.139999999999986	0.0
C 	65.17707188881684	23.429999999999993	0.0
C 	66.40682796219075	24.139999999999993	0.0
C 	67.63658403556464	23.42999999999999	0.0
C 	68.86634010893856	24.139999999999997	0.0
C 	70.09609618231245	23.42999999999999	0.0
C 	71.32585225568636	24.139999999999997	0.0
C 	72.55560832906026	23.42999999999999	0.0
C 	73.78536440243417	24.13999999999999	0.0
C 	14.757072880486835	25.559999999999995	0.0
C 	15.986828953860735	26.269999999999996	0.0
C 	17.21658502723464	25.559999999999995	0.0
C 	18.44634110060854	26.269999999999996	0.0
C 	19.676097173982445	25.56	0.0
C 	20.905853247356344	26.269999999999996	0.0
C 	22.13560932073025	25.56	0.0
C 	23.365365394104153	26.269999999999996	0.0
C 	24.595121467478055	25.559999999999995	0.0
C 	25.824877540851958	26.269999999999996	0.0
C 	27.054633614225857	25.559999999999995	0.0
C 	28.28438968759976	26.269999999999996	0.0
C 	29.514145760973665	25.559999999999995	0.0
C 	30.743901834347568	26.269999999999996	0.0
C 	31.973657907721474	25.559999999999995	0.0
C 	33.20341398109538	26.269999999999996	0.0
C 	34.43317005446927	25.55999999999999	0.0
C 	35.66292612784318	26.269999999999992	0.0
C 	36.892682201217085	25.559999999999995	0.0
C 	38.12243827459098	26.269999999999992	0.0
C 	39.35219434796489	25.559999999999995	0.0
C 	40.58195042133879	26.269999999999992	0.0
C 	41.81170649471269	25.55999999999999	0.0
C 	43.041462568086594	26.269999999999992	0.0
C 	44.2712186414605	25.55999999999999	0.0
C 	45.5009747148344	26.26999999999999	0.0
C 	46.730730788208305	25.559999999999995	0.0
C 	47.960486861582204	26.269999999999992	0.0
C 	49.19024293495611	25.55999999999999	0.0
C 	50.41999900833001	26.269999999999992	0.0
C 	51.649755081703915	25.559999999999995	0.0
C 	52.879511155077815	26.269999999999992	0.0
C 	54.10926722845172	25.559999999999995	0.0
C 	55.33902330182562	26.269999999999992	0.0
C 	56.568779375199526	25.55999999999999	0.0
C 	57.79853544857343	26.269999999999992	0.0
C 	59.028291521947324	25.55999999999999	0.0
C 	60.25804759532123	26.269999999999992	0.0
C 	61.487803668695136	25.559999999999995	0.0
C 	62.717559742069035	26.26999999999999	0.0
C 	63.94731581544294	25.55999999999999	0.0
C 	65.17707188881683	26.269999999999985	0.0
C 	66.40682796219075	25.55999999999999	0.0
C 	67.63658403556465	26.269999999999992	0.0
C 	68.86634010893856	25.559999999999995	0.0
C 	70.09609618231246	26.269999999999996	0.0
C 	71.32585225568636	25.559999999999995	0.0
C 	72.55560832906026	26.269999999999996	0.0
C 	73.78536440243415	25.559999999999988	0.0
C 	75.01512047580806	26.26999999999999	0.0
C 	15.986828953860735	27.689999999999994	0.0
C 	17.21658502723464	28.399999999999995	0.0
C 	18.446341100608542	27.689999999999994	0.0
C 	19.676097173982445	28.399999999999995	0.0
C 	20.905853247356344	27.689999999999994	0.0
C 	22.13560932073025	28.399999999999995	0.0
C 	23.365365394104153	27.689999999999994	0.0
C 	24.59512146747806	28.399999999999995	0.0
C 	25.824877540851954	27.689999999999994	0.0
C 	27.054633614225857	28.399999999999995	0.0
C 	28.284389687599763	27.689999999999994	0.0
C 	29.514145760973665	28.399999999999995	0.0
C 	30.74390183434757	27.689999999999994	0.0
C 	31.973657907721474	28.399999999999995	0.0
C 	33.20341398109537	27.68999999999999	0.0
C 	34.43317005446928	28.39999999999999	0.0
C 	35.66292612784318	27.689999999999994	0.0
C 	36.892682201217085	28.399999999999995	0.0
C 	38.122438274590984	27.689999999999994	0.0
C 	39.35219434796489	28.399999999999995	0.0
C 	40.58195042133879	27.689999999999994	0.0
C 	41.811706494712695	28.399999999999995	0.0
C 	43.041462568086594	27.689999999999994	0.0
C 	44.2712186414605	28.399999999999995	0.0
C 	45.500974714834406	27.689999999999994	0.0
C 	46.730730788208305	28.399999999999995	0.0
C 	47.960486861582204	27.68999999999999	0.0
C 	49.19024293495611	28.39999999999999	0.0
C 	50.41999900833002	27.689999999999994	0.0
C 	51.649755081703915	28.399999999999995	0.0
C 	52.87951115507782	27.689999999999994	0.0
C 	54.10926722845173	28.399999999999995	0.0
C 	55.33902330182562	27.68999999999999	0.0
C 	56.568779375199526	28.39999999999999	0.0
C 	57.79853544857343	27.689999999999994	0.0
C 	59.02829152194733	28.39999999999999	0.0
C 	60.25804759532124	27.689999999999994	0.0
C 	61.48780366869513	28.399999999999988	0.0
C 	62.717559742069035	27.689999999999994	0.0
C 	63.94731581544294	28.399999999999995	0.0
C 	65.17707188881684	27.68999999999999	0.0
C 	66.40682796219075	28.39999999999999	0.0
C 	67.63658403556464	27.689999999999987	0.0
C 	68.86634010893856	28.399999999999995	0.0
C 	70.09609618231245	27.689999999999994	0.0
C 	71.32585225568636	28.399999999999995	0.0
C 	72.55560832906026	27.68999999999999	0.0
C 	73.78536440243415	28.39999999999999	0.0
C 	75.01512047580808	27.689999999999994	0.0
C 	76.24487654918197	28.399999999999984	0.0
C 	17.21658502723464	29.819999999999997	0.0
C 	18.446341100608546	30.529999999999998	0.0
C 	19.676097173982445	29.819999999999997	0.0
C 	20.905853247356355	30.529999999999998	0.0
C 	22.13560932073025	29.819999999999993	0.0
C 	23.365365394104156	30.529999999999994	0.0
C 	24.59512146747806	29.819999999999997	0.0
C 	25.82487754085196	30.529999999999998	0.0
C 	27.054633614225867	29.819999999999997	0.0
C 	28.28438968759977	30.529999999999998	0.0
C 	29.514145760973665	29.819999999999997	0.0
C 	30.74390183434757	30.529999999999998	0.0
C 	31.973657907721474	29.819999999999997	0.0
C 	33.20341398109538	30.529999999999998	0.0
C 	34.43317005446928	29.819999999999997	0.0
C 	35.662926127843185	30.529999999999998	0.0
C 	36.892682201217085	29.819999999999993	0.0
C 	38.12243827459099	30.529999999999994	0.0
C 	39.35219434796488	29.819999999999993	0.0
C 	40.58195042133879	30.529999999999994	0.0
C 	41.811706494712695	29.819999999999993	0.0
C 	43.0414625680866	30.529999999999994	0.0
C 	44.2712186414605	29.819999999999993	0.0
C 	45.500974714834406	30.529999999999994	0.0
C 	46.730730788208305	29.81999999999999	0.0
C 	47.960486861582204	30.52999999999999	0.0
C 	49.19024293495611	29.819999999999993	0.0
C 	50.41999900833002	30.529999999999994	0.0
C 	51.649755081703915	29.819999999999993	0.0
C 	52.87951115507782	30.529999999999994	0.0
C 	54.10926722845172	29.819999999999993	0.0
C 	55.33902330182563	30.52999999999999	0.0
C 	56.568779375199526	29.819999999999993	0.0
C 	57.798535448573425	30.52999999999999	0.0
C 	59.02829152194734	29.819999999999993	0.0
C 	60.25804759532124	30.529999999999994	0.0
C 	61.487803668695136	29.819999999999993	0.0
C 	62.71755974206904	30.529999999999994	0.0
C 	63.947315815442934	29.81999999999999	0.0
C 	65.17707188881685	30.529999999999998	0.0
C 	66.40682796219073	29.819999999999986	0.0
C 	67.63658403556465	30.529999999999994	0.0
C 	68.86634010893856	29.819999999999993	0.0
C 	70.09609618231245	30.529999999999994	0.0
C 	71.32585225568637	29.819999999999997	0.0
C 	72.55560832906026	30.52999999999999	0.0
C 	73.78536440243417	29.819999999999997	0.0
C 	75.01512047580806	30.529999999999987	0.0
C 	76.24487654918197	29.81999999999999	0.0
C 	77.47463262255587	30.52999999999999	0.0
C 	18.446341100608542	31.949999999999996	0.0
C 	19.676097173982445	32.65999999999999	0.0
C 	20.905853247356347	31.949999999999992	0.0
C 	22.135609320730254	32.66	0.0
C 	23.365365394104156	31.949999999999996	0.0
C 	24.595121467478055	32.65999999999999	0.0
C 	25.824877540851958	31.949999999999992	0.0
C 	27.05463361422586	32.66	0.0
C 	28.284389687599766	31.949999999999996	0.0
C 	29.51414576097367	32.66	0.0
C 	30.743901834347568	31.949999999999992	0.0
C 	31.97365790772147	32.66	0.0
C 	33.20341398109537	31.949999999999992	0.0
C 	34.43317005446928	32.66	0.0
C 	35.66292612784318	31.949999999999996	0.0
C 	36.892682201217085	32.66	0.0
C 	38.122438274590984	31.949999999999992	0.0
C 	39.35219434796489	32.65999999999999	0.0
C 	40.58195042133879	31.949999999999992	0.0
C 	41.81170649471269	32.65999999999999	0.0
C 	43.0414625680866	31.949999999999996	0.0
C 	44.2712186414605	32.65999999999999	0.0
C 	45.5009747148344	31.949999999999992	0.0
C 	46.730730788208305	32.65999999999999	0.0
C 	47.96048686158221	31.949999999999992	0.0
C 	49.1902429349561	32.65999999999999	0.0
C 	50.41999900833002	31.949999999999992	0.0
C 	51.649755081703915	32.65999999999999	0.0
C 	52.879511155077815	31.949999999999992	0.0
C 	54.10926722845172	32.65999999999999	0.0
C 	55.33902330182563	31.949999999999992	0.0
C 	56.568779375199526	32.65999999999999	0.0
C 	57.79853544857343	31.949999999999992	0.0
C 	59.028291521947324	32.65999999999999	0.0
C 	60.25804759532124	31.949999999999992	0.0
C 	61.487803668695136	32.65999999999999	0.0
C 	62.717559742069035	31.94999999999999	0.0
C 	63.94731581544294	32.65999999999999	0.0
C 	65.17707188881685	31.949999999999992	0.0
C 	66.40682796219076	32.66	0.0
C 	67.63658403556465	31.949999999999992	0.0
C 	68.86634010893856	32.65999999999999	0.0
C 	70.09609618231245	31.94999999999999	0.0
C 	71.32585225568636	32.65999999999999	0.0
C 	72.55560832906026	31.949999999999996	0.0
C 	73.78536440243415	32.65999999999999	0.0
C 	75.01512047580806	31.949999999999992	0.0
C 	76.24487654918195	32.65999999999998	0.0
C 	77.47463262255587	31.949999999999985	0.0
C 	78.70438869592978	32.65999999999999	0.0
C 	19.676097173982445	34.07999999999999	0.0
C 	20.90585324735635	34.78999999999999	0.0
C 	22.135609320730254	34.07999999999999	0.0
C 	23.365365394104156	34.78999999999999	0.0
C 	24.595121467478055	34.07999999999999	0.0
C 	25.824877540851958	34.78999999999999	0.0
C 	27.054633614225864	34.07999999999999	0.0
C 	28.284389687599766	34.78999999999999	0.0
C 	29.514145760973665	34.07999999999999	0.0
C 	30.743901834347568	34.78999999999999	0.0
C 	31.97365790772147	34.07999999999999	0.0
C 	33.20341398109537	34.78999999999999	0.0
C 	34.43317005446928	34.07999999999999	0.0
C 	35.662926127843185	34.78999999999999	0.0
C 	36.89268220121708	34.07999999999999	0.0
C 	38.122438274590984	34.78999999999999	0.0
C 	39.35219434796489	34.07999999999999	0.0
C 	40.581950421338796	34.78999999999999	0.0
C 	41.811706494712695	34.07999999999999	0.0
C 	43.0414625680866	34.78999999999999	0.0
C 	44.2712186414605	34.07999999999999	0.0
C 	45.5009747148344	34.78999999999999	0.0
C 	46.730730788208305	34.07999999999999	0.0
C 	47.96048686158221	34.78999999999999	0.0
C 	49.19024293495611	34.07999999999999	0.0
C 	50.41999900833002	34.78999999999999	0.0
C 	51.649755081703915	34.07999999999999	0.0
C 	52.87951115507782	34.78999999999999	0.0
C 	54.10926722845172	34.07999999999999	0.0
C 	55.33902330182562	34.78999999999999	0.0
C 	56.56877937519953	34.07999999999999	0.0
C 	57.79853544857343	34.78999999999999	0.0
C 	59.02829152194733	34.07999999999999	0.0
C 	60.25804759532124	34.78999999999999	0.0
C 	61.487803668695136	34.07999999999999	0.0
C 	62.71755974206905	34.79	0.0
C 	63.947315815442934	34.079999999999984	0.0
C 	65.17707188881685	34.78999999999999	0.0
C 	66.40682796219075	34.07999999999999	0.0
C 	67.63658403556465	34.78999999999999	0.0
C 	68.86634010893854	34.07999999999999	0.0
C 	70.09609618231245	34.78999999999999	0.0
C 	71.32585225568636	34.07999999999999	0.0
C 	72.55560832906025	34.789999999999985	0.0
C 	73.78536440243417	34.07999999999999	0.0
C 	75.01512047580808	34.78999999999999	0.0
C 	76.24487654918197	34.07999999999999	0.0
C 	77.47463262255587	34.78999999999999	0.0
C 	78.70438869592977	34.079999999999984	0.0
C 	79.93414476930369	34.78999999999999	0.0
C 	20.90585324735635	36.209999999999994	0.0
C 	22.135609320730254	36.919999999999995	0.0
C 	23.36536539410416	36.209999999999994	0.0
C 	24.595121467478062	36.919999999999995	0.0
C 	25.82487754085196	36.209999999999994	0.0
C 	27.054633614225864	36.919999999999995	0.0
C 	28.284389687599766	36.209999999999994	0.0
C 	29.514145760973673	36.919999999999995	0.0
C 	30.743901834347575	36.209999999999994	0.0
C 	31.973657907721478	36.919999999999995	0.0
C 	33.20341398109537	36.209999999999994	0.0
C 	34.43317005446928	36.919999999999995	0.0
C 	35.662926127843185	36.209999999999994	0.0
C 	36.89268220121709	36.919999999999995	0.0
C 	38.12243827459099	36.209999999999994	0.0
C 	39.3521943479649	36.919999999999995	0.0
C 	40.581950421338796	36.209999999999994	0.0
C 	41.811706494712695	36.919999999999995	0.0
C 	43.041462568086594	36.209999999999994	0.0
C 	44.2712186414605	36.919999999999995	0.0
C 	45.500974714834406	36.209999999999994	0.0
C 	46.730730788208305	36.919999999999995	0.0
C 	47.96048686158221	36.209999999999994	0.0
C 	49.19024293495612	36.919999999999995	0.0
C 	50.41999900833002	36.20999999999999	0.0
C 	51.649755081703915	36.91999999999999	0.0
C 	52.87951115507782	36.209999999999994	0.0
C 	54.10926722845172	36.91999999999999	0.0
C 	55.33902330182563	36.209999999999994	0.0
C 	56.56877937519953	36.919999999999995	0.0
C 	57.79853544857343	36.20999999999999	0.0
C 	59.02829152194733	36.91999999999999	0.0
C 	60.25804759532123	36.20999999999999	0.0
C 	61.48780366869515	36.919999999999995	0.0
C 	62.71755974206904	36.209999999999994	0.0
C 	63.94731581544295	36.919999999999995	0.0
C 	65.17707188881684	36.209999999999994	0.0
C 	66.40682796219075	36.919999999999995	0.0
C 	67.63658403556467	36.209999999999994	0.0
C 	68.86634010893856	36.91999999999999	0.0
C 	70.09609618231246	36.209999999999994	0.0
C 	71.32585225568636	36.91999999999999	0.0
C 	72.55560832906026	36.209999999999994	0.0
C 	73.78536440243417	36.919999999999995	0.0
C 	75.01512047580806	36.20999999999999	0.0
C 	76.24487654918198	36.919999999999995	0.0
C 	77.47463262255586	36.20999999999999	0.0
C 	78.70438869592978	36.919999999999995	0.0
C 	79.93414476930369	36.20999999999999	0.0
C 	81.16390084267759	36.91999999999999	0.0
C 	22.13560932073025	38.33999999999999	0.0
C 	23.365365394104153	39.04999999999999	0.0
C 	24.59512146747806	38.33999999999999	0.0
C 	25.82487754085196	39.04999999999999	0.0
C 	27.05463361422586	38.33999999999999	0.0
C 	28.284389687599763	39.04999999999999	0.0
C 	29.514145760973665	38.33999999999999	0.0
C 	30.74390183434757	39.04999999999999	0.0
C 	31.973657907721474	38.339999999999996	0.0
C 	33.20341398109538	39.04999999999999	0.0
C 	34.43317005446927	38.33999999999999	0.0
C 	35.66292612784318	39.04999999999999	0.0
C 	36.892682201217085	38.33999999999999	0.0
C 	38.12243827459099	39.04999999999999	0.0
C 	39.35219434796489	38.33999999999999	0.0
C 	40.581950421338796	39.04999999999999	0.0
C 	41.811706494712695	38.33999999999999	0.0
C 	43.0414625680866	39.04999999999999	0.0
C 	44.27121864146049	38.33999999999999	0.0
C 	45.5009747148344	39.04999999999999	0.0
C 	46.730730788208305	38.33999999999999	0.0
C 	47.960486861582204	39.04999999999999	0.0
C 	49.19024293495611	38.33999999999999	0.0
C 	50.41999900833002	39.04999999999999	0.0
C 	51.649755081703915	38.33999999999999	0.0
C 	52.879511155077815	39.04999999999999	0.0
C 	54.10926722845173	38.33999999999999	0.0
C 	55.33902330182562	39.04999999999998	0.0
C 	56.568779375199526	38.33999999999999	0.0
C 	57.79853544857343	39.04999999999999	0.0
C 	59.02829152194733	38.33999999999999	0.0
C 	60.25804759532123	39.04999999999999	0.0
C 	61.48780366869513	38.33999999999998	0.0
C 	62.71755974206905	39.04999999999999	0.0
C 	63.94731581544294	38.33999999999999	0.0
C 	65.17707188881685	39.04999999999999	0.0
C 	66.40682796219075	38.33999999999999	0.0
C 	67.63658403556465	39.04999999999999	0.0
C 	68.86634010893856	38.33999999999999	0.0
C 	70.09609618231245	39.04999999999998	0.0
C 	71.32585225568636	38.33999999999999	0.0
C 	72.55560832906025	39.04999999999998	0.0
C 	73.78536440243415	38.33999999999999	0.0
C 	75.01512047580806	39.04999999999999	0.0
C 	76.24487654918197	38.33999999999999	0.0
C 	77.47463262255587	39.05	0.0
C 	78.70438869592977	38.33999999999998	0.0
C 	79.93414476930369	39.04999999999999	0.0
C 	81.16390084267758	38.33999999999998	0.0
C 	82.39365691605148	39.04999999999998	0.0
C 	23.365365394104156	40.46999999999999	0.0
C 	24.59512146747806	41.17999999999999	0.0
C 	25.82487754085196	40.46999999999999	0.0
C 	27.054633614225867	41.17999999999999	0.0
C 	28.284389687599763	40.46999999999999	0.0
C 	29.51414576097367	41.17999999999999	0.0
C 	30.74390183434757	40.46999999999999	0.0
C 	31.973657907721474	41.17999999999999	0.0
C 	33.20341398109537	40.46999999999999	0.0
C 	34.43317005446928	41.17999999999999	0.0
C 	35.66292612784318	40.46999999999999	0.0
C 	36.892682201217085	41.17999999999999	0.0
C 	38.12243827459099	40.46999999999999	0.0
C 	39.3521943479649	41.17999999999999	0.0
C 	40.58195042133879	40.46999999999999	0.0
C 	41.811706494712695	41.17999999999999	0.0
C 	43.0414625680866	40.46999999999999	0.0
C 	44.2712186414605	41.17999999999999	0.0
C 	45.500974714834406	40.46999999999999	0.0
C 	46.73073078820831	41.17999999999999	0.0
C 	47.960486861582204	40.46999999999999	0.0
C 	49.19024293495611	41.17999999999999	0.0
C 	50.41999900833002	40.46999999999999	0.0
C 	51.649755081703915	41.179999999999986	0.0
C 	52.87951115507782	40.46999999999999	0.0
C 	54.10926722845173	41.17999999999999	0.0
C 	55.33902330182563	40.46999999999999	0.0
C 	56.568779375199526	41.17999999999999	0.0
C 	57.798535448573425	40.469999999999985	0.0
C 	59.028291521947345	41.17999999999999	0.0
C 	60.25804759532124	40.46999999999999	0.0
C 	61.48780366869514	41.17999999999999	0.0
C 	62.71755974206904	40.46999999999999	0.0
C 	63.94731581544295	41.17999999999999	0.0
C 	65.17707188881685	40.46999999999999	0.0
C 	66.40682796219075	41.179999999999986	0.0
C 	67.63658403556465	40.46999999999999	0.0
C 	68.86634010893854	41.179999999999986	0.0
C 	70.09609618231246	40.46999999999999	0.0
C 	71.32585225568636	41.17999999999999	0.0
C 	72.55560832906026	40.469999999999985	0.0
C 	73.78536440243417	41.179999999999986	0.0
C 	75.01512047580806	40.469999999999985	0.0
C 	76.24487654918198	41.17999999999999	0.0
C 	77.47463262255587	40.46999999999999	0.0
C 	78.70438869592978	41.17999999999999	0.0
C 	79.93414476930367	40.469999999999985	0.0
C 	81.16390084267758	41.179999999999986	0.0
C 	82.3936569160515	40.46999999999999	0.0
C 	83.62341298942539	41.179999999999986	0.0
C 	24.595121467478055	42.59999999999999	0.0
C 	25.82487754085196	43.30999999999999	0.0
C 	27.05463361422586	42.59999999999999	0.0
C 	28.284389687599766	43.30999999999999	0.0
C 	29.514145760973662	42.59999999999999	0.0
C 	30.743901834347568	43.30999999999999	0.0
C 	31.97365790772147	42.59999999999999	0.0
C 	33.20341398109537	43.30999999999999	0.0
C 	34.43317005446927	42.59999999999999	0.0
C 	35.66292612784318	43.30999999999999	0.0
C 	36.89268220121708	42.59999999999999	0.0
C 	38.122438274590984	43.30999999999999	0.0
C 	39.35219434796489	42.59999999999999	0.0
C 	40.581950421338796	43.30999999999999	0.0
C 	41.81170649471269	42.59999999999999	0.0
C 	43.041462568086594	43.30999999999999	0.0
C 	44.2712186414605	42.59999999999999	0.0
C 	45.5009747148344	43.30999999999999	0.0
C 	46.730730788208305	42.59999999999999	0.0
C 	47.96048686158221	43.30999999999999	0.0
C 	49.19024293495611	42.59999999999999	0.0
C 	50.41999900833001	43.30999999999999	0.0
C 	51.64975508170392	42.599999999999994	0.0
C 	52.879511155077815	43.30999999999999	0.0
C 	54.10926722845172	42.59999999999999	0.0
C 	55.33902330182563	43.30999999999999	0.0
C 	56.568779375199526	42.59999999999999	0.0
C 	57.798535448573425	43.30999999999999	0.0
C 	59.028291521947324	42.59999999999998	0.0
C 	60.258047595321244	43.30999999999999	0.0
C 	61.487803668695136	42.59999999999999	0.0
C 	62.71755974206904	43.30999999999999	0.0
C 	63.94731581544294	42.59999999999999	0.0
C 	65.17707188881684	43.30999999999999	0.0
C 	66.40682796219076	42.599999999999994	0.0
C 	67.63658403556465	43.30999999999999	0.0
C 	68.86634010893856	42.59999999999999	0.0
C 	70.09609618231245	43.30999999999998	0.0
C 	71.32585225568636	42.59999999999999	0.0
C 	72.55560832906026	43.30999999999999	0.0
C 	73.78536440243415	42.59999999999999	0.0
C 	75.01512047580806	43.30999999999999	0.0
C 	76.24487654918197	42.59999999999998	0.0
C 	77.47463262255587	43.30999999999999	0.0
C 	78.70438869592978	42.59999999999999	0.0
C 	79.93414476930367	43.30999999999999	0.0
C 	81.16390084267758	42.59999999999999	0.0
C 	82.39365691605148	43.30999999999999	0.0
C 	83.62341298942539	42.59999999999999	0.0
C 	84.85316906279928	43.30999999999998	0.0
C 	25.82487754085196	44.72999999999999	0.0
C 	27.054633614225864	45.43999999999999	0.0
C 	28.284389687599766	44.72999999999999	0.0
C 	29.514145760973673	45.43999999999999	0.0
C 	30.743901834347568	44.72999999999999	0.0
C 	31.97365790772147	45.43999999999999	0.0
C 	33.20341398109537	44.72999999999999	0.0
C 	34.43317005446928	45.43999999999999	0.0
C 	35.662926127843185	44.72999999999999	0.0
C 	36.892682201217085	45.43999999999999	0.0
C 	38.122438274590984	44.72999999999999	0.0
C 	39.35219434796489	45.43999999999999	0.0
C 	40.581950421338796	44.72999999999999	0.0
C 	41.811706494712695	45.43999999999999	0.0
C 	43.0414625680866	44.72999999999999	0.0
C 	44.27121864146051	45.43999999999999	0.0
C 	45.500974714834406	44.72999999999999	0.0
C 	46.730730788208305	45.43999999999999	0.0
C 	47.960486861582204	44.72999999999999	0.0
C 	49.19024293495611	45.43999999999998	0.0
C 	50.41999900833002	44.72999999999999	0.0
C 	51.64975508170391	45.43999999999998	0.0
C 	52.87951115507782	44.72999999999999	0.0
C 	54.10926722845172	45.43999999999999	0.0
C 	55.33902330182562	44.72999999999998	0.0
C 	56.568779375199526	45.43999999999998	0.0
C 	57.798535448573425	44.72999999999998	0.0
C 	59.02829152194734	45.43999999999999	0.0
C 	60.25804759532124	44.72999999999999	0.0
C 	61.48780366869514	45.43999999999999	0.0
C 	62.717559742069035	44.72999999999998	0.0
C 	63.94731581544294	45.43999999999998	0.0
C 	65.17707188881685	44.72999999999999	0.0
C 	66.40682796219075	45.43999999999998	0.0
C 	67.63658403556465	44.72999999999999	0.0
C 	68.86634010893856	45.43999999999999	0.0
C 	70.09609618231245	44.72999999999999	0.0
C 	71.32585225568636	45.43999999999998	0.0
C 	72.55560832906026	44.72999999999998	0.0
C 	73.78536440243417	45.43999999999999	0.0
C 	75.01512047580806	44.72999999999998	0.0
C 	76.24487654918198	45.43999999999999	0.0
C 	77.47463262255587	44.72999999999999	0.0
C 	78.70438869592978	45.43999999999999	0.0
C 	79.93414476930369	44.72999999999999	0.0
C 	81.16390084267758	45.43999999999998	0.0
C 	82.39365691605148	44.72999999999999	0.0
C 	83.62341298942538	45.43999999999998	0.0
C 	84.8531690627993	44.72999999999998	0.0
C 	86.08292513617319	45.43999999999998	0.0
C 	27.054633614225864	46.85999999999999	0.0
C 	28.28438968759977	47.56999999999999	0.0
C 	29.514145760973673	46.85999999999999	0.0
C 	30.74390183434758	47.56999999999999	0.0
C 	31.973657907721474	46.85999999999999	0.0
C 	33.20341398109538	47.56999999999999	0.0
C 	34.43317005446928	46.85999999999999	0.0
C 	35.662926127843185	47.56999999999999	0.0
C 	36.892682201217085	46.85999999999999	0.0
C 	38.122438274590984	47.56999999999999	0.0
C 	39.35219434796489	46.85999999999999	0.0
C 	40.581950421338796	47.56999999999999	0.0
C 	41.8117064947127	46.85999999999999	0.0
C 	43.0414625680866	47.56999999999999	0.0
C 	44.2712186414605	46.85999999999999	0.0
C 	45.500974714834406	47.56999999999999	0.0
C 	46.73073078820831	46.859999999999985	0.0
C 	47.960486861582204	47.569999999999986	0.0
C 	49.19024293495612	46.85999999999999	0.0
C 	50.41999900833002	47.56999999999999	0.0
C 	51.649755081703915	46.859999999999985	0.0
C 	52.87951115507782	47.569999999999986	0.0
C 	54.10926722845172	46.859999999999985	0.0
C 	55.339023301825634	47.56999999999999	0.0
C 	56.56877937519953	46.85999999999999	0.0
C 	57.79853544857344	47.56999999999999	0.0
C 	59.02829152194733	46.859999999999985	0.0
C 	60.25804759532124	47.569999999999986	0.0
C 	61.48780366869515	46.85999999999999	0.0
C 	62.71755974206904	47.569999999999986	0.0
C 	63.94731581544295	46.85999999999999	0.0
C 	65.17707188881685	47.56999999999999	0.0
C 	66.40682796219075	46.859999999999985	0.0
C 	67.63658403556465	47.569999999999986	0.0
C 	68.86634010893856	46.859999999999985	0.0
C 	70.09609618231246	47.56999999999999	0.0
C 	71.32585225568636	46.859999999999985	0.0
C 	72.55560832906028	47.56999999999999	0.0
C 	73.78536440243417	46.859999999999985	0.0
C 	75.01512047580808	47.569999999999986	0.0
C 	76.24487654918197	46.859999999999985	0.0
C 	77.47463262255587	47.569999999999986	0.0
C 	78.70438869592978	46.85999999999999	0.0
C 	79.93414476930367	47.569999999999986	0.0
C 	81.16390084267758	46.85999999999999	0.0
C 	82.39365691605148	47.56999999999999	0.0
C 	83.62341298942539	46.859999999999985	0.0
C 	84.8531690627993	47.569999999999986	0.0
C 	86.08292513617319	46.85999999999998	0.0
C 	87.31268120954711	47.569999999999986	0.0
C 	28.284389687599763	48.98999999999999	0.0
C 	29.51414576097367	49.69999999999999	0.0
C 	30.74390183434757	48.98999999999999	0.0
C 	31.973657907721478	49.69999999999999	0.0
C 	33.20341398109537	48.98999999999999	0.0
C 	34.43317005446928	49.69999999999999	0.0
C 	35.66292612784318	48.98999999999999	0.0
C 	36.892682201217085	49.69999999999999	0.0
C 	38.122438274590984	48.98999999999999	0.0
C 	39.35219434796488	49.69999999999999	0.0
C 	40.58195042133879	48.98999999999999	0.0
C 	41.811706494712695	49.69999999999999	0.0
C 	43.041462568086594	48.98999999999999	0.0
C 	44.2712186414605	49.69999999999999	0.0
C 	45.5009747148344	48.98999999999999	0.0
C 	46.730730788208305	49.69999999999998	0.0
C 	47.96048686158221	48.98999999999999	0.0
C 	49.1902429349561	49.69999999999998	0.0
C 	50.41999900833002	48.98999999999999	0.0
C 	51.64975508170392	49.69999999999999	0.0
C 	52.879511155077815	48.98999999999999	0.0
C 	54.10926722845172	49.69999999999999	0.0
C 	55.33902330182562	48.98999999999998	0.0
C 	56.56877937519953	49.69999999999999	0.0
C 	57.79853544857343	48.98999999999999	0.0
C 	59.02829152194734	49.69999999999999	0.0
C 	60.25804759532124	48.98999999999999	0.0
C 	61.487803668695136	49.69999999999999	0.0
C 	62.71755974206905	48.98999999999999	0.0
C 	63.94731581544294	49.69999999999998	0.0
C 	65.17707188881685	48.98999999999999	0.0
C 	66.40682796219075	49.69999999999999	0.0
C 	67.63658403556465	48.98999999999999	0.0
C 	68.86634010893856	49.69999999999999	0.0
C 	70.09609618231245	48.98999999999998	0.0
C 	71.32585225568637	49.69999999999999	0.0
C 	72.55560832906025	48.98999999999998	0.0
C 	73.78536440243417	49.69999999999999	0.0
C 	75.01512047580806	48.98999999999999	0.0
C 	76.24487654918197	49.69999999999999	0.0
C 	77.47463262255587	48.98999999999998	0.0
C 	78.70438869592978	49.69999999999998	0.0
C 	79.93414476930369	48.98999999999999	0.0
C 	81.16390084267758	49.69999999999998	0.0
C 	82.39365691605148	48.98999999999999	0.0
C 	83.62341298942539	49.69999999999999	0.0
C 	84.85316906279928	48.98999999999998	0.0
C 	86.08292513617319	49.69999999999998	0.0
C 	87.3126812095471	48.98999999999998	0.0
C 	88.542437282921	49.69999999999999	0.0
C 	29.51414576097367	51.11999999999999	0.0
C 	30.74390183434757	51.82999999999999	0.0
C 	31.973657907721474	51.11999999999999	0.0
C 	33.20341398109538	51.82999999999999	0.0
C 	34.43317005446928	51.11999999999999	0.0
C 	35.66292612784318	51.82999999999999	0.0
C 	36.892682201217085	51.11999999999999	0.0
C 	38.12243827459099	51.82999999999999	0.0
C 	39.35219434796489	51.12	0.0
C 	40.581950421338796	51.83	0.0
C 	41.811706494712695	51.11999999999999	0.0
C 	43.041462568086594	51.82999999999999	0.0
C 	44.2712186414605	51.12	0.0
C 	45.5009747148344	51.82999999999999	0.0
C 	46.73073078820831	51.11999999999999	0.0
C 	47.96048686158221	51.82999999999999	0.0
C 	49.19024293495611	51.11999999999999	0.0
C 	50.41999900833002	51.82999999999999	0.0
C 	51.649755081703915	51.11999999999998	0.0
C 	52.879511155077815	51.829999999999984	0.0
C 	54.10926722845171	51.11999999999999	0.0
C 	55.33902330182563	51.83	0.0
C 	56.568779375199526	51.11999999999999	0.0
C 	57.79853544857343	51.82999999999999	0.0
C 	59.02829152194733	51.11999999999999	0.0
C 	60.25804759532124	51.82999999999999	0.0
C 	61.48780366869514	51.11999999999999	0.0
C 	62.717559742069035	51.829999999999984	0.0
C 	63.94731581544295	51.11999999999999	0.0
C 	65.17707188881685	51.82999999999999	0.0
C 	66.40682796219075	51.11999999999999	0.0
C 	67.63658403556465	51.82999999999999	0.0
C 	68.86634010893854	51.11999999999998	0.0
C 	70.09609618231246	51.82999999999999	0.0
C 	71.32585225568636	51.11999999999999	0.0
C 	72.55560832906026	51.82999999999999	0.0
C 	73.78536440243417	51.11999999999999	0.0
C 	75.01512047580806	51.82999999999999	0.0
C 	76.24487654918198	51.11999999999999	0.0
C 	77.47463262255587	51.829999999999984	0.0
C 	78.70438869592978	51.11999999999999	0.0
C 	79.93414476930367	51.829999999999984	0.0
C 	81.16390084267758	51.11999999999999	0.0
C 	82.39365691605148	51.82999999999999	0.0
C 	83.62341298942538	51.11999999999998	0.0
C 	84.8531690627993	51.82999999999999	0.0
C 	86.08292513617319	51.11999999999998	0.0
C 	87.3126812095471	51.82999999999999	0.0
C 	88.542437282921	51.11999999999998	0.0
C 	89.7721933562949	51.829999999999984	0.0
C 	51.19503016658401	-0.6236074426701127	2.15
C 	52.577512208663904	-0.2993492071129826	2.15
C 	52.987937360325056	1.0600444793825547	2.15
C 	54.37041940240494	1.3843027149396885	2.15
C 	54.780844554066086	2.743696401435226	2.15
C 	56.16332659614598	3.067954636992351	2.15
C 	56.57375174780712	4.427348323487888	2.15
C 	48.84049123408539	0.08726977271116779	2.15
C 	50.22297327616528	0.4115280082682911	2.15
C 	50.63339842782643	1.7709216947638284	2.15
C 	52.01588046990632	2.0951799303209606	2.15
C 	52.426305621567465	3.4545736168164978	2.15
C 	53.80878766364736	3.7788318523736297	2.15
C 	54.21921281530851	5.138225538869167	2.15
C 	55.60169485738839	5.462483774426294	2.15
C 	56.01212000904954	6.821877460921831	2.15
C 	57.394602051129425	7.1461356964789635	2.15
C 	57.805027202790576	8.505529382974501	2.15
C 	59.18750924487047	8.82978761853163	2.15
C 	59.59793439653162	10.189181305027168	2.15
C 	60.98041643861149	10.513439540584297	2.15
C 	61.39084159027264	11.872833227079834	2.15
C 	44.69304510784572	-0.8855049339602364	2.15
C 	46.07552714992561	-0.5612466984031012	2.15
C 	46.485952301586764	0.7981469880924329	2.15
C 	47.86843434366664	1.1224052236495698	2.15
C 	48.278859495327794	2.481798910145104	2.15
C 	49.66134153740769	2.8060571457022325	2.15
C 	50.07176668906884	4.165450832197767	2.15
C 	51.45424873114873	4.4897090677549	2.15
C 	51.864673882809875	5.849102754250434	2.15
C 	53.24715592488977	6.173360989807569	2.15
C 	53.65758107655092	7.532754676303103	2.15
C 	55.040063118630805	7.857012911860232	2.15
C 	55.450488270291956	9.216406598355766	2.15
C 	56.832970312371835	9.540664833912903	2.15
C 	57.243395464032986	10.900058520408438	2.15
C 	58.62587750611288	11.224316755965573	2.15
C 	59.03630265777402	12.583710442461106	2.15
C 	60.418784699853916	12.907968678018234	2.15
C 	60.82920985151506	14.267362364513769	2.15
C 	62.21169189359495	14.591620600070904	2.15
C 	62.622117045256104	15.951014286566439	2.15
C 	64.00459908733599	16.27527252212357	2.15
C 	64.41502423899713	17.63466620861911	2.15
C 	42.3385061753471	-0.17462771857895415	2.15
C 	43.720988217426985	0.14963051697816915	2.15
C 	44.131413369088136	1.5090242034737067	2.15
C 	45.51389541116802	1.8332824390308384	2.15
C 	45.92432056282917	3.192676125526376	2.15
C 	47.306802604909066	3.516934361083508	2.15
C 	47.71722775657021	4.876328047579046	2.15
C 	49.099709798650096	5.200586283136172	2.15
C 	49.51013495031124	6.559979969631709	2.15
C 	50.89261699239114	6.884238205188842	2.15
C 	51.30304214405229	8.243631891684378	2.15
C 	52.68552418613218	8.567890127241508	2.15
C 	53.09594933779333	9.927283813737047	2.15
C 	54.478431379873214	10.251542049294171	2.15
C 	54.888856531534366	11.61093573578971	2.15
C 	56.271338573614244	11.935193971346845	2.15
C 	56.681763725275395	13.294587657842381	2.15
C 	58.06424576735529	13.618845893399511	2.15
C 	58.47467091901644	14.97823957989505	2.15
C 	59.857152961096325	15.302497815452174	2.15
C 	60.26757811275748	16.66189150194771	2.15
C 	61.65006015483737	16.986149737504842	2.15
C 	62.06048530649852	18.34554342400038	2.15
C 	63.44296734857839	18.669801659557514	2.15
C 	63.85339250023954	20.02919534605305	2.15
C 	65.23587454231944	20.353453581610175	2.15
C 	65.64629969398058	21.712847268105712	2.15
C 	67.02878173606048	22.037105503662836	2.15
C 	67.43920688772162	23.396499190158377	2.15
C 	39.98396724284848	0.536249496802316	2.15
C 	41.36644928492836	0.8605077323594497	2.15
C 	41.77687443658951	2.2199014188549873	2.15
C 	43.159356478669395	2.544159654412114	2.15
C 	43.569781630330546	3.9035533409076515	2.15
C 	44.95226367241044	4.227811576464782	2.15
C 	45.36268882407158	5.587205262960319	2.15
C 	46.745170866151476	5.911463498517451	2.15
C 	47.15559601781263	7.270857185012988	2.15
C 	48.53807805989251	7.595115420570114	2.15
C 	48.948503211553664	8.95450910706565	2.15
C 	50.33098525363355	9.278767342622782	2.15
C 	50.7414104052947	10.63816102911832	2.15
C 	52.12389244737459	10.962419264675454	2.15
C 	52.53431759903574	12.32181295117099	2.15
C 	53.916799641115624	12.646071186728115	2.15
C 	54.327224792776775	14.005464873223652	2.15
C 	55.70970683485666	14.329723108780785	2.15
C 	56.12013198651781	15.689116795276323	2.15
C 	57.502614028597705	16.01337503083345	2.15
C 	57.913039180258856	17.37276871732899	2.15
C 	59.295521222338735	17.697026952886116	2.15
C 	59.705946373999886	19.056420639381656	2.15
C 	61.08842841607977	19.380678874938788	2.15
C 	61.49885356774092	20.740072561434324	2.15
C 	62.881335609820816	21.064330796991456	2.15
C 	63.29176076148196	22.423724483486993	2.15
C 	64.67424280356185	22.747982719044117	2.15
C 	65.084667955223	24.107376405539657	2.15
C 	66.46714999730288	24.43163464109678	2.15
C 	66.87757514896404	25.79102832759232	2.15
C 	68.26005719104393	26.115286563149457	2.15
C 	68.67048234270509	27.474680249644994	2.15
C 	70.05296438478497	27.798938485202118	2.15
C 	70.46338953644612	29.15833217169766	2.15
C 	71.845871578526	29.482590407254783	2.15
C 	72.25629673018715	30.84198409375032	2.15
C 	35.83652111660881	-0.4365252098690796	2.15
C 	37.21900315868869	-0.11226697431194257	2.15
C 	37.629428310349844	1.2471267121835914	2.15
C 	39.01191035242974	1.57138494774072	2.15
C 	39.42233550409089	2.930778634236254	2.15
C 	40.804817546170774	3.2550368697933876	2.15
C 	41.215242697831926	4.614430556288921	2.15
C 	42.597724739911804	4.938688791846052	2.15
C 	43.008149891572955	6.298082478341586	2.15
C 	44.39063193365285	6.622340713898723	2.15
C 	44.80105708531399	7.981734400394257	2.15
C 	46.183539127393885	8.305992635951391	2.15
C 	46.59396427905504	9.665386322446924	2.15
C 	47.97644632113492	9.989644558004052	2.15
C 	48.386871472796074	11.349038244499587	2.15
C 	49.76935351487597	11.67329648005672	2.15
C 	50.17977866653712	13.032690166552255	2.15
C 	51.562260708617	13.356948402109392	2.15
C 	51.97268586027815	14.716342088604925	2.15
C 	53.35516790235804	15.040600324162055	2.15
C 	53.765593054019185	16.39999401065759	2.15
C 	55.14807509609908	16.724252246214725	2.15
C 	55.55850024776023	18.083645932710258	2.15
C 	56.940982289840115	18.40790416826739	2.15
C 	57.351407441501266	19.767297854762926	2.15
C 	58.733889483581144	20.091556090320054	2.15
C 	59.144314635242296	21.45094977681559	2.15
C 	60.52679667732219	21.77520801237273	2.15
C 	60.93722182898333	23.13460169886826	2.15
C 	62.319703871063226	23.45885993442539	2.15
C 	62.73012902272437	24.81825362092093	2.15
C 	64.11261106480427	25.142511856478052	2.15
C 	64.52303621646541	26.50190554297359	2.15
C 	65.9055182585453	26.826163778530717	2.15
C 	66.31594341020646	28.185557465026253	2.15
C 	67.69842545228633	28.509815700583392	2.15
C 	68.10885060394749	29.869209387078932	2.15
C 	69.49133264602737	30.193467622636057	2.15
C 	69.90175779768853	31.552861309131593	2.15
C 	71.28423983976842	31.877119544688718	2.15
C 	71.69466499142956	33.236513231184254	2.15
C 	73.07714703350945	33.56077146674139	2.15
C 	73.4875721851706	34.92016515323693	2.15
C 	74.87005422725048	35.24442338879406	2.15
C 	75.28047937891164	36.6038170752896	2.15
C 	33.48198218411019	0.27435200551219746	2.15
C 	34.864464226190066	0.5986102410693277	2.15
C 	35.27488937785122	1.958003927564865	2.15
C 	36.65737141993111	2.2822621631219953	2.15
C 	37.06779657159226	3.641655849617533	2.15
C 	38.45027861367214	3.9659140851746595	2.15
C 	38.86070376533329	5.325307771670197	2.15
C 	40.24318580741319	5.649566007227329	2.15
C 	40.653610959074335	7.008959693722867	2.15
C 	42.03609300115422	7.333217929279991	2.15
C 	42.446518152815365	8.69261161577553	2.15
C 	43.82900019489526	9.016869851332661	2.15
C 	44.23942534655641	10.376263537828198	2.15
C 	45.621907388636295	10.700521773385331	2.15
C 	46.032332540297446	12.05991545988087	2.15
C 	47.41481458237733	12.384173695437992	2.15
C 	47.82523973403848	13.74356738193353	2.15
C 	49.20772177611837	14.067825617490662	2.15
C 	49.61814692777952	15.427219303986199	2.15
C 	51.00062896985941	15.75147753954333	2.15
C 	51.411054121520564	17.110871226038867	2.15
C 	52.79353616360045	17.435129461595995	2.15
C 	53.2039613152616	18.794523148091532	2.15
C 	54.58644335734149	19.118781383648663	2.15
C 	54.99686850900264	20.478175070144204	2.15
C 	56.379350551082524	20.80243330570133	2.15
C 	56.789775702743675	22.16182699219687	2.15
C 	58.172257744823554	22.486085227753996	2.15
C 	58.582682896484705	23.845478914249533	2.15
C 	59.965164938564605	24.169737149806664	2.15
C 	60.37559009022575	25.5291308363022	2.15
C 	61.758072132305635	25.853389071859336	2.15
C 	62.168497283966786	27.212782758354873	2.15
C 	63.55097932604667	27.537040993911997	2.15
C 	63.96140447770782	28.896434680407534	2.15
C 	65.34388651978772	29.22069291596466	2.15
C 	65.75431167144886	30.580086602460195	2.15
C 	67.13679371352875	30.904344838017337	2.15
C 	67.5472188651899	32.263738524512874	2.15
C 	68.92970090726979	32.58799676007	2.15
C 	69.34012605893093	33.947390446565535	2.15
C 	70.72260810101082	34.27164868212266	2.15
C 	71.13303325267198	35.631042368618196	2.15
C 	72.51551529475186	35.955300604175335	2.15
C 	72.92594044641301	37.31469429067087	2.15
C 	74.3084224884929	37.638952526228	2.15
C 	74.71884764015404	38.99834621272354	2.15
C 	76.10132968223394	39.322604448280664	2.15
C 	76.5117548338951	40.6819981347762	2.15
C 	29.33453605787052	-0.6984227011591948	2.15
C 	30.717018099950412	-0.3741644656020629	2.15
C 	31.127443251611563	0.9852292208934745	2.15
C 	32.509925293691445	1.3094874564506047	2.15
C 	32.9203504453526	2.6688811429461423	2.15
C 	34.30283248743248	2.993139378503269	2.15
C 	34.713257639093634	4.3525330649988065	2.15
C 	36.09573968117352	4.67679130055594	2.15
C 	36.50616483283467	6.036184987051477	2.15
C 	37.88864687491456	6.360443222608601	2.15
C 	38.29907202657571	7.7198369091041386	2.15
C 	39.68155406865559	8.044095144661272	2.15
C 	40.091979220316745	9.403488831156809	2.15
C 	41.47446126239664	9.727747066713935	2.15
C 	41.88488641405779	11.087140753209471	2.15
C 	43.26736845613767	11.411398988766603	2.15
C 	43.67779360779882	12.770792675262141	2.15
C 	45.060275649878704	13.095050910819273	2.15
C 	45.470700801539856	14.45444459731481	2.15
C 	46.85318284361974	14.778702832871938	2.15
C 	47.26360799528089	16.138096519367476	2.15
C 	48.646090037360786	16.462354754924604	2.15
C 	49.05651518902194	17.82174844142014	2.15
C 	50.43899723110182	18.146006676977272	2.15
C 	50.849422382762974	19.505400363472813	2.15
C 	52.23190442484286	19.829658599029937	2.15
C 	52.64232957650401	21.189052285525474	2.15
C 	54.02481161858389	21.51331052108261	2.15
C 	54.43523677024504	22.872704207578145	2.15
C 	55.81771881232494	23.196962443135277	2.15
C 	56.228143963986085	24.556356129630814	2.15
C 	57.61062600606597	24.880614365187938	2.15
C 	58.021051157727115	26.24000805168348	2.15
C 	59.40353319980701	26.56426628724061	2.15
C 	59.81395835146816	27.923659973736147	2.15
C 	61.196440393548045	28.247918209293278	2.15
C 	61.606865545209196	29.60731189578882	2.15
C 	62.98934758728908	29.93157013134594	2.15
C 	63.39977273895023	31.29096381784148	2.15
C 	64.78225478103012	31.615222053398604	2.15
C 	65.19267993269128	32.97461573989414	2.15
C 	66.57516197477116	33.29887397545128	2.15
C 	66.9855871264323	34.658267661946816	2.15
C 	68.36806916851219	34.98252589750394	2.15
C 	68.77849432017335	36.34191958399948	2.15
C 	70.16097636225322	36.6661778195566	2.15
C 	70.57140151391438	38.02557150605214	2.15
C 	71.95388355599428	38.34982974160928	2.15
C 	72.36430870765543	39.70922342810482	2.15
C 	73.74679074973531	40.033481663661945	2.15
C 	74.15721590139646	41.39287535015748	2.15
C 	75.53969794347634	41.717133585714606	2.15
C 	75.9501230951375	43.07652727221014	2.15
C 	26.979997125371895	0.012454514222075526	2.15
C 	28.362479167451788	0.3367127497792065	2.15
C 	28.772904319112936	1.6961064362747404	2.15
C 	30.155386361192818	2.0203646718318766	2.15
C 	30.56581151285397	3.3797583583274107	2.15
C 	31.94829355493386	3.7040165938845426	2.15
C 	32.358718706595006	5.063410280380077	2.15
C 	33.74120074867489	5.38766851593721	2.15
C 	34.15162590033604	6.747062202432744	2.15
C 	35.534107942415936	7.071320437989878	2.15
C 	35.94453309407708	8.430714124485412	2.15
C 	37.327015136156966	8.754972360042542	2.15
C 	37.73744028781812	10.114366046538077	2.15
C 	39.11992232989801	10.43862428209521	2.15
C 	39.53034748155916	11.798017968590743	2.15
C 	40.91282952363904	12.122276204147873	2.15
C 	41.32325467530019	13.481669890643408	2.15
C 	42.705736717380084	13.805928126200543	2.15
C 	43.116161869041235	15.165321812696078	2.15
C 	44.49864391112112	15.489580048253213	2.15
C 	44.909069062782265	16.848973734748746	2.15
C 	46.29155110486216	17.173231970305874	2.15
C 	46.7019762565233	18.532625656801407	2.15
C 	48.0844582986032	18.856883892358542	2.15
C 	48.49488345026435	20.216277578854076	2.15
C 	49.87736549234423	20.54053581441121	2.15
C 	50.28779064400538	21.899929500906747	2.15
C 	51.67027268608527	22.224187736463872	2.15
C 	52.08069783774642	23.58358142295941	2.15
C 	53.46317987982631	23.907839658516547	2.15
C 	53.87360503148746	25.26723334501208	2.15
C 	55.25608707356735	25.591491580569212	2.15
C 	55.666512225228495	26.95088526706475	2.15
C 	57.04899426730839	27.275143502621876	2.15
C 	57.45941941896953	28.634537189117413	2.15
C 	58.841901461049424	28.95879542467455	2.15
C 	59.252326612710576	30.31818911117008	2.15
C 	60.634808654790454	30.642447346727213	2.15
C 	61.045233806451606	32.00184103322275	2.15
C 	62.4277158485315	32.32609926877988	2.15
C 	62.83814100019265	33.685492955275414	2.15
C 	64.22062304227254	34.00975119083254	2.15
C 	64.6310481939337	35.369144877328075	2.15
C 	66.01353023601357	35.693403112885214	2.15
C 	66.42395538767472	37.05279679938075	2.15
C 	67.80643742975461	37.377055034937875	2.15
C 	68.21686258141577	38.73644872143341	2.15
C 	69.59934462349564	39.06070695699054	2.15
C 	70.0097697751568	40.42010064348608	2.15
C 	71.39225181723668	40.74435887904322	2.15
C 	71.80267696889784	42.103752565538755	2.15
C 	73.18515901097773	42.42801080109588	2.15
C 	73.59558416263887	43.78740448759142	2.15
C 	74.97806620471876	44.11166272314854	2.15
C 	75.38849135637992	45.47105640964408	2.15
C 	22.83255099913223	-0.9603201924493193	2.15
C 	24.21503304121212	-0.6360619568921848	2.15
C 	24.62545819287327	0.7233317296033509	2.15
C 	26.00794023495316	1.0475899651604803	2.15
C 	26.418365386614308	2.406983651656016	2.15
C 	27.800847428694194	2.731241887213147	2.15
C 	28.21127258035534	4.090635573708683	2.15
C 	29.593754622435235	4.414893809265815	2.15
C 	30.004179774096386	5.774287495761351	2.15
C 	31.386661816176268	6.098545731318482	2.15
C 	31.797086967837416	7.457939417814016	2.15
C 	33.17956900991731	7.782197653371148	2.15
C 	33.58999416157846	9.141591339866686	2.15
C 	34.972476203658346	9.46584957542382	2.15
C 	35.3829013553195	10.825243261919356	2.15
C 	36.76538339739938	11.14950149747648	2.15
C 	37.175808549060534	12.508895183972017	2.15
C 	38.55829059114042	12.83315341952915	2.15
C 	38.968715742801564	14.192547106024689	2.15
C 	40.35119778488146	14.516805341581811	2.15
C 	40.76162293654261	15.87619902807735	2.15
C 	42.14410497862249	16.200457263634483	2.15
C 	42.55453013028364	17.55985095013002	2.15
C 	43.93701217236354	17.88410918568715	2.15
C 	44.34743732402469	19.243502872182688	2.15
C 	45.72991936610457	19.567761107739816	2.15
C 	46.14034451776572	20.927154794235353	2.15
C 	47.522826559845605	21.251413029792484	2.15
C 	47.933251711506756	22.61080671628802	2.15
C 	49.31573375358665	22.935064951845153	2.15
C 	49.7261589052478	24.29445863834069	2.15
C 	51.10864094732768	24.618716873897817	2.15
C 	51.51906609898883	25.978110560393354	2.15
C 	52.901548141068716	26.302368795950485	2.15
C 	53.31197329272986	27.661762482446026	2.15
C 	54.69445533480976	27.986020718003154	2.15
C 	55.10488048647091	29.34541440449869	2.15
C 	56.48736252855079	29.66967264005582	2.15
C 	56.89778768021194	31.029066326551355	2.15
C 	58.280269722291834	31.353324562108487	2.15
C 	58.690694873952985	32.71271824860403	2.15
C 	60.07317691603287	33.03697648416116	2.15
C 	60.483602067694015	34.396370170656695	2.15
C 	61.86608410977391	34.72062840621382	2.15
C 	62.27650926143505	36.080022092709356	2.15
C 	63.65899130351495	36.40428032826648	2.15
C 	64.0694164551761	37.76367401476202	2.15
C 	65.45189849725598	38.087932250319156	2.15
C 	65.86232364891713	39.44732593681469	2.15
C 	67.24480569099703	39.771584172371824	2.15
C 	67.65523084265817	41.13097785886736	2.15
C 	69.03771288473806	41.455236094424485	2.15
C 	69.44813803639921	42.81462978092002	2.15
C 	70.8306200784791	43.13888801647716	2.15
C 	71.24104523014024	44.4982817029727	2.15
C 	72.62352727222013	44.82253993852982	2.15
C 	73.03395242388127	46.18193362502535	2.15
C 	74.41643446596117	46.50619186058249	2.15
C 	20.478012066633603	-0.2494429770680456	2.15
C 	21.860494108713493	0.07481525848908457	2.15
C 	22.27091926037464	1.4342089449846203	2.15
C 	23.653401302454533	1.758467180541754	2.15
C 	24.06382645411568	3.11786086703729	2.15
C 	25.44630849619557	3.442119102594421	2.15
C 	25.856733647856718	4.801512789089957	2.15
C 	27.239215689936607	5.125771024647086	2.15
C 	27.64964084159776	6.485164711142621	2.15
C 	29.032122883677644	6.809422946699756	2.15
C 	29.442548035338792	8.16881663319529	2.15
C 	30.825030077418685	8.493074868752421	2.15
C 	31.235455229079836	9.852468555247958	2.15
C 	32.61793727115972	10.176726790805088	2.15
C 	33.02836242282086	11.536120477300623	2.15
C 	34.410844464900755	11.860378712857758	2.15
C 	34.821269616561906	13.21977239935329	2.15
C 	36.20375165864179	13.54403063491042	2.15
C 	36.61417681030294	14.903424321405955	2.15
C 	37.99665885238283	15.227682556963089	2.15
C 	38.40708400404398	16.587076243458622	2.15
C 	39.789566046123866	16.911334479015753	2.15
C 	40.19999119778501	18.270728165511287	2.15
C 	41.58247323986491	18.59498640106842	2.15
C 	41.992898391526055	19.954380087563955	2.15
C 	43.37538043360594	20.278638323121093	2.15
C 	43.78580558526709	21.638032009616627	2.15
C 	45.168287627346984	21.962290245173758	2.15
C 	45.578712779008136	23.321683931669288	2.15
C 	46.96119482108802	23.64594216722642	2.15
C 	47.37161997274917	25.005335853721956	2.15
C 	48.75410201482906	25.329594089279095	2.15
C 	49.1645271664902	26.688987775774628	2.15
C 	50.5470092085701	27.013246011331756	2.15
C 	50.95743436023125	28.37263969782729	2.15
C 	52.33991640231113	28.69689793338442	2.15
C 	52.75034155397228	30.056291619879957	2.15
C 	54.13282359605217	30.380549855437096	2.15
C 	54.54324874771332	31.73994354193263	2.15
C 	55.92573078979321	32.06420177748976	2.15
C 	56.33615594145436	33.42359546398529	2.15
C 	57.718637983534244	33.747853699542425	2.15
C 	58.129063135195395	35.10724738603796	2.15
C 	59.51154517727529	35.4315056215951	2.15
C 	59.92197032893643	36.79089930809063	2.15
C 	61.304452371016325	37.11515754364776	2.15
C 	61.71487752267747	38.47455123014329	2.15
C 	63.09735956475736	38.79880946570042	2.15
C 	63.507784716418506	40.15820315219595	2.15
C 	64.8902667584984	40.4824613877531	2.15
C 	65.30069191015954	41.84185507424863	2.15
C 	66.68317395223944	42.16611330980576	2.15
C 	67.09359910390059	43.525506996301296	2.15
C 	68.47608114598047	43.84976523185843	2.15
C 	68.88650629764162	45.20915891835396	2.15
C 	70.26898833972152	45.5334171539111	2.15
C 	18.12347313413498	0.4614342383132289	2.15
C 	19.50595517621487	0.78569247387036	2.15
C 	19.91638032787602	2.1450861603658957	2.15
C 	21.298862369955902	2.469344395923026	2.15
C 	21.709287521617053	3.8287380824185617	2.15
C 	23.091769563696943	4.1529963179756955	2.15
C 	23.502194715358094	5.512390004471231	2.15
C 	24.884676757437983	5.83664824002836	2.15
C 	25.295101909099134	7.196041926523896	2.15
C 	26.67758395117902	7.5203001620810275	2.15
C 	27.088009102840168	8.879693848576563	2.15
C 	28.470491144920057	9.203952084133695	2.15
C 	28.88091629658121	10.563345770629232	2.15
C 	30.263398338661094	10.887604006186365	2.15
C 	30.673823490322242	12.246997692681898	2.15
C 	32.056305532402135	12.571255928239026	2.15
C 	32.466730684063286	13.930649614734564	2.15
C 	33.849212726143165	14.254907850291696	2.15
C 	34.259637877804316	15.614301536787234	2.15
C 	35.64211991988421	15.938559772344359	2.15
C 	36.05254507154535	17.297953458839896	2.15
C 	37.43502711362524	17.62221169439703	2.15
C 	37.84545226528639	18.981605380892567	2.15
C 	39.227934307366276	19.30586361644969	2.15
C 	39.63835945902743	20.66525730294523	2.15
C 	41.02084150110731	20.989515538502364	2.15
C 	41.431266652768464	22.3489092249979	2.15
C 	42.81374869484836	22.673167460555028	2.15
C 	43.22417384650951	24.03256114705057	2.15
C 	44.60665588858939	24.356819382607693	2.15
C 	45.01708104025054	25.71621306910323	2.15
C 	46.39956308233043	26.040471304660365	2.15
C 	46.80998823399158	27.3998649911559	2.15
C 	48.192470276071475	27.72412322671303	2.15
C 	48.60289542773262	29.08351691320857	2.15
C 	49.985377469812505	29.407775148765694	2.15
C 	50.39580262147365	30.76716883526123	2.15
C 	51.77828466355354	31.091427070818366	2.15
C 	52.18870981521469	32.450820757313906	2.15
C 	53.57119185729458	32.77507899287103	2.15
C 	53.98161700895573	34.134472679366574	2.15
C 	55.36409905103561	34.4587309149237	2.15
C 	55.77452420269676	35.818124601419235	2.15
C 	57.15700624477666	36.14238283697637	2.15
C 	57.567431396437804	37.501776523471904	2.15
C 	58.94991343851769	37.826034759029035	2.15
C 	59.36033859017884	39.18542844552457	2.15
C 	60.742820632258734	39.509686681081696	2.15
C 	61.153245783919886	40.86908036757723	2.15
C 	62.53572782599977	41.19333860313436	2.15
C 	62.94615297766092	42.552732289629894	2.15
C 	64.3286350197408	42.87699052518704	2.15
C 	64.73906017140196	44.23638421168258	2.15
C 	66.12154221348185	44.5606424472397	2.15
C 	66.531967365143	45.92003613373524	2.15
C 	67.91444940722288	46.24429436929236	2.15
C 	13.976027007895318	-0.5113404683581637	2.15
C 	15.358509049975206	-0.18708223280103145	2.15
C 	15.768934201636355	1.1723114536945043	2.15
C 	17.15141624371624	1.4965696892516345	2.15
C 	17.561841395377392	2.8559633757471703	2.15
C 	18.94432343745728	3.1802216113043005	2.15
C 	19.35474858911843	4.539615297799836	2.15
C 	20.73723063119832	4.863873533356967	2.15
C 	21.147655782859466	6.223267219852503	2.15
C 	22.530137824939352	6.5475254554096365	2.15
C 	22.940562976600503	7.906919141905172	2.15
C 	24.323045018680393	8.231177377462302	2.15
C 	24.73347017034154	9.590571063957837	2.15
C 	26.11595221242143	9.914829299514968	2.15
C 	26.52637736408258	11.274222986010505	2.15
C 	27.90885940616247	11.598481221567638	2.15
C 	28.319284557823618	12.957874908063175	2.15
C 	29.701766599903504	13.282133143620305	2.15
C 	30.11219175156465	14.641526830115838	2.15
C 	31.49467379364454	14.96578506567297	2.15
C 	31.905098945305692	16.325178752168508	2.15
C 	33.28758098738558	16.64943698772564	2.15
C 	33.69800613904673	18.008830674221176	2.15
C 	35.08048818112661	18.3330889097783	2.15
C 	35.49091333278776	19.69248259627384	2.15
C 	36.873395374867656	20.016740831830973	2.15
C 	37.28382052652881	21.37613451832651	2.15
C 	38.66630256860869	21.700392753883637	2.15
C 	39.076727720269844	23.059786440379174	2.15
C 	40.45920976234973	23.384044675936305	2.15
C 	40.86963491401088	24.743438362431842	2.15
C 	42.25211695609077	25.067696597988974	2.15
C 	42.66254210775192	26.42709028448451	2.15
C 	44.045024149831804	26.751348520041635	2.15
C 	44.455449301492955	28.11074220653717	2.15
C 	45.83793134357285	28.435000442094303	2.15
C 	46.24835649523399	29.794394128589843	2.15
C 	47.630838537313885	30.118652364146975	2.15
C 	48.041263688975036	31.47804605064251	2.15
C 	49.42374573105492	31.802304286199636	2.15
C 	49.83417088271607	33.16169797269517	2.15
C 	51.21665292479595	33.485956208252304	2.15
C 	51.6270780764571	34.84534989474785	2.15
C 	53.009560118537	35.16960813030497	2.15
C 	53.41998527019815	36.52900181680051	2.15
C 	54.80246731227803	36.85326005235764	2.15
C 	55.21289246393918	38.21265373885318	2.15
C 	56.59537450601907	38.53691197441031	2.15
C 	57.00579965768022	39.896305660905846	2.15
C 	58.38828169976011	40.22056389646298	2.15
C 	58.79870685142126	41.579957582958514	2.15
C 	60.181188893501144	41.90421581851564	2.15
C 	60.591614045162295	43.263609505011175	2.15
C 	61.97409608724218	43.5878677405683	2.15
C 	62.38452123890333	44.947261427063836	2.15
C 	63.767003280983225	45.27151966262098	2.15
C 	11.621488075396691	0.19953674702310822	2.15
C 	13.00397011747658	0.5237949825802402	2.15
C 	13.41439526913773	1.8831886690757758	2.15
C 	14.796877311217617	2.2074469046329077	2.15
C 	15.207302462878769	3.5668405911284435	2.15
C 	16.589784504958654	3.891098826685574	2.15
C 	17.000209656619806	5.2504925131811095	2.15
C 	18.38269169869969	5.57475074873824	2.15
C 	18.79311685036084	6.934144435233776	2.15
C 	20.17559889244073	7.258402670790906	2.15
C 	20.58602404410188	8.617796357286442	2.15
C 	21.96850608618177	8.942054592843576	2.15
C 	22.378931237842917	10.30144827933911	2.15
C 	23.761413279922802	10.625706514896242	2.15
C 	24.171838431583954	11.985100201391779	2.15
C 	25.55432047366384	12.309358436948909	2.15
C 	25.96474562532499	13.668752123444442	2.15
C 	27.34722766740488	13.993010359001577	2.15
C 	27.757652819066028	15.352404045497112	2.15
C 	29.140134861145917	15.676662281054243	2.15
C 	29.55056001280707	17.036055967549782	2.15
C 	30.933042054886954	17.36031420310691	2.15
C 	31.3434672065481	18.719707889602443	2.15
C 	32.72594924862799	19.043966125159578	2.15
C 	33.13637440028914	20.403359811655115	2.15
C 	34.51885644236903	20.727618047212243	2.15
C 	34.92928159403018	22.087011733707776	2.15
C 	36.311763636110065	22.41126996926491	2.15
C 	36.722188787771216	23.770663655760444	2.15
C 	38.1046708298511	24.094921891317576	2.15
C 	38.51509598151225	25.45431557781311	2.15
C 	39.89757802359214	25.77857381337024	2.15
C 	40.30800317525329	27.137967499865777	2.15
C 	41.69048521733318	27.462225735422916	2.15
C 	42.10091036899433	28.82161942191845	2.15
C 	43.48339241107421	29.14587765747558	2.15
C 	43.893817562735364	30.50527134397111	2.15
C 	45.27629960481526	30.82952957952824	2.15
C 	45.6867247564764	32.18892326602378	2.15
C 	47.069206798556294	32.51318150158092	2.15
C 	47.479631950217446	33.872575188076446	2.15
C 	48.86211399229733	34.19683342363358	2.15
C 	49.27253914395848	35.556227110129115	2.15
C 	50.65502118603836	35.880485345686246	2.15
C 	51.06544633769951	37.23987903218178	2.15
C 	52.447928379779405	37.56413726773892	2.15
C 	52.85835353144055	38.92353095423445	2.15
C 	54.24083557352044	39.24778918979158	2.15
C 	54.65126072518159	40.60718287628711	2.15
C 	56.03374276726148	40.931441111844244	2.15
C 	56.44416791892263	42.29083479833978	2.15
C 	57.82664996100251	42.61509303389692	2.15
C 	58.23707511266366	43.974486720392456	2.15
C 	59.61955715474355	44.29874495594958	2.15
C 	60.029982306404705	45.65813864244512	2.15
C 	61.41246434848459	45.98239687800225	2.15
C 	7.474041949157027	-0.7732379596482845	2.15
C 	8.856523991236916	-0.4489797240911534	2.15
C 	9.266949142898065	0.9104139624043823	2.15
C 	10.649431184977951	1.234672197961513	2.15
C 	11.059856336639102	2.5940658844570486	2.15
C 	12.442338378718992	2.91832412001418	2.15
C 	12.852763530380141	4.277717806509716	2.15
C 	14.235245572460029	4.601976042066847	2.15
C 	14.645670724121178	5.961369728562385	2.15
C 	16.028152766201067	6.285627964119513	2.15
C 	16.43857791786222	7.645021650615051	2.15
C 	17.821059959942104	7.969279886172179	2.15
C 	18.231485111603252	9.328673572667716	2.15
C 	19.613967153683138	9.652931808224846	2.15
C 	20.02439230534429	11.012325494720383	2.15
C 	21.40687434742418	11.336583730277514	2.15
C 	21.81729949908533	12.695977416773053	2.15
C 	23.199781541165216	13.020235652330182	2.15
C 	23.610206692826367	14.379629338825719	2.15
C 	24.992688734906253	14.703887574382847	2.15
C 	25.4031138865674	16.063281260878384	2.15
C 	26.78559592864729	16.387539496435515	2.15
C 	27.19602108030844	17.746933182931055	2.15
C 	28.57850312238833	18.071191418488183	2.15
C 	28.988928274049478	19.43058510498372	2.15
C 	30.371410316129367	19.754843340540848	2.15
C 	30.78183546779052	21.11423702703639	2.15
C 	32.1643175098704	21.43849526259352	2.15
C 	32.57474266153155	22.797888949089057	2.15
C 	33.95722470361144	23.12214718464618	2.15
C 	34.36764985527259	24.481540871141718	2.15
C 	35.75013189735248	24.80579910669885	2.15
C 	36.160557049013626	26.16519279319439	2.15
C 	37.54303909109351	26.489451028751514	2.15
C 	37.95346424275466	27.84884471524705	2.15
C 	39.33594628483455	28.173102950804182	2.15
C 	39.7463714364957	29.53249663729972	2.15
C 	41.12885347857559	29.856754872856854	2.15
C 	41.53927863023674	31.21614855935239	2.15
C 	42.92176067231663	31.540406794909515	2.15
C 	43.332185823977774	32.89980048140505	2.15
C 	44.71466786605767	33.22405871696218	2.15
C 	45.12509301771882	34.58345240345772	2.15
C 	46.507575059798704	34.90771063901485	2.15
C 	46.918000211459855	36.26710432551039	2.15
C 	48.30048225353974	36.59136256106751	2.15
C 	48.71090740520089	37.95075624756305	2.15
C 	50.093389447280785	38.27501448312019	2.15
C 	50.50381459894193	39.634408169615725	2.15
C 	51.88629664102182	39.958666405172856	2.15
C 	52.29672179268297	41.31806009166839	2.15
C 	53.67920383476285	41.64231832722552	2.15
C 	54.089628986424	43.001712013721054	2.15
C 	55.472111028503896	43.325970249278186	2.15
C 	55.88253618016505	44.68536393577372	2.15
C 	57.265018222244926	45.009622171330854	2.15
C 	57.67544337390608	46.3690158578264	2.15
C 	59.05792541598596	46.69327409338352	2.15
C 	5.119503016658401	-0.06236074426701097	2.15
C 	6.50198505873829	0.2618974912901201	2.15
C 	6.91241021039944	1.6212911777856558	2.15
C 	8.294892252479327	1.945549413342787	2.15
C 	8.705317404140477	3.3049430998383227	2.15
C 	10.087799446220364	3.629201335395453	2.15
C 	10.498224597881514	4.988595021890989	2.15
C 	11.880706639961401	5.312853257448121	2.15
C 	12.29113179162255	6.672246943943657	2.15
C 	13.67361383370244	6.996505179500788	2.15
C 	14.08403898536359	8.355898865996325	2.15
C 	15.466521027443477	8.680157101553455	2.15
C 	15.876946179104626	10.03955078804899	2.15
C 	17.259428221184514	10.363809023606121	2.15
C 	17.669853372845665	11.723202710101656	2.15
C 	19.05233541492555	12.047460945658788	2.15
C 	19.4627605665867	13.406854632154323	2.15
C 	20.84524260866659	13.731112867711458	2.15
C 	21.25566776032774	15.090506554206993	2.15
C 	22.63814980240763	15.41476478976412	2.15
C 	23.048574954068776	16.774158476259657	2.15
C 	24.431056996148666	17.09841671181679	2.15
C 	24.841482147809817	18.457810398312326	2.15
C 	26.223964189889703	18.78206863386946	2.15
C 	26.63438934155085	20.141462320364994	2.15
C 	28.01687138363074	20.465720555922122	2.15
C 	28.42729653529189	21.82511424241766	2.15
C 	29.809778577371777	22.14937247797479	2.15
C 	30.220203729032928	23.508766164470327	2.15
C 	31.602685771112817	23.833024400027462	2.15
C 	32.01311092277397	25.192418086523	2.15
C 	33.395592964853854	25.516676322080123	2.15
C 	33.806018116515	26.876070008575663	2.15
C 	35.18850015859489	27.200328244132795	2.15
C 	35.598925310256035	28.559721930628324	2.15
C 	36.98140735233593	28.883980166185456	2.15
C 	37.39183250399707	30.243373852680985	2.15
C 	38.774314546076965	30.567632088238124	2.15
C 	39.18473969773811	31.927025774733664	2.15
C 	40.567221739818	32.251284010290796	2.15
C 	40.97764689147915	33.610677696786325	2.15
C 	42.36012893355904	33.93493593234346	2.15
C 	42.77055408522019	35.29432961883899	2.15
C 	44.153036127300076	35.618587854396125	2.15
C 	44.56346127896123	36.97798154089166	2.15
C 	45.94594332104112	37.30223977644879	2.15
C 	46.35636847270227	38.66163346294432	2.15
C 	47.73885051478216	38.98589169850146	2.15
C 	48.1492756664433	40.34528538499699	2.15
C 	49.53175770852319	40.66954362055413	2.15
C 	49.94218286018434	42.02893730704967	2.15
C 	51.32466490226423	42.3531955426068	2.15
C 	51.73509005392538	43.71258922910233	2.15
C 	53.11757209600526	44.03684746465946	2.15
C 	53.52799724766641	45.39624115115499	2.15
C 	54.9104792897463	45.72049938671213	2.15
C 	2.7649640841597756	0.6485164711142624	2.15
C 	4.147446126239664	0.9727747066713935	2.15
C 	4.557871277900813	2.332168393166929	2.15
C 	5.940353319980701	2.6564266287240605	2.15
C 	6.35077847164185	4.015820315219596	2.15
C 	7.7332605137217385	4.340078550776727	2.15
C 	8.143685665382888	5.699472237272263	2.15
C 	9.526167707462776	6.023730472829394	2.15
C 	9.936592859123925	7.383124159324928	2.15
C 	11.319074901203814	7.70738239488206	2.15
C 	11.729500052864964	9.066776081377597	2.15
C 	13.111982094944851	9.39103431693473	2.15
C 	13.522407246606	10.750428003430264	2.15
C 	14.904889288685888	11.074686238987395	2.15
C 	15.315314440347038	12.43407992548293	2.15
C 	16.697796482426927	12.758338161040061	2.15
C 	17.108221634088075	14.117731847535596	2.15
C 	18.490703676167964	14.441990083092728	2.15
C 	18.901128827829112	15.801383769588263	2.15
C 	20.283610869909	16.125642005145398	2.15
C 	20.69403602157015	17.48503569164093	2.15
C 	22.076518063650038	17.809293927198063	2.15
C 	22.48694321531119	19.168687613693596	2.15
C 	23.86942525739108	19.49294584925073	2.15
C 	24.279850409052226	20.852339535746264	2.15
C 	25.662332451132116	21.1765977713034	2.15
C 	26.072757602793267	22.535991457798932	2.15
C 	27.45523964487315	22.860249693356064	2.15
C 	27.8656647965343	24.2196433798516	2.15
C 	29.24814683861419	24.543901615408732	2.15
C 	29.658571990275338	25.903295301904265	2.15
C 	31.041054032355227	26.227553537461397	2.15
C 	31.451479184016378	27.586947223956933	2.15
C 	32.833961226096264	27.91120545951406	2.15
C 	33.244386377757415	29.270599146009598	2.15
C 	34.6268684198373	29.59485738156673	2.15
C 	35.03729357149845	30.954251068062266	2.15
C 	36.41977561357834	31.27850930361939	2.15
C 	36.83020076523949	32.63790299011493	2.15
C 	38.212682807319375	32.96216122567206	2.15
C 	38.623107958980526	34.3215549121676	2.15
C 	40.00559000106041	34.64581314772473	2.15
C 	40.41601515272156	36.00520683422027	2.15
C 	41.79849719480145	36.32946506977739	2.15
C 	42.2089223464626	37.68885875627293	2.15
C 	43.59140438854249	38.01311699183006	2.15
C 	44.001829540203644	39.3725106783256	2.15
C 	45.38431158228353	39.696768913882735	2.15
C 	45.794736733944674	41.05616260037827	2.15
C 	47.17721877602457	41.380420835935396	2.15
C 	47.58764392768572	42.73981452243093	2.15
C 	48.970125969765604	43.064072757988065	2.15
C 	49.380551121426755	44.4234664444836	2.15
C 	50.76303316350664	44.74772468004073	2.15
C 	51.17345831516779	46.10711836653627	2.15
C 	52.55594035724768	46.431376602093394	2.15
C 	1.7929071937410375	1.683651922052667	2.15
C 	2.2033323454021874	3.0430456085482027	2.15
C 	3.585814387482075	3.367303844105334	2.15
C 	3.996239539143225	4.72669753060087	2.15
C 	5.378721581223113	5.050955766158001	2.15
C 	5.789146732884262	6.410349452653536	2.15
C 	7.17162877496415	6.734607688210668	2.15
C 	7.582053926625299	8.094001374706204	2.15
C 	8.964535968705187	8.418259610263334	2.15
C 	9.374961120366336	9.777653296758869	2.15
C 	10.757443162446226	10.101911532316002	2.15
C 	11.167868314107375	11.461305218811537	2.15
C 	12.550350356187263	11.785563454368669	2.15
C 	12.960775507848412	13.144957140864204	2.15
C 	14.3432575499283	13.469215376421335	2.15
C 	14.75368270158945	14.828609062916874	2.15
C 	16.136164743669337	15.152867298474002	2.15
C 	16.546589895330488	16.512260984969537	2.15
C 	17.929071937410374	16.836519220526668	2.15
C 	18.339497089071525	18.195912907022205	2.15
C 	19.721979131151414	18.520171142579336	2.15
C 	20.132404282812562	19.879564829074873	2.15
C 	21.51488632489245	20.203823064632005	2.15
C 	21.9253114765536	21.563216751127538	2.15
C 	23.30779351863349	21.88747498668467	2.15
C 	23.71821867029464	23.246868673180206	2.15
C 	25.100700712374525	23.571126908737337	2.15
C 	25.511125864035677	24.930520595232874	2.15
C 	26.893607906115566	25.254778830790006	2.15
C 	27.304033057776714	26.61417251728554	2.15
C 	28.6865150998566	26.93843075284267	2.15
C 	29.09694025151775	28.297824439338207	2.15
C 	30.47942229359764	28.62208267489534	2.15
C 	30.889847445258788	29.98147636139088	2.15
C 	32.27232948733867	30.305734596948003	2.15
C 	32.682754638999825	31.66512828344354	2.15
C 	34.06523668107972	31.98938651900067	2.15
C 	34.47566183274086	33.34878020549621	2.15
C 	35.85814387482075	33.673038441053336	2.15
C 	36.2685690264819	35.03243212754887	2.15
C 	37.651051068561785	35.356690363106004	2.15
C 	38.061476220222936	36.71608404960154	2.15
C 	39.44395826230283	37.04034228515867	2.15
C 	39.85438341396398	38.39973597165421	2.15
C 	41.23686545604386	38.723994207211334	2.15
C 	41.64729060770501	40.08338789370687	2.15
C 	43.0297726497849	40.40764612926401	2.15
C 	43.440197801446054	41.767039815759546	2.15
C 	44.82267984352594	42.09129805131668	2.15
C 	45.23310499518709	43.450691737812214	2.15
C 	46.61558703726698	43.77494997336934	2.15
C 	47.02601218892813	45.134343659864875	2.15
C 	48.408494231008014	45.45860189542201	2.15
C 	4.817089842465525	7.445484903591941	2.15
C 	5.2275149941266745	8.804878590087476	2.15
C 	6.609997036206562	9.129136825644608	2.15
C 	7.020422187867712	10.488530512140144	2.15
C 	8.402904229947598	10.812788747697272	2.15
C 	8.81332938160875	12.17218243419281	2.15
C 	10.195811423688637	12.496440669749942	2.15
C 	10.606236575349786	13.855834356245477	2.15
C 	11.988718617429676	14.180092591802609	2.15
C 	12.399143769090825	15.539486278298146	2.15
C 	13.781625811170713	15.863744513855275	2.15
C 	14.192050962831862	17.22313820035081	2.15
C 	15.574533004911748	17.54739643590794	2.15
C 	15.9849581565729	18.90679012240348	2.15
C 	17.367440198652787	19.231048357960606	2.15
C 	17.777865350313938	20.590442044456143	2.15
C 	19.160347392393824	20.914700280013278	2.15
C 	19.570772544054975	22.274093966508815	2.15
C 	20.953254586134864	22.598352202065943	2.15
C 	21.363679737796016	23.95774588856148	2.15
C 	22.7461617798759	24.282004124118608	2.15
C 	23.15658693153705	25.641397810614144	2.15
C 	24.53906897361694	25.96565604617128	2.15
C 	24.949494125278086	27.325049732666812	2.15
C 	26.331976167357976	27.649307968223944	2.15
C 	26.742401319019127	29.00870165471948	2.15
C 	28.124883361099016	29.332959890276612	2.15
C 	28.535308512760164	30.692353576772145	2.15
C 	29.91779055484005	31.016611812329284	2.15
C 	30.328215706501197	32.37600549882482	2.15
C 	31.710697748581087	32.70026373438195	2.15
C 	32.121122900242234	34.05965742087748	2.15
C 	33.50360494232213	34.38391565643462	2.15
C 	33.91403009398327	35.74330934293015	2.15
C 	35.296512136063164	36.06756757848728	2.15
C 	35.706937287724315	37.42696126498281	2.15
C 	37.0894193298042	37.751219500539946	2.15
C 	37.499844481465345	39.110613187035476	2.15
C 	38.88232652354524	39.434871422592614	2.15
C 	39.29275167520639	40.794265109088144	2.15
C 	40.675233717286275	41.11852334464528	2.15
C 	41.08565886894743	42.47791703114081	2.15
C 	42.46814091102731	42.80217526669795	2.15
C 	42.87856606268846	44.16156895319348	2.15
C 	44.261048104768356	44.48582718875062	2.15
C 	44.6714732564295	45.84522087524615	2.15
C 	46.05395529850939	46.16947911080328	2.15
C 	7.8412724911900105	13.207317885131214	2.15
C 	8.25169764285116	14.56671157162675	2.15
C 	9.63417968493105	14.890969807183883	2.15
C 	10.0446048365922	16.25036349367942	2.15
C 	11.427086878672087	16.57462172923655	2.15
C 	11.837512030333237	17.934015415732084	2.15
C 	13.219994072413124	18.258273651289215	2.15
C 	13.630419224074274	19.617667337784752	2.15
C 	15.012901266154161	19.941925573341884	2.15
C 	15.42332641781531	21.301319259837417	2.15
C 	16.805808459895196	21.625577495394545	2.15
C 	17.216233611556348	22.984971181890085	2.15
C 	18.598715653636237	23.309229417447217	2.15
C 	19.00914080529739	24.668623103942753	2.15
C 	20.391622847377274	24.992881339499885	2.15
C 	20.802047999038425	26.352275025995418	2.15
C 	22.18453004111831	26.676533261552546	2.15
C 	22.594955192779462	28.035926948048086	2.15
C 	23.97743723485935	28.360185183605218	2.15
C 	24.3878623865205	29.719578870100754	2.15
C 	25.77034442860039	30.043837105657886	2.15
C 	26.180769580261536	31.403230792153416	2.15
C 	27.563251622341426	31.72748902771055	2.15
C 	27.973676774002573	33.086882714206084	2.15
C 	29.356158816082463	33.41114094976322	2.15
C 	29.766583967743614	34.77053463625876	2.15
C 	31.149066009823496	35.09479287181588	2.15
C 	31.559491161484647	36.45418655831142	2.15
C 	32.94197320356454	36.77844479386855	2.15
C 	33.35239835522569	38.13783848036409	2.15
C 	34.734880397305574	38.46209671592121	2.15
C 	35.145305548966725	39.82149040241675	2.15
C 	36.52778759104661	40.14574863797388	2.15
C 	36.93821274270776	41.50514232446942	2.15
C 	38.32069478478765	41.829400560026556	2.15
C 	38.7311199364488	43.18879424652209	2.15
C 	40.113601978528685	43.51305248207922	2.15
C 	40.524027130189836	44.872446168574754	2.15
C 	41.90650917226973	45.196704404131886	2.15
C 	42.31693432393088	46.55609809062742	2.15
C 	43.699416366010766	46.880356326184554	2.15
C 	12.658362333655536	20.652802788723157	2.15
C 	13.068787485316685	22.01219647521869	2.15
C 	14.451269527396573	22.336454710775822	2.15
C 	14.861694679057722	23.69584839727136	2.15
C 	16.24417672113761	24.02010663282849	2.15
C 	16.654601872798757	25.379500319324023	2.15
C 	18.037083914878647	25.70375855488116	2.15
C 	18.447509066539794	27.06315224137669	2.15
C 	19.829991108619687	27.387410476933823	2.15
C 	20.24041626028084	28.74680416342936	2.15
C 	21.622898302360724	29.07106239898649	2.15
C 	22.033323454021875	30.430456085482028	2.15
C 	23.415805496101765	30.75471432103916	2.15
C 	23.826230647762912	32.114108007534696	2.15
C 	25.2087126898428	32.43836624309182	2.15
C 	25.61913784150395	33.79775992958736	2.15
C 	27.001619883583835	34.12201816514449	2.15
C 	27.412045035244986	35.48141185164003	2.15
C 	28.794527077324876	35.805670087197164	2.15
C 	29.204952228986027	37.1650637736927	2.15
C 	30.587434271065913	37.489322009249825	2.15
C 	30.997859422727064	38.84871569574536	2.15
C 	32.380341464806946	39.172973931302494	2.15
C 	32.7907666164681	40.53236761779803	2.15
C 	34.17324865854798	40.856625853355155	2.15
C 	34.583673810209135	42.21601953985069	2.15
C 	35.96615585228903	42.54027777540782	2.15
C 	36.37658100395017	43.89967146190337	2.15
C 	37.759063046030064	44.2239296974605	2.15
C 	38.169488197691216	45.583323383956035	2.15
C 	39.551970239771094	45.90758161951316	2.15
C 	15.682544982380021	26.41463577026243	2.15
C 	16.09297013404117	27.77402945675796	2.15
C 	17.47545217612106	28.0982876923151	2.15
C 	17.885877327782207	29.457681378810634	2.15
C 	19.2683593698621	29.781939614367765	2.15
C 	19.678784521523248	31.1413333008633	2.15
C 	21.061266563603137	31.465591536420426	2.15
C 	21.471691715264285	32.82498522291596	2.15
C 	22.854173757344174	33.1492434584731	2.15
C 	23.264598909005322	34.50863714496863	2.15
C 	24.64708095108521	34.83289538052576	2.15
C 	25.057506102746363	36.1922890670213	2.15
C 	26.43998814482625	36.51654730257843	2.15
C 	26.850413296487396	37.87594098907397	2.15
C 	28.232895338567285	38.200199224631106	2.15
C 	28.643320490228437	39.559592911126636	2.15
C 	30.025802532308322	39.88385114668377	2.15
C 	30.436227683969474	41.2432448331793	2.15
C 	31.81870972604936	41.56750306873643	2.15
C 	32.229134877710514	42.926896755231965	2.15
C 	33.61161691979039	43.25115499078909	2.15
C 	34.022042071451544	44.61054867728463	2.15
C 	35.40452411353144	44.93480691284177	2.15
C 	35.81494926519258	46.2942005993373	2.15
C 	37.197431307272474	46.61845883489443	2.15
C 	18.70672763110451	32.1764687518017	2.15
C 	19.11715278276566	33.53586243829724	2.15
C 	20.499634824845547	33.86012067385437	2.15
C 	20.910059976506698	35.219514360349905	2.15
C 	22.292542018586587	35.543772595907036	2.15
C 	22.702967170247735	36.90316628240257	2.15
C 	24.08544921232762	37.227424517959705	2.15
C 	24.495874363988772	38.58681820445524	2.15
C 	25.87835640606866	38.91107644001237	2.15
C 	26.288781557729813	40.27047012650791	2.15
C 	27.6712635998097	40.59472836206504	2.15
C 	28.08168875147085	41.95412204856058	2.15
C 	29.464170793550732	42.2783802841177	2.15
C 	29.874595945211883	43.63777397061324	2.15
C 	31.257077987291773	43.96203220617037	2.15
C 	31.667503138952924	45.32142589266591	2.15
C 	33.04998518103281	45.64568412822304	2.15
C 	23.523817473570034	39.621953655393646	2.15
C 	23.934242625231185	40.98134734188918	2.15
C 	25.31672466731107	41.305605577446315	2.15
C 	25.727149818972222	42.66499926394185	2.15
C 	27.10963186105211	42.98925749949898	2.15
C 	27.52005701271326	44.34865118599451	2.15
C 	28.902539054793145	44.672909421551644	2.15
C 	29.312964206454293	46.032303108047174	2.15
C 	30.695446248534186	46.35656134360432	2.15
H 	50.87998550791453	-1.6670856949800643	2.15
H 	53.32366855412617	-1.0939250110023206	2.15
H 	55.116575747867216	0.5897269110503515	2.15
H 	56.909482941608246	2.2733788331030116	2.15
H 	57.63495275193887	4.676250771908504	2.15
H 	48.52544657541592	-0.9562084795987862	2.15
H 	58.1407583965917	6.351559892589626	2.15
H 	59.93366559033274	8.035211814642292	2.15
H 	61.72657278407376	9.718863736694955	2.15
H 	62.45204259440439	12.121735675500455	2.15
H 	44.37800044917624	-1.9289831862701883	2.15
H 	46.82168349538789	-1.3558225022924364	2.15
H 	62.95784823905723	13.797044796181568	2.15
H 	64.75075543279826	15.480696718234228	2.15
H 	65.47622524312888	17.883568657039728	2.15
H 	42.02346151667763	-1.2181059708889082	2.15
H 	65.9820308877817	19.558877777720834	2.15
H 	67.77493808152276	21.242529699773506	2.15
H 	68.50040789185337	23.645401638578992	2.15
H 	39.66892258417901	-0.5072287555076386	2.15
H 	69.0062135365062	25.320710759260123	2.15
H 	70.79912073024724	27.004362681312777	2.15
H 	72.59202792398827	28.688014603365442	2.15
H 	73.31749773431889	31.09088654217094	2.15
H 	35.521476457939336	-1.4800034621790346	2.15
H 	37.96515950415097	-0.9068427782012769	2.15
H 	73.82330337897172	32.766195662852056	2.15
H 	75.61621057271273	34.44984758490471	2.15
H 	76.34168038304338	36.852719523710206	2.15
H 	33.16693752544073	-0.7691262467977602	2.15
H 	76.8474860276962	38.52802864439133	2.15
H 	77.57295583802684	40.93090058319682	2.15
H 	29.019491399201033	-1.7419009534691445	2.15
H 	31.463174445412683	-1.1687402694914006	2.15
H 	77.01132409926925	43.325429720630765	2.15
H 	26.664952466702417	-1.031023738087876	2.15
H 	76.44969236051166	45.719958858064686	2.15
H 	22.517506340462756	-2.0037984447592727	2.15
H 	24.96118938667439	-1.4306377607815235	2.15
H 	72.28779607841898	46.97650942891467	2.15
H 	74.73147912463067	47.54967011289244	2.15
H 	20.162967407964125	-1.292921229377997	2.15
H 	70.58403299839101	46.576895406221055	2.15
H 	17.808428475465504	-0.5820440139967245	2.15
H 	65.78581101968075	46.71461193762459	2.15
H 	68.22949406589234	47.287772621602315	2.15
H 	13.660982349225844	-1.554818720668117	2.15
H 	16.104665395437475	-0.9816580366903697	2.15
H 	64.0820479396527	46.314997914930935	2.15
H 	11.306443416727216	-0.8439415052868451	2.15
H 	61.72750900715406	47.0258751303122	2.15
H 	7.1589972904875525	-1.8167162119582376	2.15
H 	9.602680336699187	-1.243555527980492	2.15
H 	56.92928702844381	47.163591661715735	2.15
H 	59.372970074655434	47.736752345693475	2.15
H 	4.804458357988926	-1.105838996576964	2.15
H 	55.225523948415756	46.76397763902209	2.15
H 	2.449919425490301	-0.3949617811956909	2.15
H 	50.427301969705525	46.90169417042561	2.15
H 	52.87098501591715	47.47485485440335	2.15
H 	0.7317061896092927	1.4347494736320523	2.15
H 	1.4571759999399165	3.8376214124375414	2.15
H 	3.250083193680954	5.521273334490208	2.15
H 	48.723538889677485	46.50208014773196	2.15
H 	3.75588883833378	7.1965824551713276	2.15
H 	4.481358648664404	9.599454393976815	2.15
H 	6.274265842405445	11.283106316029485	2.15
H 	46.36899995717887	47.21295736311323	2.15
H 	6.780071487058266	12.958415436710599	2.15
H 	7.505541297388889	15.361287375516087	2.15
H 	9.298448491129928	17.044939297568757	2.15
H 	11.091355684870964	18.72859121962142	2.15
H 	41.570777978468605	47.35067389451676	2.15
H 	44.01446102468024	47.92383457849451	2.15
H 	11.59716132952379	20.403900340302545	2.15
H 	12.322631139854415	22.806772279108028	2.15
H 	14.115538333595453	24.490424201160696	2.15
H 	39.867014898440566	46.95105987182311	2.15
H 	14.621343978248275	26.16573332184182	2.15
H 	15.346813788578894	28.568605260647296	2.15
H 	17.13972098231993	30.252257182699967	2.15
H 	35.068792919730306	47.08877640322664	2.15
H 	37.51247596594196	47.661937087204386	2.15
H 	17.645526626972767	31.92756630338108	2.15
H 	18.37099643730339	34.330438242186574	2.15
H 	20.16390363104443	36.01409016423925	2.15
H 	21.956810824785464	37.69774208629191	2.15
H 	33.36502983970228	46.68916238053299	2.15
H 	22.46261646943829	39.373051206973024	2.15
H 	23.188086279768914	41.77592314577852	2.15
H 	24.980993473509955	43.45957506783119	2.15
H 	26.773900667250984	45.14322698988385	2.15
H 	28.56680786099201	46.826878911936504	2.15
H 	31.010490907203657	47.40003959591427	2.15
