2348

C 	0.0	0.0	0.0
C 	1.2297560733739028	0.7099999999999999	0.0
C 	2.4595121467478056	-2.3647750424515833e-16	0.0
C 	3.689268220121708	0.7099999999999995	0.0
C 	4.919024293495611	-4.729550084903167e-16	0.0
C 	6.148780366869514	0.7099999999999993	0.0
C 	7.378536440243416	-7.09432512735475e-16	0.0
C 	8.60829251361732	0.7099999999999991	0.0
C 	9.838048586991222	-9.459100169806333e-16	0.0
C 	11.067804660365125	0.7099999999999989	0.0
C 	12.297560733739026	-1.1823875212257916e-15	0.0
C 	13.527316807112928	0.7099999999999986	0.0
C 	14.757072880486833	-1.41886502547095e-15	0.0
C 	15.986828953860735	0.7099999999999984	0.0
C 	17.21658502723464	-7.671641100159832e-16	0.0
C 	18.44634110060854	0.7099999999999982	0.0
C 	19.676097173982445	-1.8918200339612667e-15	0.0
C 	20.905853247356347	0.7099999999999989	0.0
C 	22.135609320730246	-2.128297538206425e-15	0.0
C 	23.36536539410415	0.7099999999999967	0.0
C 	24.59512146747805	-2.364775042451583e-15	0.0
C 	25.824877540851954	0.7099999999999983	0.0
C 	27.05463361422586	-8.248957072964913e-16	0.0
C 	28.284389687599763	0.7099999999999999	0.0
C 	29.514145760973665	-2.8377300509419e-15	0.0
C 	30.743901834347565	0.7099999999999961	0.0
C 	31.97365790772147	-3.0742075551870582e-15	0.0
C 	33.20341398109537	0.7099999999999976	0.0
C 	34.43317005446928	-1.5343282200319664e-15	0.0
C 	35.66292612784318	0.7099999999999992	0.0
C 	36.892682201217085	-1.7708057242771246e-15	0.0
C 	38.122438274590984	0.7099999999999972	0.0
C 	39.35219434796489	-3.783640067922533e-15	0.0
C 	40.58195042133879	0.7099999999999969	0.0
C 	41.811706494712695	-4.67403893367191e-16	0.0
C 	43.0414625680866	0.7100000000000002	0.0
C 	44.27121864146049	-4.25659507641285e-15	0.0
C 	45.5009747148344	0.7099999999999964	0.0
C 	46.730730788208305	-9.403589018575075e-16	0.0
C 	47.96048686158221	0.7099999999999997	0.0
C 	49.1902429349561	-4.729550084903166e-15	0.0
C 	50.41999900833001	0.709999999999996	0.0
C 	51.64975508170391	-1.413313910347824e-15	0.0
C 	52.879511155077815	0.7099999999999993	0.0
C 	54.10926722845172	-1.6497914145929826e-15	0.0
C 	55.33902330182562	0.7099999999999991	0.0
C 	56.56877937519952	-5.438982597638641e-15	0.0
C 	57.798535448573425	0.7099999999999953	0.0
C 	59.02829152194733	-5.6754601018838e-15	0.0
C 	60.25804759532124	0.709999999999995	0.0
C 	1.2297560733739028	2.1299999999999994	0.0
C 	2.4595121467478056	2.8399999999999994	0.0
C 	3.689268220121708	2.1299999999999994	0.0
C 	4.919024293495611	2.8399999999999994	0.0
C 	6.148780366869514	2.129999999999999	0.0
C 	7.378536440243416	2.839999999999999	0.0
C 	8.60829251361732	2.1299999999999986	0.0
C 	9.838048586991222	2.8399999999999985	0.0
C 	11.067804660365123	2.129999999999998	0.0
C 	12.297560733739028	2.839999999999999	0.0
C 	13.527316807112928	2.1299999999999977	0.0
C 	14.757072880486833	2.839999999999998	0.0
C 	15.986828953860735	2.129999999999998	0.0
C 	17.216585027234636	2.839999999999997	0.0
C 	18.446341100608542	2.129999999999998	0.0
C 	19.676097173982445	2.8399999999999985	0.0
C 	20.905853247356344	2.1299999999999977	0.0
C 	22.13560932073025	2.8399999999999985	0.0
C 	23.36536539410415	2.129999999999997	0.0
C 	24.595121467478055	2.839999999999997	0.0
C 	25.824877540851954	2.1299999999999963	0.0
C 	27.05463361422586	2.839999999999997	0.0
C 	28.284389687599763	2.129999999999998	0.0
C 	29.514145760973665	2.8399999999999985	0.0
C 	30.743901834347568	2.129999999999996	0.0
C 	31.97365790772147	2.8399999999999967	0.0
C 	33.20341398109537	2.129999999999996	0.0
C 	34.43317005446928	2.8399999999999963	0.0
C 	35.66292612784318	2.1299999999999972	0.0
C 	36.89268220121708	2.8399999999999963	0.0
C 	38.122438274590984	2.129999999999997	0.0
C 	39.35219434796489	2.8399999999999976	0.0
C 	40.58195042133879	2.1299999999999986	0.0
C 	41.81170649471269	2.839999999999996	0.0
C 	43.0414625680866	2.129999999999998	0.0
C 	44.2712186414605	2.8399999999999954	0.0
C 	45.5009747148344	2.129999999999998	0.0
C 	46.7307307882083	2.8399999999999954	0.0
C 	47.96048686158221	2.1299999999999977	0.0
C 	49.19024293495611	2.839999999999995	0.0
C 	50.41999900833001	2.1299999999999977	0.0
C 	51.64975508170391	2.8399999999999945	0.0
C 	52.879511155077815	2.1299999999999972	0.0
C 	54.10926722845171	2.8399999999999945	0.0
C 	55.33902330182563	2.130000000000001	0.0
C 	56.56877937519952	2.8399999999999976	0.0
C 	57.798535448573425	2.129999999999997	0.0
C 	59.028291521947324	2.839999999999994	0.0
C 	60.25804759532124	2.129999999999997	0.0
C 	61.487803668695136	2.8399999999999936	0.0
C 	2.4595121467478056	4.259999999999999	0.0
C 	3.689268220121708	4.969999999999999	0.0
C 	4.919024293495611	4.259999999999999	0.0
C 	6.148780366869514	4.969999999999999	0.0
C 	7.378536440243416	4.259999999999999	0.0
C 	8.60829251361732	4.969999999999999	0.0
C 	9.83804858699122	4.259999999999998	0.0
C 	11.067804660365125	4.969999999999999	0.0
C 	12.297560733739028	4.259999999999998	0.0
C 	13.52731680711293	4.969999999999998	0.0
C 	14.757072880486831	4.259999999999998	0.0
C 	15.986828953860735	4.969999999999998	0.0
C 	17.21658502723464	4.259999999999997	0.0
C 	18.446341100608542	4.969999999999998	0.0
C 	19.676097173982445	4.259999999999999	0.0
C 	20.905853247356347	4.969999999999997	0.0
C 	22.135609320730246	4.259999999999996	0.0
C 	23.365365394104153	4.969999999999997	0.0
C 	24.595121467478055	4.259999999999998	0.0
C 	25.824877540851958	4.969999999999997	0.0
C 	27.054633614225857	4.259999999999995	0.0
C 	28.28438968759976	4.969999999999996	0.0
C 	29.514145760973665	4.259999999999997	0.0
C 	30.743901834347568	4.969999999999997	0.0
C 	31.97365790772147	4.259999999999996	0.0
C 	33.20341398109537	4.969999999999995	0.0
C 	34.43317005446927	4.2599999999999945	0.0
C 	35.66292612784318	4.969999999999995	0.0
C 	36.892682201217085	4.259999999999996	0.0
C 	38.122438274590984	4.969999999999997	0.0
C 	39.35219434796489	4.259999999999997	0.0
C 	40.58195042133879	4.969999999999994	0.0
C 	41.81170649471269	4.259999999999995	0.0
C 	43.041462568086594	4.969999999999996	0.0
C 	44.2712186414605	4.259999999999997	0.0
C 	45.500974714834406	4.969999999999998	0.0
C 	46.7307307882083	4.259999999999994	0.0
C 	47.960486861582204	4.9699999999999935	0.0
C 	49.19024293495611	4.259999999999996	0.0
C 	50.41999900833001	4.969999999999997	0.0
C 	51.64975508170391	4.259999999999993	0.0
C 	52.879511155077815	4.9699999999999935	0.0
C 	54.10926722845171	4.259999999999996	0.0
C 	55.33902330182562	4.969999999999997	0.0
C 	56.568779375199526	4.259999999999996	0.0
C 	57.798535448573425	4.969999999999996	0.0
C 	59.028291521947324	4.259999999999995	0.0
C 	60.25804759532123	4.969999999999996	0.0
C 	61.487803668695136	4.259999999999992	0.0
C 	62.717559742069035	4.969999999999993	0.0
C 	3.6892682201217086	6.389999999999999	0.0
C 	4.919024293495611	7.099999999999999	0.0
C 	6.148780366869514	6.389999999999999	0.0
C 	7.378536440243416	7.099999999999999	0.0
C 	8.608292513617318	6.389999999999998	0.0
C 	9.838048586991222	7.099999999999999	0.0
C 	11.067804660365125	6.389999999999998	0.0
C 	12.297560733739028	7.099999999999998	0.0
C 	13.52731680711293	6.389999999999999	0.0
C 	14.757072880486833	7.099999999999998	0.0
C 	15.986828953860735	6.389999999999998	0.0
C 	17.216585027234636	7.099999999999997	0.0
C 	18.44634110060854	6.389999999999997	0.0
C 	19.676097173982445	7.099999999999998	0.0
C 	20.905853247356347	6.389999999999998	0.0
C 	22.13560932073025	7.099999999999997	0.0
C 	23.365365394104153	6.389999999999998	0.0
C 	24.59512146747805	7.099999999999997	0.0
C 	25.824877540851958	6.389999999999998	0.0
C 	27.054633614225857	7.099999999999997	0.0
C 	28.28438968759976	6.389999999999999	0.0
C 	29.514145760973662	7.099999999999997	0.0
C 	30.743901834347568	6.389999999999999	0.0
C 	31.97365790772147	7.099999999999998	0.0
C 	33.20341398109537	6.389999999999995	0.0
C 	34.43317005446928	7.099999999999994	0.0
C 	35.66292612784318	6.389999999999995	0.0
C 	36.892682201217085	7.099999999999996	0.0
C 	38.122438274590984	6.389999999999996	0.0
C 	39.35219434796489	7.099999999999997	0.0
C 	40.58195042133879	6.389999999999994	0.0
C 	41.811706494712695	7.099999999999995	0.0
C 	43.041462568086594	6.389999999999996	0.0
C 	44.2712186414605	7.099999999999997	0.0
C 	45.500974714834406	6.389999999999998	0.0
C 	46.730730788208305	7.099999999999998	0.0
C 	47.960486861582204	6.389999999999995	0.0
C 	49.19024293495611	7.099999999999996	0.0
C 	50.41999900833001	6.389999999999995	0.0
C 	51.649755081703915	7.099999999999996	0.0
C 	52.879511155077815	6.389999999999995	0.0
C 	54.10926722845172	7.099999999999996	0.0
C 	55.33902330182562	6.389999999999995	0.0
C 	56.568779375199526	7.099999999999995	0.0
C 	57.79853544857343	6.389999999999998	0.0
C 	59.02829152194733	7.099999999999999	0.0
C 	60.25804759532123	6.389999999999994	0.0
C 	61.487803668695136	7.099999999999995	0.0
C 	62.71755974206904	6.389999999999994	0.0
C 	63.94731581544294	7.099999999999995	0.0
C 	4.919024293495611	8.519999999999998	0.0
C 	6.148780366869514	9.229999999999999	0.0
C 	7.378536440243416	8.519999999999998	0.0
C 	8.60829251361732	9.229999999999999	0.0
C 	9.838048586991222	8.519999999999998	0.0
C 	11.067804660365125	9.229999999999999	0.0
C 	12.297560733739028	8.519999999999998	0.0
C 	13.52731680711293	9.229999999999997	0.0
C 	14.757072880486833	8.519999999999998	0.0
C 	15.986828953860737	9.229999999999999	0.0
C 	17.216585027234636	8.519999999999998	0.0
C 	18.44634110060854	9.229999999999997	0.0
C 	19.67609717398244	8.519999999999996	0.0
C 	20.905853247356347	9.229999999999997	0.0
C 	22.13560932073025	8.519999999999998	0.0
C 	23.365365394104153	9.229999999999999	0.0
C 	24.595121467478055	8.519999999999996	0.0
C 	25.824877540851954	9.229999999999995	0.0
C 	27.05463361422586	8.519999999999996	0.0
C 	28.284389687599763	9.229999999999997	0.0
C 	29.514145760973662	8.519999999999996	0.0
C 	30.743901834347565	9.229999999999995	0.0
C 	31.97365790772147	8.52	0.0
C 	33.20341398109537	9.229999999999997	0.0
C 	34.43317005446928	8.519999999999994	0.0
C 	35.66292612784318	9.229999999999995	0.0
C 	36.89268220121708	8.519999999999992	0.0
C 	38.122438274590984	9.229999999999993	0.0
C 	39.35219434796489	8.519999999999998	0.0
C 	40.58195042133879	9.229999999999995	0.0
C 	41.811706494712695	8.519999999999994	0.0
C 	43.0414625680866	9.229999999999995	0.0
C 	44.27121864146049	8.519999999999992	0.0
C 	45.5009747148344	9.229999999999993	0.0
C 	46.730730788208305	8.519999999999998	0.0
C 	47.960486861582204	9.229999999999995	0.0
C 	49.19024293495611	8.519999999999996	0.0
C 	50.41999900833001	9.229999999999993	0.0
C 	51.64975508170391	8.519999999999994	0.0
C 	52.879511155077815	9.229999999999995	0.0
C 	54.10926722845171	8.51999999999999	0.0
C 	55.33902330182562	9.229999999999992	0.0
C 	56.568779375199526	8.519999999999998	0.0
C 	57.798535448573425	9.229999999999995	0.0
C 	59.02829152194733	8.519999999999994	0.0
C 	60.25804759532123	9.229999999999993	0.0
C 	61.48780366869513	8.519999999999992	0.0
C 	62.717559742069035	9.229999999999993	0.0
C 	63.94731581544294	8.519999999999992	0.0
C 	65.17707188881684	9.22999999999999	0.0
C 	6.148780366869514	10.649999999999997	0.0
C 	7.378536440243416	11.359999999999998	0.0
C 	8.608292513617318	10.649999999999997	0.0
C 	9.838048586991222	11.359999999999998	0.0
C 	11.067804660365125	10.649999999999997	0.0
C 	12.297560733739028	11.359999999999996	0.0
C 	13.52731680711293	10.649999999999997	0.0
C 	14.757072880486831	11.359999999999996	0.0
C 	15.986828953860735	10.649999999999997	0.0
C 	17.216585027234636	11.359999999999996	0.0
C 	18.44634110060854	10.649999999999997	0.0
C 	19.676097173982445	11.359999999999998	0.0
C 	20.905853247356347	10.649999999999997	0.0
C 	22.13560932073025	11.359999999999996	0.0
C 	23.365365394104153	10.649999999999997	0.0
C 	24.595121467478055	11.359999999999996	0.0
C 	25.824877540851958	10.649999999999997	0.0
C 	27.05463361422586	11.359999999999996	0.0
C 	28.284389687599763	10.649999999999995	0.0
C 	29.514145760973662	11.359999999999994	0.0
C 	30.743901834347565	10.649999999999995	0.0
C 	31.97365790772147	11.359999999999996	0.0
C 	33.20341398109537	10.649999999999997	0.0
C 	34.43317005446928	11.359999999999998	0.0
C 	35.66292612784318	10.649999999999991	0.0
C 	36.89268220121708	11.359999999999992	0.0
C 	38.122438274590984	10.649999999999993	0.0
C 	39.35219434796489	11.359999999999994	0.0
C 	40.58195042133879	10.649999999999993	0.0
C 	41.811706494712695	11.359999999999994	0.0
C 	43.041462568086594	10.649999999999991	0.0
C 	44.2712186414605	11.359999999999992	0.0
C 	45.5009747148344	10.649999999999993	0.0
C 	46.730730788208305	11.359999999999994	0.0
C 	47.960486861582204	10.649999999999995	0.0
C 	49.19024293495611	11.359999999999996	0.0
C 	50.41999900833001	10.649999999999993	0.0
C 	51.649755081703915	11.359999999999994	0.0
C 	52.879511155077815	10.649999999999995	0.0
C 	54.10926722845172	11.359999999999996	0.0
C 	55.33902330182562	10.649999999999993	0.0
C 	56.568779375199526	11.359999999999994	0.0
C 	57.798535448573425	10.649999999999993	0.0
C 	59.02829152194733	11.359999999999992	0.0
C 	60.25804759532124	10.649999999999995	0.0
C 	61.487803668695136	11.359999999999996	0.0
C 	62.717559742069035	10.649999999999991	0.0
C 	63.94731581544294	11.359999999999992	0.0
C 	65.17707188881684	10.649999999999991	0.0
C 	66.40682796219075	11.359999999999992	0.0
C 	7.378536440243417	12.779999999999998	0.0
C 	8.60829251361732	13.489999999999998	0.0
C 	9.838048586991222	12.78	0.0
C 	11.067804660365125	13.489999999999997	0.0
C 	12.297560733739028	12.779999999999998	0.0
C 	13.527316807112932	13.489999999999998	0.0
C 	14.757072880486833	12.779999999999998	0.0
C 	15.986828953860737	13.489999999999997	0.0
C 	17.216585027234636	12.779999999999996	0.0
C 	18.446341100608542	13.489999999999997	0.0
C 	19.676097173982445	12.779999999999998	0.0
C 	20.905853247356347	13.489999999999997	0.0
C 	22.13560932073025	12.779999999999996	0.0
C 	23.36536539410415	13.489999999999995	0.0
C 	24.595121467478055	12.779999999999996	0.0
C 	25.824877540851958	13.489999999999997	0.0
C 	27.05463361422586	12.779999999999998	0.0
C 	28.284389687599763	13.489999999999997	0.0
C 	29.514145760973662	12.779999999999996	0.0
C 	30.743901834347568	13.489999999999997	0.0
C 	31.97365790772147	12.779999999999996	0.0
C 	33.20341398109537	13.489999999999997	0.0
C 	34.43317005446928	12.779999999999998	0.0
C 	35.66292612784318	13.489999999999995	0.0
C 	36.89268220121708	12.779999999999994	0.0
C 	38.122438274590984	13.489999999999995	0.0
C 	39.35219434796489	12.779999999999996	0.0
C 	40.581950421338796	13.489999999999997	0.0
C 	41.811706494712695	12.779999999999996	0.0
C 	43.041462568086594	13.489999999999993	0.0
C 	44.2712186414605	12.779999999999994	0.0
C 	45.5009747148344	13.489999999999995	0.0
C 	46.730730788208305	12.779999999999996	0.0
C 	47.96048686158221	13.489999999999997	0.0
C 	49.19024293495611	12.779999999999998	0.0
C 	50.41999900833001	13.489999999999995	0.0
C 	51.649755081703915	12.779999999999996	0.0
C 	52.879511155077815	13.489999999999993	0.0
C 	54.10926722845172	12.779999999999998	0.0
C 	55.33902330182563	13.489999999999998	0.0
C 	56.56877937519952	12.779999999999998	0.0
C 	57.798535448573425	13.489999999999997	0.0
C 	59.02829152194733	12.779999999999994	0.0
C 	60.25804759532123	13.489999999999991	0.0
C 	61.487803668695136	12.779999999999998	0.0
C 	62.71755974206904	13.489999999999998	0.0
C 	63.94731581544294	12.779999999999994	0.0
C 	65.17707188881684	13.489999999999995	0.0
C 	66.40682796219075	12.77999999999999	0.0
C 	67.63658403556465	13.489999999999988	0.0
C 	8.60829251361732	14.909999999999998	0.0
C 	9.838048586991222	15.619999999999996	0.0
C 	11.067804660365125	14.909999999999997	0.0
C 	12.297560733739026	15.619999999999996	0.0
C 	13.527316807112934	14.909999999999998	0.0
C 	14.757072880486831	15.619999999999996	0.0
C 	15.986828953860737	14.909999999999998	0.0
C 	17.21658502723464	15.619999999999997	0.0
C 	18.446341100608542	14.909999999999997	0.0
C 	19.676097173982445	15.619999999999996	0.0
C 	20.905853247356347	14.909999999999997	0.0
C 	22.135609320730246	15.619999999999996	0.0
C 	23.365365394104153	14.909999999999995	0.0
C 	24.595121467478055	15.619999999999996	0.0
C 	25.824877540851958	14.909999999999997	0.0
C 	27.05463361422586	15.619999999999996	0.0
C 	28.284389687599763	14.909999999999997	0.0
C 	29.514145760973665	15.619999999999996	0.0
C 	30.743901834347568	14.909999999999997	0.0
C 	31.973657907721474	15.619999999999997	0.0
C 	33.203413981095366	14.909999999999993	0.0
C 	34.43317005446927	15.619999999999994	0.0
C 	35.662926127843185	14.909999999999998	0.0
C 	36.892682201217085	15.619999999999996	0.0
C 	38.122438274590984	14.909999999999995	0.0
C 	39.35219434796489	15.619999999999996	0.0
C 	40.58195042133879	14.909999999999993	0.0
C 	41.811706494712695	15.619999999999994	0.0
C 	43.0414625680866	14.909999999999998	0.0
C 	44.2712186414605	15.619999999999996	0.0
C 	45.5009747148344	14.909999999999995	0.0
C 	46.730730788208305	15.619999999999996	0.0
C 	47.960486861582204	14.909999999999993	0.0
C 	49.19024293495611	15.619999999999994	0.0
C 	50.41999900833002	14.909999999999998	0.0
C 	51.649755081703915	15.619999999999996	0.0
C 	52.87951115507782	14.909999999999997	0.0
C 	54.10926722845171	15.619999999999994	0.0
C 	55.33902330182562	14.909999999999995	0.0
C 	56.568779375199526	15.619999999999994	0.0
C 	57.798535448573425	14.909999999999991	0.0
C 	59.028291521947324	15.619999999999992	0.0
C 	60.25804759532124	14.909999999999998	0.0
C 	61.487803668695136	15.619999999999996	0.0
C 	62.717559742069035	14.909999999999993	0.0
C 	63.94731581544294	15.619999999999994	0.0
C 	65.17707188881684	14.909999999999993	0.0
C 	66.40682796219075	15.619999999999994	0.0
C 	67.63658403556465	14.909999999999997	0.0
C 	68.86634010893854	15.61999999999999	0.0
C 	9.838048586991222	17.039999999999996	0.0
C 	11.067804660365127	17.749999999999996	0.0
C 	12.297560733739028	17.039999999999996	0.0
C 	13.527316807112932	17.749999999999996	0.0
C 	14.757072880486833	17.039999999999996	0.0
C 	15.986828953860735	17.749999999999996	0.0
C 	17.21658502723464	17.039999999999996	0.0
C 	18.446341100608546	17.749999999999996	0.0
C 	19.676097173982445	17.039999999999996	0.0
C 	20.905853247356347	17.749999999999996	0.0
C 	22.13560932073025	17.039999999999996	0.0
C 	23.365365394104153	17.749999999999996	0.0
C 	24.595121467478055	17.039999999999996	0.0
C 	25.82487754085196	17.749999999999996	0.0
C 	27.05463361422586	17.039999999999996	0.0
C 	28.28438968759977	17.75	0.0
C 	29.514145760973665	17.039999999999996	0.0
C 	30.74390183434757	17.749999999999996	0.0
C 	31.973657907721467	17.039999999999992	0.0
C 	33.20341398109537	17.749999999999993	0.0
C 	34.43317005446927	17.039999999999996	0.0
C 	35.66292612784318	17.749999999999996	0.0
C 	36.892682201217085	17.039999999999996	0.0
C 	38.122438274590984	17.749999999999996	0.0
C 	39.35219434796488	17.039999999999992	0.0
C 	40.58195042133879	17.749999999999993	0.0
C 	41.811706494712695	17.039999999999992	0.0
C 	43.041462568086594	17.749999999999993	0.0
C 	44.2712186414605	17.039999999999996	0.0
C 	45.500974714834406	17.749999999999996	0.0
C 	46.7307307882083	17.039999999999992	0.0
C 	47.960486861582204	17.749999999999993	0.0
C 	49.19024293495611	17.039999999999992	0.0
C 	50.41999900833002	17.749999999999993	0.0
C 	51.649755081703915	17.039999999999996	0.0
C 	52.87951115507782	17.749999999999996	0.0
C 	54.10926722845172	17.039999999999992	0.0
C 	55.33902330182562	17.749999999999993	0.0
C 	56.568779375199526	17.039999999999996	0.0
C 	57.79853544857343	17.749999999999996	0.0
C 	59.028291521947324	17.039999999999992	0.0
C 	60.25804759532123	17.749999999999993	0.0
C 	61.487803668695136	17.039999999999996	0.0
C 	62.71755974206904	17.749999999999996	0.0
C 	63.94731581544294	17.04	0.0
C 	65.17707188881684	17.749999999999993	0.0
C 	66.40682796219075	17.039999999999996	0.0
C 	67.63658403556464	17.74999999999999	0.0
C 	68.86634010893856	17.03999999999999	0.0
C 	70.09609618231246	17.74999999999999	0.0
C 	11.067804660365125	19.169999999999995	0.0
C 	12.297560733739026	19.879999999999995	0.0
C 	13.52731680711293	19.169999999999995	0.0
C 	14.757072880486831	19.879999999999995	0.0
C 	15.986828953860737	19.169999999999998	0.0
C 	17.216585027234636	19.879999999999992	0.0
C 	18.446341100608542	19.169999999999995	0.0
C 	19.676097173982445	19.879999999999995	0.0
C 	20.905853247356347	19.169999999999995	0.0
C 	22.135609320730246	19.879999999999995	0.0
C 	23.365365394104153	19.169999999999995	0.0
C 	24.59512146747805	19.879999999999995	0.0
C 	25.824877540851958	19.169999999999995	0.0
C 	27.05463361422586	19.879999999999995	0.0
C 	28.284389687599763	19.169999999999995	0.0
C 	29.51414576097367	19.879999999999995	0.0
C 	30.743901834347565	19.16999999999999	0.0
C 	31.97365790772147	19.879999999999992	0.0
C 	33.20341398109537	19.169999999999995	0.0
C 	34.43317005446927	19.879999999999992	0.0
C 	35.66292612784318	19.169999999999995	0.0
C 	36.89268220121708	19.879999999999992	0.0
C 	38.122438274590984	19.169999999999995	0.0
C 	39.35219434796488	19.879999999999992	0.0
C 	40.58195042133879	19.16999999999999	0.0
C 	41.81170649471269	19.87999999999999	0.0
C 	43.0414625680866	19.169999999999995	0.0
C 	44.27121864146049	19.879999999999992	0.0
C 	45.5009747148344	19.16999999999999	0.0
C 	46.730730788208305	19.879999999999992	0.0
C 	47.960486861582204	19.169999999999995	0.0
C 	49.1902429349561	19.879999999999992	0.0
C 	50.41999900833002	19.169999999999995	0.0
C 	51.649755081703915	19.879999999999992	0.0
C 	52.879511155077815	19.16999999999999	0.0
C 	54.10926722845172	19.879999999999992	0.0
C 	55.33902330182562	19.16999999999999	0.0
C 	56.56877937519952	19.879999999999992	0.0
C 	57.79853544857343	19.169999999999995	0.0
C 	59.02829152194733	19.879999999999992	0.0
C 	60.25804759532123	19.169999999999995	0.0
C 	61.48780366869513	19.879999999999992	0.0
C 	62.717559742069035	19.16999999999999	0.0
C 	63.94731581544294	19.879999999999992	0.0
C 	65.17707188881684	19.169999999999995	0.0
C 	66.40682796219075	19.87999999999999	0.0
C 	67.63658403556465	19.169999999999995	0.0
C 	68.86634010893854	19.87999999999999	0.0
C 	70.09609618231245	19.16999999999999	0.0
C 	71.32585225568636	19.879999999999992	0.0
C 	12.297560733739028	21.299999999999994	0.0
C 	13.527316807112932	22.009999999999994	0.0
C 	14.757072880486831	21.299999999999994	0.0
C 	15.986828953860735	22.009999999999994	0.0
C 	17.216585027234636	21.299999999999994	0.0
C 	18.44634110060854	22.009999999999994	0.0
C 	19.676097173982445	21.299999999999994	0.0
C 	20.905853247356347	22.009999999999994	0.0
C 	22.13560932073025	21.299999999999994	0.0
C 	23.365365394104153	22.009999999999994	0.0
C 	24.595121467478055	21.299999999999994	0.0
C 	25.824877540851958	22.009999999999994	0.0
C 	27.05463361422586	21.299999999999994	0.0
C 	28.284389687599766	22.009999999999994	0.0
C 	29.514145760973662	21.29999999999999	0.0
C 	30.743901834347568	22.00999999999999	0.0
C 	31.97365790772147	21.299999999999994	0.0
C 	33.20341398109537	22.009999999999994	0.0
C 	34.43317005446928	21.299999999999994	0.0
C 	35.662926127843185	22.009999999999994	0.0
C 	36.89268220121708	21.299999999999994	0.0
C 	38.122438274590984	22.009999999999994	0.0
C 	39.35219434796489	21.299999999999994	0.0
C 	40.58195042133879	22.009999999999994	0.0
C 	41.811706494712695	21.299999999999994	0.0
C 	43.0414625680866	22.009999999999994	0.0
C 	44.2712186414605	21.29999999999999	0.0
C 	45.5009747148344	22.00999999999999	0.0
C 	46.730730788208305	21.299999999999994	0.0
C 	47.96048686158221	22.009999999999994	0.0
C 	49.19024293495611	21.299999999999994	0.0
C 	50.41999900833002	22.009999999999994	0.0
C 	51.649755081703915	21.299999999999994	0.0
C 	52.879511155077815	22.00999999999999	0.0
C 	54.10926722845172	21.299999999999994	0.0
C 	55.33902330182563	22.009999999999994	0.0
C 	56.568779375199526	21.29999999999999	0.0
C 	57.798535448573425	22.00999999999999	0.0
C 	59.02829152194733	21.299999999999994	0.0
C 	60.25804759532124	22.009999999999994	0.0
C 	61.48780366869513	21.29999999999999	0.0
C 	62.717559742069035	22.00999999999999	0.0
C 	63.94731581544294	21.299999999999994	0.0
C 	65.17707188881684	22.009999999999987	0.0
C 	66.40682796219075	21.299999999999994	0.0
C 	67.63658403556465	22.009999999999994	0.0
C 	68.86634010893854	21.29999999999999	0.0
C 	70.09609618231245	22.00999999999999	0.0
C 	71.32585225568636	21.299999999999983	0.0
C 	72.55560832906026	22.00999999999999	0.0
C 	13.527316807112932	23.429999999999996	0.0
C 	14.757072880486836	24.139999999999997	0.0
C 	15.986828953860737	23.429999999999996	0.0
C 	17.216585027234643	24.139999999999997	0.0
C 	18.446341100608542	23.429999999999996	0.0
C 	19.676097173982445	24.139999999999997	0.0
C 	20.90585324735635	23.429999999999996	0.0
C 	22.135609320730254	24.139999999999997	0.0
C 	23.365365394104156	23.429999999999993	0.0
C 	24.595121467478062	24.139999999999997	0.0
C 	25.824877540851958	23.429999999999993	0.0
C 	27.054633614225864	24.139999999999993	0.0
C 	28.284389687599766	23.429999999999996	0.0
C 	29.514145760973673	24.139999999999997	0.0
C 	30.743901834347575	23.429999999999996	0.0
C 	31.973657907721478	24.139999999999997	0.0
C 	33.20341398109537	23.429999999999993	0.0
C 	34.43317005446928	24.139999999999993	0.0
C 	35.66292612784318	23.429999999999993	0.0
C 	36.892682201217085	24.139999999999993	0.0
C 	38.122438274590984	23.429999999999993	0.0
C 	39.35219434796489	24.139999999999993	0.0
C 	40.58195042133879	23.429999999999996	0.0
C 	41.811706494712695	24.139999999999993	0.0
C 	43.041462568086594	23.42999999999999	0.0
C 	44.2712186414605	24.13999999999999	0.0
C 	45.5009747148344	23.429999999999993	0.0
C 	46.730730788208305	24.139999999999993	0.0
C 	47.96048686158221	23.429999999999993	0.0
C 	49.19024293495611	24.139999999999993	0.0
C 	50.41999900833001	23.429999999999993	0.0
C 	51.649755081703915	24.13999999999999	0.0
C 	52.87951115507782	23.429999999999993	0.0
C 	54.10926722845172	24.139999999999993	0.0
C 	55.33902330182563	23.429999999999993	0.0
C 	56.56877937519953	24.139999999999993	0.0
C 	57.798535448573425	23.429999999999993	0.0
C 	59.02829152194733	24.139999999999993	0.0
C 	60.25804759532124	23.429999999999993	0.0
C 	61.487803668695136	24.13999999999999	0.0
C 	62.71755974206904	23.429999999999993	0.0
C 	63.947315815442934	24.139999999999986	0.0
C 	65.17707188881684	23.429999999999993	0.0
C 	66.40682796219075	24.139999999999993	0.0
C 	67.63658403556464	23.42999999999999	0.0
C 	68.86634010893856	24.139999999999997	0.0
C 	70.09609618231245	23.42999999999999	0.0
C 	71.32585225568636	24.139999999999997	0.0
C 	72.55560832906026	23.42999999999999	0.0
C 	73.78536440243417	24.13999999999999	0.0
C 	14.757072880486835	25.559999999999995	0.0
C 	15.986828953860735	26.269999999999996	0.0
C 	17.21658502723464	25.559999999999995	0.0
C 	18.44634110060854	26.269999999999996	0.0
C 	19.676097173982445	25.56	0.0
C 	20.905853247356344	26.269999999999996	0.0
C 	22.13560932073025	25.56	0.0
C 	23.365365394104153	26.269999999999996	0.0
C 	24.595121467478055	25.559999999999995	0.0
C 	25.824877540851958	26.269999999999996	0.0
C 	27.054633614225857	25.559999999999995	0.0
C 	28.28438968759976	26.269999999999996	0.0
C 	29.514145760973665	25.559999999999995	0.0
C 	30.743901834347568	26.269999999999996	0.0
C 	31.973657907721474	25.559999999999995	0.0
C 	33.20341398109538	26.269999999999996	0.0
C 	34.43317005446927	25.55999999999999	0.0
C 	35.66292612784318	26.269999999999992	0.0
C 	36.892682201217085	25.559999999999995	0.0
C 	38.12243827459098	26.269999999999992	0.0
C 	39.35219434796489	25.559999999999995	0.0
C 	40.58195042133879	26.269999999999992	0.0
C 	41.81170649471269	25.55999999999999	0.0
C 	43.041462568086594	26.269999999999992	0.0
C 	44.2712186414605	25.55999999999999	0.0
C 	45.5009747148344	26.26999999999999	0.0
C 	46.730730788208305	25.559999999999995	0.0
C 	47.960486861582204	26.269999999999992	0.0
C 	49.19024293495611	25.55999999999999	0.0
C 	50.41999900833001	26.269999999999992	0.0
C 	51.649755081703915	25.559999999999995	0.0
C 	52.879511155077815	26.269999999999992	0.0
C 	54.10926722845172	25.559999999999995	0.0
C 	55.33902330182562	26.269999999999992	0.0
C 	56.568779375199526	25.55999999999999	0.0
C 	57.79853544857343	26.269999999999992	0.0
C 	59.028291521947324	25.55999999999999	0.0
C 	60.25804759532123	26.269999999999992	0.0
C 	61.487803668695136	25.559999999999995	0.0
C 	62.717559742069035	26.26999999999999	0.0
C 	63.94731581544294	25.55999999999999	0.0
C 	65.17707188881683	26.269999999999985	0.0
C 	66.40682796219075	25.55999999999999	0.0
C 	67.63658403556465	26.269999999999992	0.0
C 	68.86634010893856	25.559999999999995	0.0
C 	70.09609618231246	26.269999999999996	0.0
C 	71.32585225568636	25.559999999999995	0.0
C 	72.55560832906026	26.269999999999996	0.0
C 	73.78536440243415	25.559999999999988	0.0
C 	75.01512047580806	26.26999999999999	0.0
C 	15.986828953860735	27.689999999999994	0.0
C 	17.21658502723464	28.399999999999995	0.0
C 	18.446341100608542	27.689999999999994	0.0
C 	19.676097173982445	28.399999999999995	0.0
C 	20.905853247356344	27.689999999999994	0.0
C 	22.13560932073025	28.399999999999995	0.0
C 	23.365365394104153	27.689999999999994	0.0
C 	24.59512146747806	28.399999999999995	0.0
C 	25.824877540851954	27.689999999999994	0.0
C 	27.054633614225857	28.399999999999995	0.0
C 	28.284389687599763	27.689999999999994	0.0
C 	29.514145760973665	28.399999999999995	0.0
C 	30.74390183434757	27.689999999999994	0.0
C 	31.973657907721474	28.399999999999995	0.0
C 	33.20341398109537	27.68999999999999	0.0
C 	34.43317005446928	28.39999999999999	0.0
C 	35.66292612784318	27.689999999999994	0.0
C 	36.892682201217085	28.399999999999995	0.0
C 	38.122438274590984	27.689999999999994	0.0
C 	39.35219434796489	28.399999999999995	0.0
C 	40.58195042133879	27.689999999999994	0.0
C 	41.811706494712695	28.399999999999995	0.0
C 	43.041462568086594	27.689999999999994	0.0
C 	44.2712186414605	28.399999999999995	0.0
C 	45.500974714834406	27.689999999999994	0.0
C 	46.730730788208305	28.399999999999995	0.0
C 	47.960486861582204	27.68999999999999	0.0
C 	49.19024293495611	28.39999999999999	0.0
C 	50.41999900833002	27.689999999999994	0.0
C 	51.649755081703915	28.399999999999995	0.0
C 	52.87951115507782	27.689999999999994	0.0
C 	54.10926722845173	28.399999999999995	0.0
C 	55.33902330182562	27.68999999999999	0.0
C 	56.568779375199526	28.39999999999999	0.0
C 	57.79853544857343	27.689999999999994	0.0
C 	59.02829152194733	28.39999999999999	0.0
C 	60.25804759532124	27.689999999999994	0.0
C 	61.48780366869513	28.399999999999988	0.0
C 	62.717559742069035	27.689999999999994	0.0
C 	63.94731581544294	28.399999999999995	0.0
C 	65.17707188881684	27.68999999999999	0.0
C 	66.40682796219075	28.39999999999999	0.0
C 	67.63658403556464	27.689999999999987	0.0
C 	68.86634010893856	28.399999999999995	0.0
C 	70.09609618231245	27.689999999999994	0.0
C 	71.32585225568636	28.399999999999995	0.0
C 	72.55560832906026	27.68999999999999	0.0
C 	73.78536440243415	28.39999999999999	0.0
C 	75.01512047580808	27.689999999999994	0.0
C 	76.24487654918197	28.399999999999984	0.0
C 	17.21658502723464	29.819999999999997	0.0
C 	18.446341100608546	30.529999999999998	0.0
C 	19.676097173982445	29.819999999999997	0.0
C 	20.905853247356355	30.529999999999998	0.0
C 	22.13560932073025	29.819999999999993	0.0
C 	23.365365394104156	30.529999999999994	0.0
C 	24.59512146747806	29.819999999999997	0.0
C 	25.82487754085196	30.529999999999998	0.0
C 	27.054633614225867	29.819999999999997	0.0
C 	28.28438968759977	30.529999999999998	0.0
C 	29.514145760973665	29.819999999999997	0.0
C 	30.74390183434757	30.529999999999998	0.0
C 	31.973657907721474	29.819999999999997	0.0
C 	33.20341398109538	30.529999999999998	0.0
C 	34.43317005446928	29.819999999999997	0.0
C 	35.662926127843185	30.529999999999998	0.0
C 	36.892682201217085	29.819999999999993	0.0
C 	38.12243827459099	30.529999999999994	0.0
C 	39.35219434796488	29.819999999999993	0.0
C 	40.58195042133879	30.529999999999994	0.0
C 	41.811706494712695	29.819999999999993	0.0
C 	43.0414625680866	30.529999999999994	0.0
C 	44.2712186414605	29.819999999999993	0.0
C 	45.500974714834406	30.529999999999994	0.0
C 	46.730730788208305	29.81999999999999	0.0
C 	47.960486861582204	30.52999999999999	0.0
C 	49.19024293495611	29.819999999999993	0.0
C 	50.41999900833002	30.529999999999994	0.0
C 	51.649755081703915	29.819999999999993	0.0
C 	52.87951115507782	30.529999999999994	0.0
C 	54.10926722845172	29.819999999999993	0.0
C 	55.33902330182563	30.52999999999999	0.0
C 	56.568779375199526	29.819999999999993	0.0
C 	57.798535448573425	30.52999999999999	0.0
C 	59.02829152194734	29.819999999999993	0.0
C 	60.25804759532124	30.529999999999994	0.0
C 	61.487803668695136	29.819999999999993	0.0
C 	62.71755974206904	30.529999999999994	0.0
C 	63.947315815442934	29.81999999999999	0.0
C 	65.17707188881685	30.529999999999998	0.0
C 	66.40682796219073	29.819999999999986	0.0
C 	67.63658403556465	30.529999999999994	0.0
C 	68.86634010893856	29.819999999999993	0.0
C 	70.09609618231245	30.529999999999994	0.0
C 	71.32585225568637	29.819999999999997	0.0
C 	72.55560832906026	30.52999999999999	0.0
C 	73.78536440243417	29.819999999999997	0.0
C 	75.01512047580806	30.529999999999987	0.0
C 	76.24487654918197	29.81999999999999	0.0
C 	77.47463262255587	30.52999999999999	0.0
C 	18.446341100608542	31.949999999999996	0.0
C 	19.676097173982445	32.65999999999999	0.0
C 	20.905853247356347	31.949999999999992	0.0
C 	22.135609320730254	32.66	0.0
C 	23.365365394104156	31.949999999999996	0.0
C 	24.595121467478055	32.65999999999999	0.0
C 	25.824877540851958	31.949999999999992	0.0
C 	27.05463361422586	32.66	0.0
C 	28.284389687599766	31.949999999999996	0.0
C 	29.51414576097367	32.66	0.0
C 	30.743901834347568	31.949999999999992	0.0
C 	31.97365790772147	32.66	0.0
C 	33.20341398109537	31.949999999999992	0.0
C 	34.43317005446928	32.66	0.0
C 	35.66292612784318	31.949999999999996	0.0
C 	36.892682201217085	32.66	0.0
C 	38.122438274590984	31.949999999999992	0.0
C 	39.35219434796489	32.65999999999999	0.0
C 	40.58195042133879	31.949999999999992	0.0
C 	41.81170649471269	32.65999999999999	0.0
C 	43.0414625680866	31.949999999999996	0.0
C 	44.2712186414605	32.65999999999999	0.0
C 	45.5009747148344	31.949999999999992	0.0
C 	46.730730788208305	32.65999999999999	0.0
C 	47.96048686158221	31.949999999999992	0.0
C 	49.1902429349561	32.65999999999999	0.0
C 	50.41999900833002	31.949999999999992	0.0
C 	51.649755081703915	32.65999999999999	0.0
C 	52.879511155077815	31.949999999999992	0.0
C 	54.10926722845172	32.65999999999999	0.0
C 	55.33902330182563	31.949999999999992	0.0
C 	56.568779375199526	32.65999999999999	0.0
C 	57.79853544857343	31.949999999999992	0.0
C 	59.028291521947324	32.65999999999999	0.0
C 	60.25804759532124	31.949999999999992	0.0
C 	61.487803668695136	32.65999999999999	0.0
C 	62.717559742069035	31.94999999999999	0.0
C 	63.94731581544294	32.65999999999999	0.0
C 	65.17707188881685	31.949999999999992	0.0
C 	66.40682796219076	32.66	0.0
C 	67.63658403556465	31.949999999999992	0.0
C 	68.86634010893856	32.65999999999999	0.0
C 	70.09609618231245	31.94999999999999	0.0
C 	71.32585225568636	32.65999999999999	0.0
C 	72.55560832906026	31.949999999999996	0.0
C 	73.78536440243415	32.65999999999999	0.0
C 	75.01512047580806	31.949999999999992	0.0
C 	76.24487654918195	32.65999999999998	0.0
C 	77.47463262255587	31.949999999999985	0.0
C 	78.70438869592978	32.65999999999999	0.0
C 	19.676097173982445	34.07999999999999	0.0
C 	20.90585324735635	34.78999999999999	0.0
C 	22.135609320730254	34.07999999999999	0.0
C 	23.365365394104156	34.78999999999999	0.0
C 	24.595121467478055	34.07999999999999	0.0
C 	25.824877540851958	34.78999999999999	0.0
C 	27.054633614225864	34.07999999999999	0.0
C 	28.284389687599766	34.78999999999999	0.0
C 	29.514145760973665	34.07999999999999	0.0
C 	30.743901834347568	34.78999999999999	0.0
C 	31.97365790772147	34.07999999999999	0.0
C 	33.20341398109537	34.78999999999999	0.0
C 	34.43317005446928	34.07999999999999	0.0
C 	35.662926127843185	34.78999999999999	0.0
C 	36.89268220121708	34.07999999999999	0.0
C 	38.122438274590984	34.78999999999999	0.0
C 	39.35219434796489	34.07999999999999	0.0
C 	40.581950421338796	34.78999999999999	0.0
C 	41.811706494712695	34.07999999999999	0.0
C 	43.0414625680866	34.78999999999999	0.0
C 	44.2712186414605	34.07999999999999	0.0
C 	45.5009747148344	34.78999999999999	0.0
C 	46.730730788208305	34.07999999999999	0.0
C 	47.96048686158221	34.78999999999999	0.0
C 	49.19024293495611	34.07999999999999	0.0
C 	50.41999900833002	34.78999999999999	0.0
C 	51.649755081703915	34.07999999999999	0.0
C 	52.87951115507782	34.78999999999999	0.0
C 	54.10926722845172	34.07999999999999	0.0
C 	55.33902330182562	34.78999999999999	0.0
C 	56.56877937519953	34.07999999999999	0.0
C 	57.79853544857343	34.78999999999999	0.0
C 	59.02829152194733	34.07999999999999	0.0
C 	60.25804759532124	34.78999999999999	0.0
C 	61.487803668695136	34.07999999999999	0.0
C 	62.71755974206905	34.79	0.0
C 	63.947315815442934	34.079999999999984	0.0
C 	65.17707188881685	34.78999999999999	0.0
C 	66.40682796219075	34.07999999999999	0.0
C 	67.63658403556465	34.78999999999999	0.0
C 	68.86634010893854	34.07999999999999	0.0
C 	70.09609618231245	34.78999999999999	0.0
C 	71.32585225568636	34.07999999999999	0.0
C 	72.55560832906025	34.789999999999985	0.0
C 	73.78536440243417	34.07999999999999	0.0
C 	75.01512047580808	34.78999999999999	0.0
C 	76.24487654918197	34.07999999999999	0.0
C 	77.47463262255587	34.78999999999999	0.0
C 	78.70438869592977	34.079999999999984	0.0
C 	79.93414476930369	34.78999999999999	0.0
C 	20.90585324735635	36.209999999999994	0.0
C 	22.135609320730254	36.919999999999995	0.0
C 	23.36536539410416	36.209999999999994	0.0
C 	24.595121467478062	36.919999999999995	0.0
C 	25.82487754085196	36.209999999999994	0.0
C 	27.054633614225864	36.919999999999995	0.0
C 	28.284389687599766	36.209999999999994	0.0
C 	29.514145760973673	36.919999999999995	0.0
C 	30.743901834347575	36.209999999999994	0.0
C 	31.973657907721478	36.919999999999995	0.0
C 	33.20341398109537	36.209999999999994	0.0
C 	34.43317005446928	36.919999999999995	0.0
C 	35.662926127843185	36.209999999999994	0.0
C 	36.89268220121709	36.919999999999995	0.0
C 	38.12243827459099	36.209999999999994	0.0
C 	39.3521943479649	36.919999999999995	0.0
C 	40.581950421338796	36.209999999999994	0.0
C 	41.811706494712695	36.919999999999995	0.0
C 	43.041462568086594	36.209999999999994	0.0
C 	44.2712186414605	36.919999999999995	0.0
C 	45.500974714834406	36.209999999999994	0.0
C 	46.730730788208305	36.919999999999995	0.0
C 	47.96048686158221	36.209999999999994	0.0
C 	49.19024293495612	36.919999999999995	0.0
C 	50.41999900833002	36.20999999999999	0.0
C 	51.649755081703915	36.91999999999999	0.0
C 	52.87951115507782	36.209999999999994	0.0
C 	54.10926722845172	36.91999999999999	0.0
C 	55.33902330182563	36.209999999999994	0.0
C 	56.56877937519953	36.919999999999995	0.0
C 	57.79853544857343	36.20999999999999	0.0
C 	59.02829152194733	36.91999999999999	0.0
C 	60.25804759532123	36.20999999999999	0.0
C 	61.48780366869515	36.919999999999995	0.0
C 	62.71755974206904	36.209999999999994	0.0
C 	63.94731581544295	36.919999999999995	0.0
C 	65.17707188881684	36.209999999999994	0.0
C 	66.40682796219075	36.919999999999995	0.0
C 	67.63658403556467	36.209999999999994	0.0
C 	68.86634010893856	36.91999999999999	0.0
C 	70.09609618231246	36.209999999999994	0.0
C 	71.32585225568636	36.91999999999999	0.0
C 	72.55560832906026	36.209999999999994	0.0
C 	73.78536440243417	36.919999999999995	0.0
C 	75.01512047580806	36.20999999999999	0.0
C 	76.24487654918198	36.919999999999995	0.0
C 	77.47463262255586	36.20999999999999	0.0
C 	78.70438869592978	36.919999999999995	0.0
C 	79.93414476930369	36.20999999999999	0.0
C 	81.16390084267759	36.91999999999999	0.0
C 	22.13560932073025	38.33999999999999	0.0
C 	23.365365394104153	39.04999999999999	0.0
C 	24.59512146747806	38.33999999999999	0.0
C 	25.82487754085196	39.04999999999999	0.0
C 	27.05463361422586	38.33999999999999	0.0
C 	28.284389687599763	39.04999999999999	0.0
C 	29.514145760973665	38.33999999999999	0.0
C 	30.74390183434757	39.04999999999999	0.0
C 	31.973657907721474	38.339999999999996	0.0
C 	33.20341398109538	39.04999999999999	0.0
C 	34.43317005446927	38.33999999999999	0.0
C 	35.66292612784318	39.04999999999999	0.0
C 	36.892682201217085	38.33999999999999	0.0
C 	38.12243827459099	39.04999999999999	0.0
C 	39.35219434796489	38.33999999999999	0.0
C 	40.581950421338796	39.04999999999999	0.0
C 	41.811706494712695	38.33999999999999	0.0
C 	43.0414625680866	39.04999999999999	0.0
C 	44.27121864146049	38.33999999999999	0.0
C 	45.5009747148344	39.04999999999999	0.0
C 	46.730730788208305	38.33999999999999	0.0
C 	47.960486861582204	39.04999999999999	0.0
C 	49.19024293495611	38.33999999999999	0.0
C 	50.41999900833002	39.04999999999999	0.0
C 	51.649755081703915	38.33999999999999	0.0
C 	52.879511155077815	39.04999999999999	0.0
C 	54.10926722845173	38.33999999999999	0.0
C 	55.33902330182562	39.04999999999998	0.0
C 	56.568779375199526	38.33999999999999	0.0
C 	57.79853544857343	39.04999999999999	0.0
C 	59.02829152194733	38.33999999999999	0.0
C 	60.25804759532123	39.04999999999999	0.0
C 	61.48780366869513	38.33999999999998	0.0
C 	62.71755974206905	39.04999999999999	0.0
C 	63.94731581544294	38.33999999999999	0.0
C 	65.17707188881685	39.04999999999999	0.0
C 	66.40682796219075	38.33999999999999	0.0
C 	67.63658403556465	39.04999999999999	0.0
C 	68.86634010893856	38.33999999999999	0.0
C 	70.09609618231245	39.04999999999998	0.0
C 	71.32585225568636	38.33999999999999	0.0
C 	72.55560832906025	39.04999999999998	0.0
C 	73.78536440243415	38.33999999999999	0.0
C 	75.01512047580806	39.04999999999999	0.0
C 	76.24487654918197	38.33999999999999	0.0
C 	77.47463262255587	39.05	0.0
C 	78.70438869592977	38.33999999999998	0.0
C 	79.93414476930369	39.04999999999999	0.0
C 	81.16390084267758	38.33999999999998	0.0
C 	82.39365691605148	39.04999999999998	0.0
C 	23.365365394104156	40.46999999999999	0.0
C 	24.59512146747806	41.17999999999999	0.0
C 	25.82487754085196	40.46999999999999	0.0
C 	27.054633614225867	41.17999999999999	0.0
C 	28.284389687599763	40.46999999999999	0.0
C 	29.51414576097367	41.17999999999999	0.0
C 	30.74390183434757	40.46999999999999	0.0
C 	31.973657907721474	41.17999999999999	0.0
C 	33.20341398109537	40.46999999999999	0.0
C 	34.43317005446928	41.17999999999999	0.0
C 	35.66292612784318	40.46999999999999	0.0
C 	36.892682201217085	41.17999999999999	0.0
C 	38.12243827459099	40.46999999999999	0.0
C 	39.3521943479649	41.17999999999999	0.0
C 	40.58195042133879	40.46999999999999	0.0
C 	41.811706494712695	41.17999999999999	0.0
C 	43.0414625680866	40.46999999999999	0.0
C 	44.2712186414605	41.17999999999999	0.0
C 	45.500974714834406	40.46999999999999	0.0
C 	46.73073078820831	41.17999999999999	0.0
C 	47.960486861582204	40.46999999999999	0.0
C 	49.19024293495611	41.17999999999999	0.0
C 	50.41999900833002	40.46999999999999	0.0
C 	51.649755081703915	41.179999999999986	0.0
C 	52.87951115507782	40.46999999999999	0.0
C 	54.10926722845173	41.17999999999999	0.0
C 	55.33902330182563	40.46999999999999	0.0
C 	56.568779375199526	41.17999999999999	0.0
C 	57.798535448573425	40.469999999999985	0.0
C 	59.028291521947345	41.17999999999999	0.0
C 	60.25804759532124	40.46999999999999	0.0
C 	61.48780366869514	41.17999999999999	0.0
C 	62.71755974206904	40.46999999999999	0.0
C 	63.94731581544295	41.17999999999999	0.0
C 	65.17707188881685	40.46999999999999	0.0
C 	66.40682796219075	41.179999999999986	0.0
C 	67.63658403556465	40.46999999999999	0.0
C 	68.86634010893854	41.179999999999986	0.0
C 	70.09609618231246	40.46999999999999	0.0
C 	71.32585225568636	41.17999999999999	0.0
C 	72.55560832906026	40.469999999999985	0.0
C 	73.78536440243417	41.179999999999986	0.0
C 	75.01512047580806	40.469999999999985	0.0
C 	76.24487654918198	41.17999999999999	0.0
C 	77.47463262255587	40.46999999999999	0.0
C 	78.70438869592978	41.17999999999999	0.0
C 	79.93414476930367	40.469999999999985	0.0
C 	81.16390084267758	41.179999999999986	0.0
C 	82.3936569160515	40.46999999999999	0.0
C 	83.62341298942539	41.179999999999986	0.0
C 	24.595121467478055	42.59999999999999	0.0
C 	25.82487754085196	43.30999999999999	0.0
C 	27.05463361422586	42.59999999999999	0.0
C 	28.284389687599766	43.30999999999999	0.0
C 	29.514145760973662	42.59999999999999	0.0
C 	30.743901834347568	43.30999999999999	0.0
C 	31.97365790772147	42.59999999999999	0.0
C 	33.20341398109537	43.30999999999999	0.0
C 	34.43317005446927	42.59999999999999	0.0
C 	35.66292612784318	43.30999999999999	0.0
C 	36.89268220121708	42.59999999999999	0.0
C 	38.122438274590984	43.30999999999999	0.0
C 	39.35219434796489	42.59999999999999	0.0
C 	40.581950421338796	43.30999999999999	0.0
C 	41.81170649471269	42.59999999999999	0.0
C 	43.041462568086594	43.30999999999999	0.0
C 	44.2712186414605	42.59999999999999	0.0
C 	45.5009747148344	43.30999999999999	0.0
C 	46.730730788208305	42.59999999999999	0.0
C 	47.96048686158221	43.30999999999999	0.0
C 	49.19024293495611	42.59999999999999	0.0
C 	50.41999900833001	43.30999999999999	0.0
C 	51.64975508170392	42.599999999999994	0.0
C 	52.879511155077815	43.30999999999999	0.0
C 	54.10926722845172	42.59999999999999	0.0
C 	55.33902330182563	43.30999999999999	0.0
C 	56.568779375199526	42.59999999999999	0.0
C 	57.798535448573425	43.30999999999999	0.0
C 	59.028291521947324	42.59999999999998	0.0
C 	60.258047595321244	43.30999999999999	0.0
C 	61.487803668695136	42.59999999999999	0.0
C 	62.71755974206904	43.30999999999999	0.0
C 	63.94731581544294	42.59999999999999	0.0
C 	65.17707188881684	43.30999999999999	0.0
C 	66.40682796219076	42.599999999999994	0.0
C 	67.63658403556465	43.30999999999999	0.0
C 	68.86634010893856	42.59999999999999	0.0
C 	70.09609618231245	43.30999999999998	0.0
C 	71.32585225568636	42.59999999999999	0.0
C 	72.55560832906026	43.30999999999999	0.0
C 	73.78536440243415	42.59999999999999	0.0
C 	75.01512047580806	43.30999999999999	0.0
C 	76.24487654918197	42.59999999999998	0.0
C 	77.47463262255587	43.30999999999999	0.0
C 	78.70438869592978	42.59999999999999	0.0
C 	79.93414476930367	43.30999999999999	0.0
C 	81.16390084267758	42.59999999999999	0.0
C 	82.39365691605148	43.30999999999999	0.0
C 	83.62341298942539	42.59999999999999	0.0
C 	84.85316906279928	43.30999999999998	0.0
C 	25.82487754085196	44.72999999999999	0.0
C 	27.054633614225864	45.43999999999999	0.0
C 	28.284389687599766	44.72999999999999	0.0
C 	29.514145760973673	45.43999999999999	0.0
C 	30.743901834347568	44.72999999999999	0.0
C 	31.97365790772147	45.43999999999999	0.0
C 	33.20341398109537	44.72999999999999	0.0
C 	34.43317005446928	45.43999999999999	0.0
C 	35.662926127843185	44.72999999999999	0.0
C 	36.892682201217085	45.43999999999999	0.0
C 	38.122438274590984	44.72999999999999	0.0
C 	39.35219434796489	45.43999999999999	0.0
C 	40.581950421338796	44.72999999999999	0.0
C 	41.811706494712695	45.43999999999999	0.0
C 	43.0414625680866	44.72999999999999	0.0
C 	44.27121864146051	45.43999999999999	0.0
C 	45.500974714834406	44.72999999999999	0.0
C 	46.730730788208305	45.43999999999999	0.0
C 	47.960486861582204	44.72999999999999	0.0
C 	49.19024293495611	45.43999999999998	0.0
C 	50.41999900833002	44.72999999999999	0.0
C 	51.64975508170391	45.43999999999998	0.0
C 	52.87951115507782	44.72999999999999	0.0
C 	54.10926722845172	45.43999999999999	0.0
C 	55.33902330182562	44.72999999999998	0.0
C 	56.568779375199526	45.43999999999998	0.0
C 	57.798535448573425	44.72999999999998	0.0
C 	59.02829152194734	45.43999999999999	0.0
C 	60.25804759532124	44.72999999999999	0.0
C 	61.48780366869514	45.43999999999999	0.0
C 	62.717559742069035	44.72999999999998	0.0
C 	63.94731581544294	45.43999999999998	0.0
C 	65.17707188881685	44.72999999999999	0.0
C 	66.40682796219075	45.43999999999998	0.0
C 	67.63658403556465	44.72999999999999	0.0
C 	68.86634010893856	45.43999999999999	0.0
C 	70.09609618231245	44.72999999999999	0.0
C 	71.32585225568636	45.43999999999998	0.0
C 	72.55560832906026	44.72999999999998	0.0
C 	73.78536440243417	45.43999999999999	0.0
C 	75.01512047580806	44.72999999999998	0.0
C 	76.24487654918198	45.43999999999999	0.0
C 	77.47463262255587	44.72999999999999	0.0
C 	78.70438869592978	45.43999999999999	0.0
C 	79.93414476930369	44.72999999999999	0.0
C 	81.16390084267758	45.43999999999998	0.0
C 	82.39365691605148	44.72999999999999	0.0
C 	83.62341298942538	45.43999999999998	0.0
C 	84.8531690627993	44.72999999999998	0.0
C 	86.08292513617319	45.43999999999998	0.0
C 	27.054633614225864	46.85999999999999	0.0
C 	28.28438968759977	47.56999999999999	0.0
C 	29.514145760973673	46.85999999999999	0.0
C 	30.74390183434758	47.56999999999999	0.0
C 	31.973657907721474	46.85999999999999	0.0
C 	33.20341398109538	47.56999999999999	0.0
C 	34.43317005446928	46.85999999999999	0.0
C 	35.662926127843185	47.56999999999999	0.0
C 	36.892682201217085	46.85999999999999	0.0
C 	38.122438274590984	47.56999999999999	0.0
C 	39.35219434796489	46.85999999999999	0.0
C 	40.581950421338796	47.56999999999999	0.0
C 	41.8117064947127	46.85999999999999	0.0
C 	43.0414625680866	47.56999999999999	0.0
C 	44.2712186414605	46.85999999999999	0.0
C 	45.500974714834406	47.56999999999999	0.0
C 	46.73073078820831	46.859999999999985	0.0
C 	47.960486861582204	47.569999999999986	0.0
C 	49.19024293495612	46.85999999999999	0.0
C 	50.41999900833002	47.56999999999999	0.0
C 	51.649755081703915	46.859999999999985	0.0
C 	52.87951115507782	47.569999999999986	0.0
C 	54.10926722845172	46.859999999999985	0.0
C 	55.339023301825634	47.56999999999999	0.0
C 	56.56877937519953	46.85999999999999	0.0
C 	57.79853544857344	47.56999999999999	0.0
C 	59.02829152194733	46.859999999999985	0.0
C 	60.25804759532124	47.569999999999986	0.0
C 	61.48780366869515	46.85999999999999	0.0
C 	62.71755974206904	47.569999999999986	0.0
C 	63.94731581544295	46.85999999999999	0.0
C 	65.17707188881685	47.56999999999999	0.0
C 	66.40682796219075	46.859999999999985	0.0
C 	67.63658403556465	47.569999999999986	0.0
C 	68.86634010893856	46.859999999999985	0.0
C 	70.09609618231246	47.56999999999999	0.0
C 	71.32585225568636	46.859999999999985	0.0
C 	72.55560832906028	47.56999999999999	0.0
C 	73.78536440243417	46.859999999999985	0.0
C 	75.01512047580808	47.569999999999986	0.0
C 	76.24487654918197	46.859999999999985	0.0
C 	77.47463262255587	47.569999999999986	0.0
C 	78.70438869592978	46.85999999999999	0.0
C 	79.93414476930367	47.569999999999986	0.0
C 	81.16390084267758	46.85999999999999	0.0
C 	82.39365691605148	47.56999999999999	0.0
C 	83.62341298942539	46.859999999999985	0.0
C 	84.8531690627993	47.569999999999986	0.0
C 	86.08292513617319	46.85999999999998	0.0
C 	87.31268120954711	47.569999999999986	0.0
C 	28.284389687599763	48.98999999999999	0.0
C 	29.51414576097367	49.69999999999999	0.0
C 	30.74390183434757	48.98999999999999	0.0
C 	31.973657907721478	49.69999999999999	0.0
C 	33.20341398109537	48.98999999999999	0.0
C 	34.43317005446928	49.69999999999999	0.0
C 	35.66292612784318	48.98999999999999	0.0
C 	36.892682201217085	49.69999999999999	0.0
C 	38.122438274590984	48.98999999999999	0.0
C 	39.35219434796488	49.69999999999999	0.0
C 	40.58195042133879	48.98999999999999	0.0
C 	41.811706494712695	49.69999999999999	0.0
C 	43.041462568086594	48.98999999999999	0.0
C 	44.2712186414605	49.69999999999999	0.0
C 	45.5009747148344	48.98999999999999	0.0
C 	46.730730788208305	49.69999999999998	0.0
C 	47.96048686158221	48.98999999999999	0.0
C 	49.1902429349561	49.69999999999998	0.0
C 	50.41999900833002	48.98999999999999	0.0
C 	51.64975508170392	49.69999999999999	0.0
C 	52.879511155077815	48.98999999999999	0.0
C 	54.10926722845172	49.69999999999999	0.0
C 	55.33902330182562	48.98999999999998	0.0
C 	56.56877937519953	49.69999999999999	0.0
C 	57.79853544857343	48.98999999999999	0.0
C 	59.02829152194734	49.69999999999999	0.0
C 	60.25804759532124	48.98999999999999	0.0
C 	61.487803668695136	49.69999999999999	0.0
C 	62.71755974206905	48.98999999999999	0.0
C 	63.94731581544294	49.69999999999998	0.0
C 	65.17707188881685	48.98999999999999	0.0
C 	66.40682796219075	49.69999999999999	0.0
C 	67.63658403556465	48.98999999999999	0.0
C 	68.86634010893856	49.69999999999999	0.0
C 	70.09609618231245	48.98999999999998	0.0
C 	71.32585225568637	49.69999999999999	0.0
C 	72.55560832906025	48.98999999999998	0.0
C 	73.78536440243417	49.69999999999999	0.0
C 	75.01512047580806	48.98999999999999	0.0
C 	76.24487654918197	49.69999999999999	0.0
C 	77.47463262255587	48.98999999999998	0.0
C 	78.70438869592978	49.69999999999998	0.0
C 	79.93414476930369	48.98999999999999	0.0
C 	81.16390084267758	49.69999999999998	0.0
C 	82.39365691605148	48.98999999999999	0.0
C 	83.62341298942539	49.69999999999999	0.0
C 	84.85316906279928	48.98999999999998	0.0
C 	86.08292513617319	49.69999999999998	0.0
C 	87.3126812095471	48.98999999999998	0.0
C 	88.542437282921	49.69999999999999	0.0
C 	29.51414576097367	51.11999999999999	0.0
C 	30.74390183434757	51.82999999999999	0.0
C 	31.973657907721474	51.11999999999999	0.0
C 	33.20341398109538	51.82999999999999	0.0
C 	34.43317005446928	51.11999999999999	0.0
C 	35.66292612784318	51.82999999999999	0.0
C 	36.892682201217085	51.11999999999999	0.0
C 	38.12243827459099	51.82999999999999	0.0
C 	39.35219434796489	51.12	0.0
C 	40.581950421338796	51.83	0.0
C 	41.811706494712695	51.11999999999999	0.0
C 	43.041462568086594	51.82999999999999	0.0
C 	44.2712186414605	51.12	0.0
C 	45.5009747148344	51.82999999999999	0.0
C 	46.73073078820831	51.11999999999999	0.0
C 	47.96048686158221	51.82999999999999	0.0
C 	49.19024293495611	51.11999999999999	0.0
C 	50.41999900833002	51.82999999999999	0.0
C 	51.649755081703915	51.11999999999998	0.0
C 	52.879511155077815	51.829999999999984	0.0
C 	54.10926722845171	51.11999999999999	0.0
C 	55.33902330182563	51.83	0.0
C 	56.568779375199526	51.11999999999999	0.0
C 	57.79853544857343	51.82999999999999	0.0
C 	59.02829152194733	51.11999999999999	0.0
C 	60.25804759532124	51.82999999999999	0.0
C 	61.48780366869514	51.11999999999999	0.0
C 	62.717559742069035	51.829999999999984	0.0
C 	63.94731581544295	51.11999999999999	0.0
C 	65.17707188881685	51.82999999999999	0.0
C 	66.40682796219075	51.11999999999999	0.0
C 	67.63658403556465	51.82999999999999	0.0
C 	68.86634010893854	51.11999999999998	0.0
C 	70.09609618231246	51.82999999999999	0.0
C 	71.32585225568636	51.11999999999999	0.0
C 	72.55560832906026	51.82999999999999	0.0
C 	73.78536440243417	51.11999999999999	0.0
C 	75.01512047580806	51.82999999999999	0.0
C 	76.24487654918198	51.11999999999999	0.0
C 	77.47463262255587	51.829999999999984	0.0
C 	78.70438869592978	51.11999999999999	0.0
C 	79.93414476930367	51.829999999999984	0.0
C 	81.16390084267758	51.11999999999999	0.0
C 	82.39365691605148	51.82999999999999	0.0
C 	83.62341298942538	51.11999999999998	0.0
C 	84.8531690627993	51.82999999999999	0.0
C 	86.08292513617319	51.11999999999998	0.0
C 	87.3126812095471	51.82999999999999	0.0
C 	88.542437282921	51.11999999999998	0.0
C 	89.7721933562949	51.829999999999984	0.0
C 	52.18879239965679	-0.6973864534998322	2.15
C 	53.60101349107975	-0.548956035659759	2.15
C 	54.17857952424738	0.7482785141927324	2.15
C 	49.941916249978526	0.30298726067252973	2.15
C 	51.354137341401476	0.45141767851259607	2.15
C 	51.93170337456912	1.7486522283650907	2.15
C 	53.34392446599206	1.897082646205157	2.15
C 	53.9214904991597	3.1943171960576517	2.15
C 	55.33371159058265	3.342747613897715	2.15
C 	55.91127762375029	4.63998216375021	2.15
C 	57.32349871517323	4.78841258159028	2.15
C 	57.901064748340865	6.085647131442775	2.15
C 	45.70525297570968	-0.14230399284767004	2.15
C 	47.11747406713264	0.006126424992396337	2.15
C 	47.695040100300275	1.3033609748448909	2.15
C 	49.10726119172322	1.4517913926849544	2.15
C 	49.68482722489086	2.749025942537449	2.15
C 	51.0970483163138	2.8974563603775154	2.15
C 	51.674614349481445	4.19469091023001	2.15
C 	53.08683544090439	4.34312132807008	2.15
C 	53.66440147407203	5.640355877922574	2.15
C 	55.07662256549497	5.788786295762635	2.15
C 	55.65418859866261	7.0860208456151295	2.15
C 	57.06640969008556	7.234451263455199	2.15
C 	57.64397572325319	8.531685813307694	2.15
C 	59.05619681467615	8.680116231147764	2.15
C 	59.633762847843784	9.977350781000258	2.15
C 	41.46858970144084	-0.5875952463678781	2.15
C 	42.88081079286379	-0.4391648285278096	2.15
C 	43.458376826031426	0.8580697213246817	2.15
C 	44.870597917454376	1.006500139164755	2.15
C 	45.44816395062201	2.3037346890172463	2.15
C 	46.86038504204496	2.452165106857316	2.15
C 	47.437951075212595	3.7493996567098073	2.15
C 	48.850172166635545	3.8978300745498706	2.15
C 	49.42773819980318	5.195064624402362	2.15
C 	50.83995929122613	5.343495042242432	2.15
C 	51.417525324393765	6.640729592094923	2.15
C 	52.829746415816714	6.789160009934996	2.15
C 	53.40731244898435	8.086394559787488	2.15
C 	54.8195335404073	8.234824977627554	2.15
C 	55.397099573574934	9.532059527480046	2.15
C 	56.809320664997884	9.680489945320115	2.15
C 	57.38688669816552	10.977724495172607	2.15
C 	58.79910778958847	11.126154913012677	2.15
C 	59.37667382275611	12.42338946286517	2.15
C 	60.788894914179046	12.571819880705235	2.15
C 	61.36646094734668	13.869054430557728	2.15
C 	62.77868203876963	14.017484848397805	2.15
C 	63.356248071937266	15.314719398250293	2.15
C 	39.221713551762576	0.412778467804482	2.15
C 	40.63393464318553	0.5612088856445502	2.15
C 	41.21150067635317	1.8584434354970447	2.15
C 	42.62372176777611	2.006873853337108	2.15
C 	43.20128780094375	3.304108403189603	2.15
C 	44.613508892366696	3.452538821029671	2.15
C 	45.19107492553434	4.749773370882166	2.15
C 	46.60329601695728	4.898203788722236	2.15
C 	47.18086205012492	6.19543833857473	2.15
C 	48.593083141547865	6.34386875641479	2.15
C 	49.1706491747155	7.641103306267285	2.15
C 	50.58287026613846	7.7895337241073515	2.15
C 	51.16043629930609	9.086768273959846	2.15
C 	52.57265739072904	9.235198691799916	2.15
C 	53.150223423896676	10.532433241652411	2.15
C 	54.56244451531962	10.68086365949247	2.15
C 	55.14001054848726	11.978098209344965	2.15
C 	56.552231639910204	12.126528627185035	2.15
C 	57.129797673077846	13.423763177037529	2.15
C 	58.54201876450079	13.572193594877596	2.15
C 	59.11958479766843	14.86942814473009	2.15
C 	60.53180588909137	15.017858562570154	2.15
C 	61.10937192225901	16.315093112422648	2.15
C 	62.521593013681965	16.46352353026272	2.15
C 	63.0991590468496	17.760758080115213	2.15
C 	64.51138013827254	17.909188497955284	2.15
C 	65.08894617144018	19.206423047807778	2.15
C 	34.98505027749374	-0.03251278571571772	2.15
C 	36.397271368916684	0.11591763212435222	2.15
C 	36.97483740208432	1.4131521819768469	2.15
C 	38.38705849350727	1.5615825998169068	2.15
C 	38.96462452667491	2.8588171496694015	2.15
C 	40.37684561809785	3.0072475675094714	2.15
C 	40.95441165126549	4.304482117361966	2.15
C 	42.36663274268844	4.452912535202028	2.15
C 	42.94419877585608	5.750147085054523	2.15
C 	44.35641986727902	5.898577502894592	2.15
C 	44.933985900446665	7.195812052747087	2.15
C 	46.34620699186961	7.3442424705871545	2.15
C 	46.92377302503725	8.64147702043965	2.15
C 	48.33599411646019	8.789907438279712	2.15
C 	48.91356014962783	10.087141988132208	2.15
C 	50.32578124105078	10.235572405972274	2.15
C 	50.90334727421841	11.53280695582477	2.15
C 	52.31556836564137	11.681237373664835	2.15
C 	52.893134398809	12.97847192351733	2.15
C 	54.305355490231946	13.126902341357393	2.15
C 	54.88292152339959	14.424136891209887	2.15
C 	56.295142614822524	14.572567309049958	2.15
C 	56.872708647990166	15.869801858902452	2.15
C 	58.284929739413116	16.01823227674252	2.15
C 	58.86249577258076	17.315466826595014	2.15
C 	60.27471686400369	17.463897244435078	2.15
C 	60.85228289717133	18.76113179428757	2.15
C 	62.264503988594285	18.90956221212764	2.15
C 	62.84207002176192	20.206796761980133	2.15
C 	64.25429111318488	20.3552271798202	2.15
C 	64.8318571463525	21.652461729672698	2.15
C 	66.24407823777545	21.800892147512762	2.15
C 	66.82164427094308	23.098126697365256	2.15
C 	68.23386536236605	23.246557115205317	2.15
C 	68.81143139553367	24.54379166505781	2.15
C 	30.748387003224895	-0.4778040392359222	2.15
C 	32.16060809464785	-0.3293736213958558	2.15
C 	32.73817412781548	0.9678609284566356	2.15
C 	34.150395219238426	1.1162913462967055	2.15
C 	34.72796125240606	2.413525896149197	2.15
C 	36.14018234382901	2.5619563139892683	2.15
C 	36.71774837699665	3.85919086384176	2.15
C 	38.129969468419596	4.007621281681827	2.15
C 	38.70753550158723	5.304855831534318	2.15
C 	40.11975659301018	5.453286249374387	2.15
C 	40.697322626177815	6.750520799226879	2.15
C 	42.10954371760076	6.898951217066945	2.15
C 	42.68710975076839	8.196185766919436	2.15
C 	44.09933084219135	8.344616184759508	2.15
C 	44.676896875358985	9.641850734612	2.15
C 	46.089117966781934	9.790281152452073	2.15
C 	46.66668399994957	11.087515702304565	2.15
C 	48.07890509137252	11.235946120144629	2.15
C 	48.656471124540154	12.53318066999712	2.15
C 	50.06869221596311	12.68161108783719	2.15
C 	50.646258249130746	13.978845637689682	2.15
C 	52.05847934055368	14.127276055529752	2.15
C 	52.63604537372132	15.424510605382245	2.15
C 	54.04826646514427	15.572941023222306	2.15
C 	54.62583249831191	16.8701755730748	2.15
C 	56.03805358973486	17.018605990914878	2.15
C 	56.61561962290249	18.315840540767365	2.15
C 	58.02784071432544	18.464270958607433	2.15
C 	58.60540674749308	19.761505508459926	2.15
C 	60.01762783891603	19.90993592629999	2.15
C 	60.59519387208366	21.207170476152484	2.15
C 	62.00741496350661	21.355600893992555	2.15
C 	62.58498099667425	22.652835443845046	2.15
C 	63.9972020880972	22.801265861685117	2.15
C 	64.57476812126482	24.09850041153761	2.15
C 	65.98698921268779	24.246930829377675	2.15
C 	66.56455524585542	25.54416537923017	2.15
C 	67.97677633727837	25.69259579707023	2.15
C 	68.55434237044601	26.989830346922723	2.15
C 	69.96656346186896	27.138260764762798	2.15
C 	70.54412949503659	28.435495314615295	2.15
C 	26.511723728956053	-0.9230952927561268	2.15
C 	27.923944820378996	-0.7746648749160585	2.15
C 	28.501510853546634	0.5225696749364345	2.15
C 	29.913731944969584	0.6710000927765025	2.15
C 	30.491297978137222	1.9682346426289956	2.15
C 	31.90351906956017	2.1166650604690638	2.15
C 	32.4810851027278	3.4138996103215553	2.15
C 	33.89330619415075	3.5623300281616217	2.15
C 	34.470872227318395	4.859564578014116	2.15
C 	35.88309331874134	5.007994995854186	2.15
C 	36.46065935190897	6.3052295457066805	2.15
C 	37.87288044333192	6.453659963546743	2.15
C 	38.45044647649956	7.7508945133992375	2.15
C 	39.8626675679225	7.899324931239307	2.15
C 	40.44023360109014	9.196559481091802	2.15
C 	41.852454692513085	9.344989898931862	2.15
C 	42.43002072568073	10.642224448784356	2.15
C 	43.84224181710367	10.790654866624426	2.15
C 	44.419807850271305	12.087889416476921	2.15
C 	45.83202894169426	12.236319834316989	2.15
C 	46.409594974861896	13.533554384169484	2.15
C 	47.82181606628484	13.681984802009547	2.15
C 	48.39938209945248	14.979219351862042	2.15
C 	49.811603190875424	15.12764976970211	2.15
C 	50.389169224043066	16.424884319554604	2.15
C 	51.801390315466016	16.57331473739467	2.15
C 	52.37895634863366	17.870549287247165	2.15
C 	53.79117744005659	18.01897970508723	2.15
C 	54.36874347322423	19.316214254939723	2.15
C 	55.78096456464718	19.464644672779794	2.15
C 	56.35853059781481	20.761879222632288	2.15
C 	57.77075168923777	20.910309640472356	2.15
C 	58.348317722405405	22.20754419032485	2.15
C 	59.76053881382835	22.355974608164914	2.15
C 	60.33810484699598	23.653209158017408	2.15
C 	61.75032593841894	23.801639575857475	2.15
C 	62.327891971586574	25.09887412570997	2.15
C 	63.74011306300952	25.247304543550037	2.15
C 	64.31767909617714	26.544539093402534	2.15
C 	65.72990018760011	26.69296951124259	2.15
C 	66.30746622076774	27.99020406109509	2.15
C 	67.71968731219069	28.13863447893515	2.15
C 	68.29725334535833	29.435869028787646	2.15
C 	69.70947443678128	29.58429944662772	2.15
C 	70.2870404699489	30.881533996480215	2.15
C 	71.69926156137186	31.029964414320276	2.15
C 	72.2768275945395	32.32719896417277	2.15
C 	24.26484757927779	0.07727842141623151	2.15
C 	25.677068670700738	0.22570883925629803	2.15
C 	26.254634703868376	1.5229433891087911	2.15
C 	27.666855795291326	1.6713738069488575	2.15
C 	28.24442182845896	2.9686083568013504	2.15
C 	29.656642919881907	3.117038774641422	2.15
C 	30.234208953049542	4.414273324493913	2.15
C 	31.646430044472492	4.56270374233398	2.15
C 	32.22399607764013	5.859938292186475	2.15
C 	33.63621716906308	6.0083687100265415	2.15
C 	34.213783202230715	7.305603259879033	2.15
C 	35.626004293653665	7.454033677719102	2.15
C 	36.2035703268213	8.751268227571593	2.15
C 	37.61579141824424	8.899698645411661	2.15
C 	38.19335745141188	10.196933195264151	2.15
C 	39.605578542834834	10.345363613104222	2.15
C 	40.18314457600247	11.642598162956714	2.15
C 	41.59536566742541	11.79102858079678	2.15
C 	42.17293170059305	13.088263130649272	2.15
C 	43.585152792016	13.236693548489342	2.15
C 	44.16271882518363	14.533928098341834	2.15
C 	45.57493991660658	14.682358516181907	2.15
C 	46.152505949774216	15.979593066034399	2.15
C 	47.564727041197166	16.128023483874465	2.15
C 	48.1422930743648	17.425258033726955	2.15
C 	49.55451416578775	17.57368845156702	2.15
C 	50.132080198955386	18.870923001419516	2.15
C 	51.544301290378336	19.019353419259595	2.15
C 	52.12186732354597	20.31658796911208	2.15
C 	53.53408841496893	20.46501838695215	2.15
C 	54.11165444813656	21.762252936804636	2.15
C 	55.523875539559505	21.910683354644707	2.15
C 	56.10144157272714	23.2079179044972	2.15
C 	57.5136626641501	23.356348322337272	2.15
C 	58.09122869731773	24.653582872189762	2.15
C 	59.50344978874068	24.802013290029834	2.15
C 	60.081015821908316	26.09924783988232	2.15
C 	61.49323691333126	26.247678257722388	2.15
C 	62.0708029464989	27.54491280757488	2.15
C 	63.48302403792185	27.693343225414957	2.15
C 	64.06059007108948	28.990577775267447	2.15
C 	65.47281116251243	29.13900819310751	2.15
C 	66.05037719568007	30.43624274296	2.15
C 	67.46259828710302	30.58467316080007	2.15
C 	68.04016432027065	31.88190771065256	2.15
C 	69.45238541169361	32.030338128492645	2.15
C 	70.02995144486124	33.32757267834513	2.15
C 	71.44217253628419	33.476003096185195	2.15
C 	72.01973856945182	34.773237646037686	2.15
C 	73.43195966087477	34.92166806387775	2.15
C 	74.00952569404241	36.21890261373024	2.15
C 	75.42174678546536	36.36733303157032	2.15
C 	75.999312818633	37.664567581422816	2.15
C 	20.028184305008946	-0.36801283210397223	2.15
C 	21.440405396431895	-0.2195824142639048	2.15
C 	22.01797142959953	1.0776521355885882	2.15
C 	23.43019252102248	1.226082553428658	2.15
C 	24.007758554190115	2.5233171032811508	2.15
C 	25.419979645613065	2.671747521121216	2.15
C 	25.997545678780703	3.9689820709737087	2.15
C 	27.40976677020365	4.117412488813777	2.15
C 	27.987332803371284	5.41464703866627	2.15
C 	29.399553894794234	5.563077456506338	2.15
C 	29.977119927961873	6.860312006358833	2.15
C 	31.389341019384815	7.0087424241989025	2.15
C 	31.966907052552454	8.305976974051394	2.15
C 	33.3791281439754	8.454407391891458	2.15
C 	33.95669417714304	9.751641941743951	2.15
C 	35.368915268565985	9.900072359584023	2.15
C 	35.94648130173363	11.197306909436517	2.15
C 	37.35870239315657	11.345737327276577	2.15
C 	37.93626842632421	12.642971877129071	2.15
C 	39.348489517747154	12.79140229496914	2.15
C 	39.92605555091479	14.088636844821636	2.15
C 	41.33827664233774	14.237067262661697	2.15
C 	41.915842675505374	15.534301812514192	2.15
C 	43.32806376692832	15.682732230354262	2.15
C 	43.90562980009596	16.979966780206755	2.15
C 	45.31785089151891	17.128397198046823	2.15
C 	45.89541692468654	18.425631747899317	2.15
C 	47.307638016109486	18.57406216573938	2.15
C 	47.88520404927712	19.871296715591875	2.15
C 	49.29742514070008	20.019727133431942	2.15
C 	49.87499117386771	21.31696168328444	2.15
C 	51.28721226529066	21.465392101124504	2.15
C 	51.8647782984583	22.762626650976998	2.15
C 	53.27699938988125	22.911057068817065	2.15
C 	53.85456542304888	24.20829161866956	2.15
C 	55.26678651447183	24.35672203650963	2.15
C 	55.84435254763947	25.653956586362124	2.15
C 	57.25657363906242	25.802387004202192	2.15
C 	57.83413967223005	27.099621554054686	2.15
C 	59.246360763652994	27.24805197189475	2.15
C 	59.823926796820636	28.545286521747244	2.15
C 	61.236147888243586	28.693716939587308	2.15
C 	61.81371392141123	29.990951489439805	2.15
C 	63.225935012834164	30.139381907279873	2.15
C 	63.803501046001806	31.43661645713237	2.15
C 	65.21572213742475	31.585046874972427	2.15
C 	65.79328817059239	32.882281424824924	2.15
C 	67.20550926201534	33.030711842664985	2.15
C 	67.78307529518297	34.327946392517475	2.15
C 	69.19529638660592	34.47637681035756	2.15
C 	69.77286241977356	35.77361136021005	2.15
C 	71.18508351119651	35.922041778050115	2.15
C 	71.76264954436415	37.219276327902605	2.15
C 	73.17487063578709	37.36770674574267	2.15
C 	73.75243666895473	38.66494129559516	2.15
C 	75.16465776037768	38.81337171343524	2.15
C 	75.74222379354532	40.110606263287735	2.15
C 	77.15444488496826	40.259036681127796	2.15
C 	77.7320109181359	41.55627123098029	2.15
C 	15.791521030740105	-0.8133040856241736	2.15
C 	17.203742122163053	-0.6648736677841062	2.15
C 	17.781308155330688	0.6323608820683868	2.15
C 	19.193529246753634	0.7807912999084534	2.15
C 	19.771095279921273	2.0780258497609463	2.15
C 	21.18331637134422	2.226456267601014	2.15
C 	21.760882404511857	3.523690817453507	2.15
C 	23.173103495934804	3.6721212352935773	2.15
C 	23.750669529102442	4.96935578514607	2.15
C 	25.16289062052539	5.117786202986137	2.15
C 	25.740456653693023	6.415020752838628	2.15
C 	27.152677745115973	6.563451170678697	2.15
C 	27.73024377828361	7.860685720531191	2.15
C 	29.142464869706558	8.00911613837126	2.15
C 	29.720030902874196	9.306350688223754	2.15
C 	31.132251994297143	9.45478110606382	2.15
C 	31.709818027464777	10.75201565591631	2.15
C 	33.12203911888773	10.900446073756381	2.15
C 	33.69960515205536	12.197680623608875	2.15
C 	35.11182624347831	12.346111041448943	2.15
C 	35.68939227664595	13.643345591301438	2.15
C 	37.1016133680689	13.791776009141499	2.15
C 	37.67917940123653	15.089010558993994	2.15
C 	39.09140049265948	15.237440976834062	2.15
C 	39.668966525827116	16.534675526686556	2.15
C 	41.08118761725006	16.68310594452662	2.15
C 	41.6587536504177	17.980340494379114	2.15
C 	43.070974741840644	18.12877091221918	2.15
C 	43.648540775008286	19.42600546207168	2.15
C 	45.06076186643123	19.574435879911746	2.15
C 	45.63832789959887	20.87167042976424	2.15
C 	47.05054899102182	21.0201008476043	2.15
C 	47.628115024189455	22.317335397456795	2.15
C 	49.040336115612405	22.465765815296862	2.15
C 	49.61790214878004	23.763000365149356	2.15
C 	51.03012324020299	23.911430782989427	2.15
C 	51.607689273370625	25.20866533284192	2.15
C 	53.019910364793574	25.35709575068198	2.15
C 	53.59747639796121	26.654330300534475	2.15
C 	55.00969748938416	26.80276071837455	2.15
C 	55.587263522551794	28.099995268227044	2.15
C 	56.99948461397475	28.248425686067108	2.15
C 	57.577050647142386	29.545660235919605	2.15
C 	58.98927173856532	29.694090653759666	2.15
C 	59.56683777173296	30.991325203612163	2.15
C 	60.97905886315591	31.139755621452228	2.15
C 	61.556624896323555	32.43699017130472	2.15
C 	62.9688459877465	32.585420589144796	2.15
C 	63.54641202091414	33.882655138997286	2.15
C 	64.95863311233708	34.03108555683735	2.15
C 	65.53619914550472	35.328320106689844	2.15
C 	66.94842023692767	35.476750524529905	2.15
C 	67.5259862700953	36.773985074382395	2.15
C 	68.93820736151825	36.92241549222247	2.15
C 	69.5157733946859	38.21965004207497	2.15
C 	70.92799448610884	38.36808045991503	2.15
C 	71.50556051927647	39.66531500976752	2.15
C 	72.91778161069942	39.81374542760759	2.15
C 	73.49534764386705	41.110979977460076	2.15
C 	74.90756873529	41.25941039530015	2.15
C 	75.48513476845764	42.55664494515265	2.15
C 	76.89735585988059	42.70507536299271	2.15
C 	77.47492189304822	44.002309912845206	2.15
C 	78.88714298447117	44.15074033068526	2.15
C 	79.46470901763881	45.44797488053776	2.15
C 	13.544644881061846	0.1870696285481831	2.15
C 	14.956865972484792	0.33550004638825126	2.15
C 	15.534432005652429	1.6327345962407442	2.15
C 	16.946653097075377	1.7811650140808108	2.15
C 	17.524219130243015	3.0783995639333037	2.15
C 	18.93644022166596	3.2268299817733714	2.15
C 	19.514006254833596	4.524064531625864	2.15
C 	20.926227346256542	4.672494949465931	2.15
C 	21.50379337942418	5.969729499318424	2.15
C 	22.91601447084713	6.118159917158494	2.15
C 	23.493580504014766	7.4153944670109855	2.15
C 	24.905801595437712	7.563824884851055	2.15
C 	25.48336762860535	8.861059434703549	2.15
C 	26.895588720028297	9.009489852543615	2.15
C 	27.47315475319593	10.306724402396107	2.15
C 	28.885375844618885	10.455154820236178	2.15
C 	29.46294187778652	11.752389370088668	2.15
C 	30.87516296920947	11.900819787928738	2.15
C 	31.452729002377104	13.198054337781231	2.15
C 	32.864950093800054	13.346484755621296	2.15
C 	33.44251612696769	14.643719305473788	2.15
C 	34.85473721839064	14.79214972331386	2.15
C 	35.432303251558274	16.089384273166353	2.15
C 	36.84452434298122	16.237814691006417	2.15
C 	37.42209037614885	17.535049240858907	2.15
C 	38.83431146757181	17.683479658698978	2.15
C 	39.41187750073944	18.980714208551472	2.15
C 	40.824098592162386	19.12914462639154	2.15
C 	41.40166462533002	20.426379176244026	2.15
C 	42.81388571675297	20.574809594084094	2.15
C 	43.391451749920606	21.87204414393659	2.15
C 	44.803672841343555	22.020474561776666	2.15
C 	45.38123887451119	23.317709111629156	2.15
C 	46.79345996593414	23.466139529469224	2.15
C 	47.371025999101775	24.76337407932171	2.15
C 	48.783247090524725	24.91180449716178	2.15
C 	49.36081312369236	26.209039047014272	2.15
C 	50.77303421511532	26.357469464854347	2.15
C 	51.35060024828295	27.654704014706834	2.15
C 	52.7628213397059	27.803134432546905	2.15
C 	53.340387372873536	29.10036898239939	2.15
C 	54.75260846429648	29.248799400239463	2.15
C 	55.33017449746412	30.546033950091957	2.15
C 	56.74239558888707	30.69446436793203	2.15
C 	57.319961622054706	31.99169891778452	2.15
C 	58.73218271347765	32.14012933562459	2.15
C 	59.30974874664528	33.437363885477076	2.15
C 	60.72196983806823	33.585794303317144	2.15
C 	61.29953587123587	34.88302885316964	2.15
C 	62.71175696265882	35.031459271009716	2.15
C 	63.28932299582645	36.328693820862206	2.15
C 	64.7015440872494	36.477124238702274	2.15
C 	65.27911012041704	37.77435878855476	2.15
C 	66.69133121184	37.922789206394825	2.15
C 	67.26889724500762	39.220023756247315	2.15
C 	68.68111833643057	39.3684541740874	2.15
C 	69.25868436959821	40.665688723939894	2.15
C 	70.67090546102116	40.81411914177995	2.15
C 	71.24847149418879	42.111353691632445	2.15
C 	72.66069258561174	42.259784109472506	2.15
C 	73.23825861877938	43.557018659325	2.15
C 	74.65047971020233	43.70544907716508	2.15
C 	75.22804574336998	45.002683627017575	2.15
C 	76.64026683479291	45.151114044857636	2.15
C 	77.21783286796055	46.44834859471013	2.15
C 	78.6300539593835	46.59677901255019	2.15
C 	9.307981606793	-0.25822162497201984	2.15
C 	10.720202698215948	-0.1097912071319524	2.15
C 	11.297768731383583	1.1874433427205406	2.15
C 	12.709989822806532	1.335873760560608	2.15
C 	13.287555855974169	2.633108310413101	2.15
C 	14.699776947397117	2.781538728253169	2.15
C 	15.277342980564756	4.078773278105664	2.15
C 	16.6895640719877	4.227203695945729	2.15
C 	17.26713010515534	5.5244382457982235	2.15
C 	18.679351196578285	5.672868663638289	2.15
C 	19.256917229745923	6.970103213490783	2.15
C 	20.66913832116887	7.118533631330848	2.15
C 	21.246704354336508	8.415768181183344	2.15
C 	22.658925445759454	8.564198599023412	2.15
C 	23.236491478927093	9.861433148875905	2.15
C 	24.64871257035004	10.009863566715971	2.15
C 	25.226278603517677	11.307098116568467	2.15
C 	26.638499694940624	11.455528534408533	2.15
C 	27.21606572810826	12.752763084261026	2.15
C 	28.62828681953121	12.901193502101096	2.15
C 	29.205852852698843	14.19842805195359	2.15
C 	30.618073944121793	14.346858469793654	2.15
C 	31.19563997728943	15.64409301964615	2.15
C 	32.607861068712374	15.792523437486214	2.15
C 	33.185427101880016	17.089757987338707	2.15
C 	34.59764819330296	17.23818840517878	2.15
C 	35.1752142264706	18.535422955031272	2.15
C 	36.587435317893544	18.683853372871337	2.15
C 	37.16500135106118	19.98108792272383	2.15
C 	38.57722244248413	20.129518340563898	2.15
C 	39.15478847565176	21.42675289041639	2.15
C 	40.56700956707471	21.575183308256452	2.15
C 	41.14457560024235	22.87241785810895	2.15
C 	42.5567966916653	23.020848275949017	2.15
C 	43.13436272483293	24.31808282580151	2.15
C 	44.54658381625588	24.46651324364158	2.15
C 	45.12414984942352	25.763747793494073	2.15
C 	46.53637094084647	25.912178211334137	2.15
C 	47.1139369740141	27.209412761186634	2.15
C 	48.52615806543706	27.3578431790267	2.15
C 	49.103724098604694	28.655077728879192	2.15
C 	50.51594519002764	28.803508146719263	2.15
C 	51.09351122319527	30.100742696571757	2.15
C 	52.50573231461822	30.249173114411818	2.15
C 	53.08329834778586	31.54640766426431	2.15
C 	54.495519439208806	31.694838082104383	2.15
C 	55.07308547237645	32.99207263195688	2.15
C 	56.48530656379939	33.14050304979694	2.15
C 	57.06287259696703	34.43773759964944	2.15
C 	58.475093688389975	34.586168017489506	2.15
C 	59.05265972155761	35.883402567341996	2.15
C 	60.46488081298057	36.031832985182064	2.15
C 	61.0424468461482	37.32906753503456	2.15
C 	62.454667937571145	37.47749795287463	2.15
C 	63.03223397073878	38.774732502727126	2.15
C 	64.44445506216174	38.92316292056719	2.15
C 	65.02202109532936	40.22039747041968	2.15
C 	66.43424218675231	40.36882788825974	2.15
C 	67.01180821991996	41.666062438112235	2.15
C 	68.4240293113429	41.81449285595231	2.15
C 	69.00159534451053	43.11172740580481	2.15
C 	70.41381643593348	43.26015782364486	2.15
C 	70.99138246910113	44.55739237349736	2.15
C 	72.40360356052406	44.70582279133742	2.15
C 	72.9811695936917	46.003057341189916	2.15
C 	74.39339068511465	46.15148775902999	2.15
C 	5.0713183325241555	-0.7035128784922223	2.15
C 	6.4835394239471045	-0.5550824606521549	2.15
C 	7.061105457114741	0.742152089200338	2.15
C 	8.473326548537688	0.8905825070404054	2.15
C 	9.050892581705325	2.1878170568928983	2.15
C 	10.463113673128271	2.3362474747329656	2.15
C 	11.040679706295908	3.6334820245854584	2.15
C 	12.452900797718856	3.7819124424255275	2.15
C 	13.030466830886493	5.07914699227802	2.15
C 	14.442687922309442	5.227577410118089	2.15
C 	15.020253955477079	6.524811959970582	2.15
C 	16.432475046900027	6.673242377810648	2.15
C 	17.010041080067662	7.9704769276631415	2.15
C 	18.42226217149061	8.118907345503208	2.15
C 	18.999828204658247	9.416141895355702	2.15
C 	20.412049296081193	9.56457231319577	2.15
C 	20.98961532924883	10.861806863048262	2.15
C 	22.401836420671778	11.010237280888333	2.15
C 	22.979402453839416	12.307471830740825	2.15
C 	24.391623545262362	12.45590224858089	2.15
C 	24.96918957843	13.753136798433383	2.15
C 	26.38141066985295	13.901567216273452	2.15
C 	26.958976703020586	15.198801766125944	2.15
C 	28.371197794443535	15.347232183966016	2.15
C 	28.94876382761117	16.644466733818508	2.15
C 	30.360984919034117	16.792897151658572	2.15
C 	30.93855095220175	18.090131701511066	2.15
C 	32.3507720436247	18.238562119351137	2.15
C 	32.92833807679234	19.535796669203627	2.15
C 	34.340559168215286	19.6842270870437	2.15
C 	34.91812520138293	20.981461636896192	2.15
C 	36.33034629280587	21.129892054736253	2.15
C 	36.907912325973506	22.42712660458875	2.15
C 	38.320133417396455	22.575557022428818	2.15
C 	38.89769945056409	23.872791572281308	2.15
C 	40.30992054198704	24.021221990121376	2.15
C 	40.88748657515467	25.318456539973862	2.15
C 	42.299707666577625	25.466886957813937	2.15
C 	42.87727369974526	26.76412150766643	2.15
C 	44.28949479116821	26.912551925506502	2.15
C 	44.867060824335844	28.20978647535899	2.15
C 	46.279281915758794	28.358216893199057	2.15
C 	46.85684794892643	29.655451443051547	2.15
C 	48.26906904034938	29.80388186089162	2.15
C 	48.846635073517014	31.101116410744115	2.15
C 	50.25885616493997	31.24954682858418	2.15
C 	50.836422198107606	32.54678137843667	2.15
C 	52.24864328953055	32.69521179627674	2.15
C 	52.82620932269818	33.99244634612923	2.15
C 	54.238430414121126	34.1408767639693	2.15
C 	54.81599644728877	35.4381113138218	2.15
C 	56.22821753871172	35.58654173166187	2.15
C 	56.80578357187935	36.88377628151436	2.15
C 	58.2180046633023	37.032206699354425	2.15
C 	58.79557069646994	38.329441249206916	2.15
C 	60.20779178789289	38.47787166704699	2.15
C 	60.78535782106052	39.77510621689948	2.15
C 	62.19757891248347	39.92353663473955	2.15
C 	62.77514494565111	41.22077118459204	2.15
C 	64.18736603707406	41.369201602432106	2.15
C 	64.76493207024168	42.6664361522846	2.15
C 	66.17715316166463	42.81486657012466	2.15
C 	66.75471919483228	44.11210111997715	2.15
C 	68.16694028625523	44.26053153781722	2.15
C 	68.74450631942287	45.55776608766972	2.15
C 	70.1567274108458	45.70619650550978	2.15
C 	2.824442182845896	0.2968608356801354	2.15
C 	4.236663274268844	0.4452912535202027	2.15
C 	4.814229307436481	1.7425258033726958	2.15
C 	6.226450398859428	1.8909562212127637	2.15
C 	6.804016432027065	3.1881907710652566	2.15
C 	8.216237523450014	3.336621188905324	2.15
C 	8.79380355661765	4.633855738757817	2.15
C 	10.206024648040597	4.782286156597885	2.15
C 	10.783590681208233	6.079520706450376	2.15
C 	12.195811772631181	6.227951124290445	2.15
C 	12.773377805798818	7.525185674142939	2.15
C 	14.185598897221768	7.673616091983008	2.15
C 	14.763164930389403	8.970850641835499	2.15
C 	16.17538602181235	9.119281059675568	2.15
C 	16.75295205497999	10.416515609528059	2.15
C 	18.165173146402935	10.564946027368126	2.15
C 	18.74273917957057	11.862180577220618	2.15
C 	20.15496027099352	12.010610995060688	2.15
C 	20.732526304161155	13.30784554491318	2.15
C 	22.144747395584105	13.456275962753251	2.15
C 	22.72231342875174	14.753510512605741	2.15
C 	24.13453452017469	14.90194093044581	2.15
C 	24.712100553342324	16.1991754802983	2.15
C 	26.124321644765274	16.34760589813837	2.15
C 	26.70188767793291	17.644840447990862	2.15
C 	28.11410876935586	17.793270865830934	2.15
C 	28.691674802523494	19.090505415683424	2.15
C 	30.103895893946444	19.238935833523495	2.15
C 	30.68146192711408	20.536170383375985	2.15
C 	32.09368301853703	20.684600801216053	2.15
C 	32.67124905170466	21.981835351068543	2.15
C 	34.08347014312761	22.13026576890861	2.15
C 	34.66103617629525	23.42750031876111	2.15
C 	36.0732572677182	23.57593073660117	2.15
C 	36.65082330088583	24.873165286453663	2.15
C 	38.06304439230878	25.02159570429373	2.15
C 	38.64061042547642	26.318830254146228	2.15
C 	40.05283151689936	26.46726067198629	2.15
C 	40.630397550066995	27.764495221838786	2.15
C 	42.042618641489945	27.912925639678853	2.15
C 	42.62018467465758	29.210160189531347	2.15
C 	44.03240576608054	29.358590607371415	2.15
C 	44.60997179924817	30.65582515722391	2.15
C 	46.022192890671114	30.804255575063973	2.15
C 	46.599758923838756	32.10149012491647	2.15
C 	48.011980015261706	32.249920542756534	2.15
C 	48.58954604842934	33.54715509260903	2.15
C 	50.00176713985229	33.6955855104491	2.15
C 	50.579333173019926	34.99282006030159	2.15
C 	51.991554264442875	35.14125047814165	2.15
C 	52.56912029761051	36.43848502799415	2.15
C 	53.98134138903345	36.586915445834215	2.15
C 	54.558907422201095	37.88414999568671	2.15
C 	55.971128513624045	38.03258041352678	2.15
C 	56.54869454679168	39.32981496337927	2.15
C 	57.96091563821462	39.47824538121934	2.15
C 	58.538481671382264	40.77547993107183	2.15
C 	59.95070276280521	40.923910348911896	2.15
C 	60.52826879597285	42.22114489876439	2.15
C 	61.94048988739579	42.36957531660446	2.15
C 	62.518055920563434	43.666809866456965	2.15
C 	63.930277011986384	43.815240284297026	2.15
C 	64.50784304515402	45.11247483414952	2.15
C 	65.92006413657697	45.26090525198958	2.15
C 	66.49763016974461	46.558139801842074	2.15
C 	67.90985126116756	46.70657021968215	2.15
C 	1.9897871245905845	1.4456649676925606	2.15
C 	2.567353157758221	2.742899517545054	2.15
C 	3.979574249181169	2.891329935385121	2.15
C 	4.557140282348805	4.188564485237614	2.15
C 	5.969361373771754	4.336994903077682	2.15
C 	6.546927406939391	5.634229452930175	2.15
C 	7.959148498362338	5.782659870770242	2.15
C 	8.536714531529974	7.079894420622736	2.15
C 	9.948935622952922	7.228324838462802	2.15
C 	10.526501656120558	8.525559388315296	2.15
C 	11.938722747543508	8.673989806155364	2.15
C 	12.516288780711145	9.971224356007857	2.15
C 	13.928509872134091	10.119654773847925	2.15
C 	14.506075905301728	11.416889323700417	2.15
C 	15.918296996724676	11.565319741540485	2.15
C 	16.495863029892313	12.86255429139298	2.15
C 	17.908084121315262	13.010984709233044	2.15
C 	18.485650154482897	14.308219259085536	2.15
C 	19.897871245905844	14.456649676925604	2.15
C 	20.475437279073482	15.7538842267781	2.15
C 	21.88765837049643	15.90231464461817	2.15
C 	22.465224403664067	17.199549194470663	2.15
C 	23.877445495087017	17.347979612310727	2.15
C 	24.45501152825465	18.645214162163217	2.15
C 	25.867232619677598	18.79364458000329	2.15
C 	26.444798652845236	20.090879129855782	2.15
C 	27.857019744268182	20.23930954769585	2.15
C 	28.43458577743582	21.536544097548344	2.15
C 	29.846806868858767	21.68497451538841	2.15
C 	30.424372902026406	22.9822090652409	2.15
C 	31.836593993449352	23.13063948308097	2.15
C 	32.41416002661699	24.427874032933467	2.15
C 	33.82638111803993	24.576304450773534	2.15
C 	34.403947151207575	25.873539000626028	2.15
C 	35.816168242630525	26.02196941846609	2.15
C 	36.39373427579816	27.319203968318586	2.15
C 	37.80595536722111	27.467634386158654	2.15
C 	38.383521400388744	28.764868936011148	2.15
C 	39.79574249181169	28.913299353851208	2.15
C 	40.37330852497932	30.210533903703706	2.15
C 	41.78552961640227	30.358964321543773	2.15
C 	42.36309564956991	31.656198871396267	2.15
C 	43.77531674099286	31.80462928923634	2.15
C 	44.35288277416049	33.10186383908883	2.15
C 	45.76510386558344	33.250294256928896	2.15
C 	46.34266989875108	34.547528806781386	2.15
C 	47.75489099017403	34.695959224621454	2.15
C 	48.33245702334167	35.99319377447395	2.15
C 	49.74467811476462	36.14162419231402	2.15
C 	50.32224414793225	37.438858742166516	2.15
C 	51.734465239355195	37.58728916000658	2.15
C 	52.31203127252284	38.88452370985907	2.15
C 	53.72425236394578	39.03295412769914	2.15
C 	54.301818397113415	40.33018867755163	2.15
C 	55.714039488536365	40.4786190953917	2.15
C 	56.29160552170401	41.7758536452442	2.15
C 	57.70382661312694	41.92428406308426	2.15
C 	58.281392646294584	43.221518612936755	2.15
C 	59.693613737717534	43.36994903077682	2.15
C 	60.27117977088517	44.667183580629306	2.15
C 	61.68340086230812	44.81561399846939	2.15
C 	62.26096689547576	46.11284854832188	2.15
C 	63.673187986898704	46.26127896616194	2.15
C 	3.722485224093494	5.33736861725004	2.15
C 	4.3000512572611305	6.634603167102533	2.15
C 	5.7122723486840785	6.7830335849426	2.15
C 	6.289838381851715	8.080268134795093	2.15
C 	7.702059473274663	8.22869855263516	2.15
C 	8.2796255064423	9.525933102487654	2.15
C 	9.691846597865247	9.67436352032772	2.15
C 	10.269412631032884	10.971598070180216	2.15
C 	11.681633722455834	11.120028488020283	2.15
C 	12.259199755623468	12.417263037872774	2.15
C 	13.671420847046416	12.565693455712843	2.15
C 	14.248986880214055	13.862928005565337	2.15
C 	15.661207971637001	14.011358423405403	2.15
C 	16.238774004804636	15.308592973257896	2.15
C 	17.650995096227586	15.457023391097962	2.15
C 	18.22856112939522	16.754257940950456	2.15
C 	19.64078222081817	16.902688358790524	2.15
C 	20.218348253985805	18.199922908643018	2.15
C 	21.630569345408755	18.348353326483085	2.15
C 	22.20813537857639	19.64558787633558	2.15
C 	23.62035646999934	19.794018294175643	2.15
C 	24.197922503166975	21.09125284402814	2.15
C 	25.610143594589925	21.239683261868205	2.15
C 	26.187709627757563	22.5369178117207	2.15
C 	27.59993071918051	22.685348229560766	2.15
C 	28.177496752348144	23.98258277941326	2.15
C 	29.58971784377109	24.131013197253328	2.15
C 	30.16728387693873	25.42824774710582	2.15
C 	31.57950496836168	25.576678164945893	2.15
C 	32.15707100152931	26.87391271479838	2.15
C 	33.56929209295226	27.022343132638454	2.15
C 	34.146858126119895	28.319577682490944	2.15
C 	35.559079217542845	28.468008100331012	2.15
C 	36.13664525071048	29.7652426501835	2.15
C 	37.54886634213344	29.913673068023574	2.15
C 	38.126432375301064	31.210907617876064	2.15
C 	39.538653466724014	31.35933803571613	2.15
C 	40.11621949989165	32.65657258556862	2.15
C 	41.5284405913146	32.80500300340869	2.15
C 	42.106006624482234	34.10223755326118	2.15
C 	43.518227715905184	34.25066797110126	2.15
C 	44.09579374907282	35.54790252095375	2.15
C 	45.50801484049577	35.696332938793816	2.15
C 	46.0855808736634	36.9935674886463	2.15
C 	47.49780196508635	37.141997906486374	2.15
C 	48.07536799825399	38.439232456338864	2.15
C 	49.487589089676945	38.58766287417894	2.15
C 	50.06515512284458	39.88489742403143	2.15
C 	51.47737621426752	40.0333278418715	2.15
C 	52.05494224743516	41.33056239172399	2.15
C 	53.46716333885811	41.47899280956406	2.15
C 	54.04472937202574	42.776227359416545	2.15
C 	55.45695046344869	42.92465777725662	2.15
C 	56.03451649661633	44.22189232710911	2.15
C 	57.44673758803927	44.37032274494918	2.15
C 	58.024303621206904	45.66755729480167	2.15
C 	59.436524712629854	45.81598771264174	2.15
C 	5.455183323596404	9.229072266807519	2.15
C 	6.0327493567640404	10.526306816660012	2.15
C 	7.444970448186988	10.67473723450008	2.15
C 	8.022536481354624	11.971971784352572	2.15
C 	9.434757572777572	12.12040220219264	2.15
C 	10.012323605945209	13.417636752045132	2.15
C 	11.424544697368157	13.5660671698852	2.15
C 	12.002110730535795	14.863301719737695	2.15
C 	13.414331821958744	15.011732137577763	2.15
C 	13.991897855126378	16.308966687430257	2.15
C 	15.404118946549326	16.45739710527032	2.15
C 	15.981684979716963	17.754631655122814	2.15
C 	17.39390607113991	17.903062072962882	2.15
C 	17.971472104307548	19.200296622815376	2.15
C 	19.383693195730494	19.34872704065544	2.15
C 	19.96125922889813	20.645961590507934	2.15
C 	21.37348032032108	20.794392008348	2.15
C 	21.951046353488717	22.0916265582005	2.15
C 	23.363267444911667	22.240056976040567	2.15
C 	23.940833478079302	23.537291525893057	2.15
C 	25.35305456950225	23.68572194373312	2.15
C 	25.930620602669887	24.98295649358562	2.15
C 	27.342841694092833	25.131386911425686	2.15
C 	27.92040772726047	26.42862146127818	2.15
C 	29.332628818683418	26.577051879118248	2.15
C 	29.910194851851053	27.874286428970738	2.15
C 	31.322415943274002	28.022716846810805	2.15
C 	31.899981976441637	29.3199513966633	2.15
C 	33.31220306786459	29.468381814503367	2.15
C 	33.88976910103222	30.765616364355864	2.15
C 	35.30199019245517	30.914046782195925	2.15
C 	35.87955622562281	32.21128133204842	2.15
C 	37.29177731704576	32.35971174988849	2.15
C 	37.86934335021339	33.65694629974098	2.15
C 	39.28156444163634	33.80537671758105	2.15
C 	39.859130474803976	35.10261126743354	2.15
C 	41.271351566226926	35.251041685273606	2.15
C 	41.84891759939456	36.5482762351261	2.15
C 	43.26113869081751	36.69670665296617	2.15
C 	43.838704723985146	37.99394120281867	2.15
C 	45.25092581540809	38.14237162065873	2.15
C 	45.82849184857573	39.439606170511226	2.15
C 	47.24071293999868	39.58803658835129	2.15
C 	47.818278973166315	40.885271138203784	2.15
C 	49.230500064589265	41.03370155604385	2.15
C 	49.8080660977569	42.33093610589635	2.15
C 	51.22028718917985	42.47936652373641	2.15
C 	51.797853222347484	43.7766010735889	2.15
C 	53.21007431377043	43.925031491428975	2.15
C 	53.78764034693807	45.222266041281465	2.15
C 	55.19986143836102	45.37069645912153	2.15
C 	55.777427471528654	46.66793100897402	2.15
C 	57.1896485629516	46.8163614268141	2.15
C 	9.177668547689898	14.566440884057558	2.15
C 	9.755234580857532	15.86367543391005	2.15
C 	11.167455672280482	16.012105851750118	2.15
C 	11.745021705448119	17.30934040160261	2.15
C 	13.157242796871067	17.457770819442683	2.15
C 	13.734808830038704	18.755005369295173	2.15
C 	15.147029921461652	18.90343578713524	2.15
C 	15.724595954629287	20.20067033698773	2.15
C 	17.136817046052236	20.349100754827802	2.15
C 	17.71438307921987	21.646335304680292	2.15
C 	19.126604170642818	21.79476572252036	2.15
C 	19.704170203810456	23.092000272372854	2.15
C 	21.116391295233402	23.240430690212925	2.15
C 	21.69395732840104	24.537665240065415	2.15
C 	23.10617841982399	24.686095657905483	2.15
C 	23.683744452991625	25.983330207757973	2.15
C 	25.095965544414575	26.131760625598044	2.15
C 	25.673531577582214	27.428995175450538	2.15
C 	27.08575266900516	27.577425593290606	2.15
C 	27.6633187021728	28.8746601431431	2.15
C 	29.075539793595745	29.023090560983164	2.15
C 	29.65310582676338	30.320325110835658	2.15
C 	31.06532691818633	30.468755528675725	2.15
C 	31.642892951353964	31.76599007852822	2.15
C 	33.055114042776914	31.91442049636829	2.15
C 	33.63268007594455	33.211655046220784	2.15
C 	35.0449011673675	33.360085464060845	2.15
C 	35.622467200535134	34.65732001391334	2.15
C 	37.03468829195808	34.80575043175341	2.15
C 	37.61225432512572	36.10298498160591	2.15
C 	39.02447541654866	36.25141539944597	2.15
C 	39.6020414497163	37.54864994929846	2.15
C 	41.01426254113925	37.697080367138526	2.15
C 	41.59182857430689	38.99431491699102	2.15
C 	43.00404966572984	39.14274533483109	2.15
C 	43.58161569889747	40.43997988468359	2.15
C 	44.993836790320415	40.58841030252365	2.15
C 	45.57140282348806	41.885644852376146	2.15
C 	46.98362391491101	42.03407527021621	2.15
C 	47.56118994807864	43.331309820068704	2.15
C 	48.97341103950159	43.47974023790877	2.15
C 	49.55097707266923	44.77697478776127	2.15
C 	50.96319816409217	44.92540520560133	2.15
C 	51.54076419725981	46.22263975545383	2.15
C 	52.952985288682754	46.371070173293894	2.15
C 	10.910366647192808	18.458144533615037	2.15
C 	11.487932680360444	19.75537908346753	2.15
C 	12.900153771783392	19.9038095013076	2.15
C 	13.477719804951029	21.201044051160093	2.15
C 	14.889940896373975	21.34947446900016	2.15
C 	15.467506929541612	22.64670901885265	2.15
C 	16.87972802096456	22.79513943669272	2.15
C 	17.4572940541322	24.092373986545212	2.15
C 	18.869515145555145	24.24080440438528	2.15
C 	19.44708117872278	25.53803895423777	2.15
C 	20.85930227014573	25.68646937207784	2.15
C 	21.436868303313364	26.983703921930335	2.15
C 	22.849089394736314	27.1321343397704	2.15
C 	23.426655427903952	28.429368889622896	2.15
C 	24.8388765193269	28.577799307462957	2.15
C 	25.416442552494534	29.87503385731545	2.15
C 	26.828663643917487	30.023464275155526	2.15
C 	27.406229677085122	31.320698825008016	2.15
C 	28.818450768508068	31.469129242848084	2.15
C 	29.396016801675707	32.76636379270058	2.15
C 	30.808237893098653	32.91479421054064	2.15
C 	31.385803926266288	34.21202876039313	2.15
C 	32.79802501768924	34.36045917823321	2.15
C 	33.375591050856876	35.6576937280857	2.15
C 	34.78781214227982	35.806124145925764	2.15
C 	35.365378175447454	37.103358695778255	2.15
C 	36.7775992668704	37.25178911361832	2.15
C 	37.355165300038045	38.54902366347082	2.15
C 	38.76738639146099	38.69745408131088	2.15
C 	39.34495242462862	39.99468863116338	2.15
C 	40.75717351605157	40.14311904900345	2.15
C 	41.33473954921921	41.440353598855936	2.15
C 	42.74696064064216	41.588784016696	2.15
C 	43.3245266738098	42.8860185665485	2.15
C 	44.73674776523274	43.03444898438856	2.15
C 	45.31431379840038	44.33168353424106	2.15
C 	46.726534889823334	44.48011395208113	2.15
C 	47.30410092299097	45.777348501933616	2.15
C 	48.71632201441391	45.92577891977369	2.15
C 	14.6328518712863	23.795513150865077	2.15
C 	15.210417904453939	25.09274770071757	2.15
C 	16.622638995876883	25.241178118557634	2.15
C 	17.200205029044522	26.53841266841013	2.15
C 	18.612426120467468	26.686843086250196	2.15
C 	19.189992153635107	27.98407763610269	2.15
C 	20.602213245058053	28.132508053942757	2.15
C 	21.17977927822569	29.429742603795255	2.15
C 	22.592000369648638	29.578173021635315	2.15
C 	23.169566402816276	30.87540757148781	2.15
C 	24.581787494239226	31.023837989327877	2.15
C 	25.15935352740686	32.32107253918037	2.15
C 	26.57157461882981	32.46950295702044	2.15
C 	27.149140651997445	33.766737506872936	2.15
C 	28.56136174342039	33.915167924712996	2.15
C 	29.13892777658803	35.21240247456549	2.15
C 	30.551148868010976	35.36083289240556	2.15
C 	31.128714901178615	36.65806744225806	2.15
C 	32.54093599260156	36.806497860098126	2.15
C 	33.1185020257692	38.10373240995062	2.15
C 	34.530723117192146	38.252162827790684	2.15
C 	35.10828915035978	39.549397377643174	2.15
C 	36.52051024178273	39.69782779548324	2.15
C 	37.098076274950365	40.99506234533574	2.15
C 	38.510297366373315	41.1434927631758	2.15
C 	39.08786339954095	42.4407273130283	2.15
C 	40.5000844909639	42.589157730868365	2.15
C 	41.077650524131535	43.88639228072086	2.15
C 	42.489871615554485	44.03482269856093	2.15
C 	43.06743764872212	45.33205724841342	2.15
C 	44.47965874014507	45.48048766625348	2.15
C 	16.36554997078921	27.687216800422554	2.15
C 	16.943116003956845	28.984451350275048	2.15
C 	18.355337095379795	29.132881768115116	2.15
C 	18.93290312854743	30.430116317967613	2.15
C 	20.34512421997038	30.57854673580768	2.15
C 	20.922690253138015	31.875781285660167	2.15
C 	22.334911344560965	32.024211703500235	2.15
C 	22.912477377728603	33.32144625335273	2.15
C 	24.32469846915155	33.4698766711928	2.15
C 	24.902264502319184	34.76711122104529	2.15
C 	26.314485593742134	34.915541638885365	2.15
C 	26.89205162690977	36.21277618873785	2.15
C 	28.30427271833272	36.361206606577916	2.15
C 	28.881838751500354	37.65844115643041	2.15
C 	30.294059842923303	37.80687157427048	2.15
C 	30.87162587609094	39.10410612412298	2.15
C 	32.28384696751389	39.252536541963046	2.15
C 	32.86141300068152	40.549771091815536	2.15
C 	34.27363409210447	40.698201509655604	2.15
C 	34.85120012527211	41.99543605950809	2.15
C 	36.26342121669506	42.14386647734817	2.15
C 	36.84098724986269	43.44110102720066	2.15
C 	38.253208341285635	43.58953144504072	2.15
C 	38.83077437445328	44.88676599489322	2.15
C 	40.24299546587623	45.035196412733285	2.15
C 	40.82056149904386	46.332430962585775	2.15
C 	42.232782590466805	46.48086138042585	2.15
C 	18.09824807029212	31.578920449980032	2.15
C 	18.675814103459754	32.87615499983253	2.15
C 	20.088035194882707	33.024585417672604	2.15
C 	20.665601228050342	34.32181996752509	2.15
C 	22.07782231947329	34.470250385365155	2.15
C 	22.655388352640927	35.76748493521765	2.15
C 	24.067609444063873	35.91591535305771	2.15
C 	24.64517547723151	37.21314990291021	2.15
C 	26.05739656865446	37.361580320750285	2.15
C 	26.634962601822096	38.65881487060277	2.15
C 	28.047183693245042	38.80724528844284	2.15
C 	28.62474972641268	40.10447983829533	2.15
C 	30.036970817835627	40.252910256135394	2.15
C 	30.614536851003265	41.55014480598789	2.15
C 	32.026757942426215	41.698575223827966	2.15
C 	32.60432397559385	42.995809773680456	2.15
C 	34.01654506701679	43.144240191520524	2.15
C 	34.59411110018443	44.441474741373014	2.15
C 	36.00633219160738	44.58990515921308	2.15
C 	36.58389822477502	45.88713970906557	2.15
C 	37.99611931619796	46.03557012690564	2.15
C 	21.820733294385615	36.916289067230075	2.15
C 	22.39829932755325	38.213523617082565	2.15
C 	23.8105204189762	38.36195403492263	2.15
C 	24.388086452143835	39.65918858477513	2.15
C 	25.800307543566785	39.8076190026152	2.15
C 	26.377873576734423	41.104853552467695	2.15
C 	27.790094668157366	41.253283970307756	2.15
C 	28.367660701325004	42.550518520160246	2.15
C 	29.77988179274795	42.69894893800032	2.15
C 	30.35744782591559	43.99618348785281	2.15
C 	31.76966891733854	44.14461390569288	2.15
C 	32.34723495050618	45.441848455545376	2.15
C 	33.75945604192912	45.59027887338544	2.15
C 	23.553431393888523	40.80799271678755	2.15
C 	24.13099742705616	42.10522726664004	2.15
C 	25.543218518479108	42.25365768448011	2.15
C 	26.120784551646747	43.55089223433261	2.15
C 	27.533005643069693	43.699322652172675	2.15
C 	28.110571676237328	44.996557202025166	2.15
C 	29.522792767660277	45.14498761986524	2.15
C 	30.100358800827912	46.44222216971772	2.15
C 	31.512579892250862	46.5906525875578	2.15
H 	51.745449458704165	-1.6931510023302665	2.15
H 	54.24169941607855	-1.4307845595284463	2.15
H 	55.2626083901988	0.8622145391544724	2.15
H 	49.4985733090259	-0.6927772881579035	2.15
H 	55.97439751558145	2.4609190900290243	2.15
H 	57.96418464017202	3.9065840577215862	2.15
H 	58.98509361429228	6.199583156404519	2.15
H 	45.26191003475706	-1.1380685416781033	2.15
H 	47.75815999213144	-0.8757020988762935	2.15
H 	59.69688273967495	7.7982877072790755	2.15
H 	60.7177917137952	10.091286805962005	2.15
H 	41.025246760488216	-1.5833597951983118	2.15
H 	43.52149671786258	-1.320993352396503	2.15
H 	61.42958083917784	11.68999135683654	2.15
H 	63.41936796376844	13.13565632452912	2.15
H 	64.44027693788868	15.428655423212032	2.15
H 	38.77837061080995	-0.5829860810259513	2.15
H 	65.15206606327133	17.027359974086586	2.15
H 	66.17297503739161	19.32035907276952	2.15
H 	34.54170733654112	-1.028277334546155	2.15
H 	37.037957293915476	-0.7659108917443417	2.15
H 	66.88476416277426	20.91906362364407	2.15
H 	68.87455128736484	22.364728591336625	2.15
H 	69.8954602614851	24.65772769001956	2.15
H 	30.30504406227227	-1.4735685880663554	2.15
H 	32.80129401964665	-1.2112021452645445	2.15
H 	70.60724938686776	26.25643224089411	2.15
H 	71.62815836098801	28.549431339577044	2.15
H 	26.068380788003434	-1.9188598415865643	2.15
H 	28.564630745377787	-1.6564933987847552	2.15
H 	72.33994748637063	30.148135890451574	2.15
H 	73.36085646049092	32.44113498913452	2.15
H 	23.82150463832517	-0.9184861274142039	2.15
H 	74.07264558587357	34.03983954000907	2.15
H 	76.06243271046415	35.48550450770162	2.15
H 	77.08334168458443	37.77850360638456	2.15
H 	19.584841364056324	-1.3637773809344076	2.15
H 	22.081091321430694	-1.1014109381325965	2.15
H 	77.79513080996705	39.3772081572591	2.15
H 	78.81603978408731	41.67020725594205	2.15
H 	15.348178089787485	-1.8090686344546099	2.15
H 	17.844428047161852	-1.5467021916527979	2.15
H 	79.52782890946996	43.26891180681657	2.15
H 	80.54873788359023	45.561910905499495	2.15
H 	13.101301940109224	-0.8086949202822523	2.15
H 	76.57714694296176	47.330177118578824	2.15
H 	79.07339690033614	47.59254356138062	2.15
H 	8.864638665840378	-1.2539861738024554	2.15
H 	11.360888623214743	-0.9916197310006454	2.15
H 	72.34048366869291	46.884885865058614	2.15
H 	74.83673362606729	47.14725230786043	2.15
H 	4.627975391571532	-1.6992774273226567	2.15
H 	7.124225348945901	-1.4369109845208474	2.15
H 	70.60007035179842	46.70196105434022	2.15
H 	2.3810992418932733	-0.6989037131502995	2.15
H 	65.85694424474582	47.43996832571077	2.15
H 	68.35319420212018	47.702334768512586	2.15
H 	0.9057582586391664	1.331728942730818	2.15
H 	1.9266672327594256	3.6247280414137473	2.15
H 	61.620280970476976	46.994677072190576	2.15
H 	64.11653092785133	47.257043514992375	2.15
H 	2.6384563581420757	5.223432592288299	2.15
H 	3.659365332262335	7.516431690971226	2.15
H 	59.879867653582465	46.81175226147218	2.15
H 	4.371154457644986	9.115136241845777	2.15
H 	5.392063431765246	11.408135340528705	2.15
H 	7.381850556355828	12.853800308221263	2.15
H 	55.136741546529855	47.549759532842714	2.15
H 	57.63299150390421	47.812125975644534	2.15
H 	8.093639681738479	14.452504859095818	2.15
H 	9.114548655858734	16.74550395777874	2.15
H 	50.90007827226102	47.104468279322525	2.15
H 	53.39632822963537	47.36683472212433	2.15
H 	9.826337781241389	18.344208508653296	2.15
H 	10.84724675536165	20.637207607336226	2.15
H 	12.837033879952234	22.082872575028787	2.15
H 	46.66341499799216	46.65917702580231	2.15
H 	49.15966495536652	46.92154346860413	2.15
H 	13.548823005334883	23.681577125903335	2.15
H 	14.569731979455149	25.97457622458627	2.15
H 	44.9230016810977	46.47625221508391	2.15
H 	15.281521104837793	27.573280775460812	2.15
H 	16.302430078958047	29.86627987414374	2.15
H 	40.17987557404506	47.214259486454466	2.15
H 	42.676125531419416	47.476625929256286	2.15
H 	17.0142192043407	31.464984425018283	2.15
H 	18.03512817846095	33.75798352370122	2.15
H 	20.02491530305154	35.20364849139378	2.15
H 	35.94321229977622	46.76896823293426	2.15
H 	38.43946225715058	47.031334675736076	2.15
H 	20.736704428434198	36.80235304226834	2.15
H 	21.757613402554448	39.095352140951256	2.15
H 	34.20279898288174	46.58604342221587	2.15
H 	22.469402527937106	40.69405669182581	2.15
H 	23.490311502057363	42.987055790508734	2.15
H 	25.480098626647955	44.432720758201306	2.15
H 	27.469885751238525	45.87838572589386	2.15
H 	29.459672875829106	47.32405069358641	2.15
H 	31.95592283320348	47.586417136388235	2.15
