2354

C 	0.0	0.0	0.0
C 	1.2297560733739028	0.7099999999999999	0.0
C 	2.4595121467478056	-2.3647750424515833e-16	0.0
C 	3.689268220121708	0.7099999999999995	0.0
C 	4.919024293495611	-4.729550084903167e-16	0.0
C 	6.148780366869514	0.7099999999999993	0.0
C 	7.378536440243416	-7.09432512735475e-16	0.0
C 	8.60829251361732	0.7099999999999991	0.0
C 	9.838048586991222	-9.459100169806333e-16	0.0
C 	11.067804660365125	0.7099999999999989	0.0
C 	12.297560733739026	-1.1823875212257916e-15	0.0
C 	13.527316807112928	0.7099999999999986	0.0
C 	14.757072880486833	-1.41886502547095e-15	0.0
C 	15.986828953860735	0.7099999999999984	0.0
C 	17.21658502723464	-7.671641100159832e-16	0.0
C 	18.44634110060854	0.7099999999999982	0.0
C 	19.676097173982445	-1.8918200339612667e-15	0.0
C 	20.905853247356347	0.7099999999999989	0.0
C 	22.135609320730246	-2.128297538206425e-15	0.0
C 	23.36536539410415	0.7099999999999967	0.0
C 	24.59512146747805	-2.364775042451583e-15	0.0
C 	25.824877540851954	0.7099999999999983	0.0
C 	27.05463361422586	-8.248957072964913e-16	0.0
C 	28.284389687599763	0.7099999999999999	0.0
C 	29.514145760973665	-2.8377300509419e-15	0.0
C 	30.743901834347565	0.7099999999999961	0.0
C 	31.97365790772147	-3.0742075551870582e-15	0.0
C 	33.20341398109537	0.7099999999999976	0.0
C 	34.43317005446928	-1.5343282200319664e-15	0.0
C 	35.66292612784318	0.7099999999999992	0.0
C 	36.892682201217085	-1.7708057242771246e-15	0.0
C 	38.122438274590984	0.7099999999999972	0.0
C 	39.35219434796489	-3.783640067922533e-15	0.0
C 	40.58195042133879	0.7099999999999969	0.0
C 	41.811706494712695	-4.67403893367191e-16	0.0
C 	43.0414625680866	0.7100000000000002	0.0
C 	44.27121864146049	-4.25659507641285e-15	0.0
C 	45.5009747148344	0.7099999999999964	0.0
C 	46.730730788208305	-9.403589018575075e-16	0.0
C 	47.96048686158221	0.7099999999999997	0.0
C 	49.1902429349561	-4.729550084903166e-15	0.0
C 	50.41999900833001	0.709999999999996	0.0
C 	51.64975508170391	-1.413313910347824e-15	0.0
C 	52.879511155077815	0.7099999999999993	0.0
C 	54.10926722845172	-1.6497914145929826e-15	0.0
C 	55.33902330182562	0.7099999999999991	0.0
C 	56.56877937519952	-5.438982597638641e-15	0.0
C 	57.798535448573425	0.7099999999999953	0.0
C 	59.02829152194733	-5.6754601018838e-15	0.0
C 	60.25804759532124	0.709999999999995	0.0
C 	1.2297560733739028	2.1299999999999994	0.0
C 	2.4595121467478056	2.8399999999999994	0.0
C 	3.689268220121708	2.1299999999999994	0.0
C 	4.919024293495611	2.8399999999999994	0.0
C 	6.148780366869514	2.129999999999999	0.0
C 	7.378536440243416	2.839999999999999	0.0
C 	8.60829251361732	2.1299999999999986	0.0
C 	9.838048586991222	2.8399999999999985	0.0
C 	11.067804660365123	2.129999999999998	0.0
C 	12.297560733739028	2.839999999999999	0.0
C 	13.527316807112928	2.1299999999999977	0.0
C 	14.757072880486833	2.839999999999998	0.0
C 	15.986828953860735	2.129999999999998	0.0
C 	17.216585027234636	2.839999999999997	0.0
C 	18.446341100608542	2.129999999999998	0.0
C 	19.676097173982445	2.8399999999999985	0.0
C 	20.905853247356344	2.1299999999999977	0.0
C 	22.13560932073025	2.8399999999999985	0.0
C 	23.36536539410415	2.129999999999997	0.0
C 	24.595121467478055	2.839999999999997	0.0
C 	25.824877540851954	2.1299999999999963	0.0
C 	27.05463361422586	2.839999999999997	0.0
C 	28.284389687599763	2.129999999999998	0.0
C 	29.514145760973665	2.8399999999999985	0.0
C 	30.743901834347568	2.129999999999996	0.0
C 	31.97365790772147	2.8399999999999967	0.0
C 	33.20341398109537	2.129999999999996	0.0
C 	34.43317005446928	2.8399999999999963	0.0
C 	35.66292612784318	2.1299999999999972	0.0
C 	36.89268220121708	2.8399999999999963	0.0
C 	38.122438274590984	2.129999999999997	0.0
C 	39.35219434796489	2.8399999999999976	0.0
C 	40.58195042133879	2.1299999999999986	0.0
C 	41.81170649471269	2.839999999999996	0.0
C 	43.0414625680866	2.129999999999998	0.0
C 	44.2712186414605	2.8399999999999954	0.0
C 	45.5009747148344	2.129999999999998	0.0
C 	46.7307307882083	2.8399999999999954	0.0
C 	47.96048686158221	2.1299999999999977	0.0
C 	49.19024293495611	2.839999999999995	0.0
C 	50.41999900833001	2.1299999999999977	0.0
C 	51.64975508170391	2.8399999999999945	0.0
C 	52.879511155077815	2.1299999999999972	0.0
C 	54.10926722845171	2.8399999999999945	0.0
C 	55.33902330182563	2.130000000000001	0.0
C 	56.56877937519952	2.8399999999999976	0.0
C 	57.798535448573425	2.129999999999997	0.0
C 	59.028291521947324	2.839999999999994	0.0
C 	60.25804759532124	2.129999999999997	0.0
C 	61.487803668695136	2.8399999999999936	0.0
C 	2.4595121467478056	4.259999999999999	0.0
C 	3.689268220121708	4.969999999999999	0.0
C 	4.919024293495611	4.259999999999999	0.0
C 	6.148780366869514	4.969999999999999	0.0
C 	7.378536440243416	4.259999999999999	0.0
C 	8.60829251361732	4.969999999999999	0.0
C 	9.83804858699122	4.259999999999998	0.0
C 	11.067804660365125	4.969999999999999	0.0
C 	12.297560733739028	4.259999999999998	0.0
C 	13.52731680711293	4.969999999999998	0.0
C 	14.757072880486831	4.259999999999998	0.0
C 	15.986828953860735	4.969999999999998	0.0
C 	17.21658502723464	4.259999999999997	0.0
C 	18.446341100608542	4.969999999999998	0.0
C 	19.676097173982445	4.259999999999999	0.0
C 	20.905853247356347	4.969999999999997	0.0
C 	22.135609320730246	4.259999999999996	0.0
C 	23.365365394104153	4.969999999999997	0.0
C 	24.595121467478055	4.259999999999998	0.0
C 	25.824877540851958	4.969999999999997	0.0
C 	27.054633614225857	4.259999999999995	0.0
C 	28.28438968759976	4.969999999999996	0.0
C 	29.514145760973665	4.259999999999997	0.0
C 	30.743901834347568	4.969999999999997	0.0
C 	31.97365790772147	4.259999999999996	0.0
C 	33.20341398109537	4.969999999999995	0.0
C 	34.43317005446927	4.2599999999999945	0.0
C 	35.66292612784318	4.969999999999995	0.0
C 	36.892682201217085	4.259999999999996	0.0
C 	38.122438274590984	4.969999999999997	0.0
C 	39.35219434796489	4.259999999999997	0.0
C 	40.58195042133879	4.969999999999994	0.0
C 	41.81170649471269	4.259999999999995	0.0
C 	43.041462568086594	4.969999999999996	0.0
C 	44.2712186414605	4.259999999999997	0.0
C 	45.500974714834406	4.969999999999998	0.0
C 	46.7307307882083	4.259999999999994	0.0
C 	47.960486861582204	4.9699999999999935	0.0
C 	49.19024293495611	4.259999999999996	0.0
C 	50.41999900833001	4.969999999999997	0.0
C 	51.64975508170391	4.259999999999993	0.0
C 	52.879511155077815	4.9699999999999935	0.0
C 	54.10926722845171	4.259999999999996	0.0
C 	55.33902330182562	4.969999999999997	0.0
C 	56.568779375199526	4.259999999999996	0.0
C 	57.798535448573425	4.969999999999996	0.0
C 	59.028291521947324	4.259999999999995	0.0
C 	60.25804759532123	4.969999999999996	0.0
C 	61.487803668695136	4.259999999999992	0.0
C 	62.717559742069035	4.969999999999993	0.0
C 	3.6892682201217086	6.389999999999999	0.0
C 	4.919024293495611	7.099999999999999	0.0
C 	6.148780366869514	6.389999999999999	0.0
C 	7.378536440243416	7.099999999999999	0.0
C 	8.608292513617318	6.389999999999998	0.0
C 	9.838048586991222	7.099999999999999	0.0
C 	11.067804660365125	6.389999999999998	0.0
C 	12.297560733739028	7.099999999999998	0.0
C 	13.52731680711293	6.389999999999999	0.0
C 	14.757072880486833	7.099999999999998	0.0
C 	15.986828953860735	6.389999999999998	0.0
C 	17.216585027234636	7.099999999999997	0.0
C 	18.44634110060854	6.389999999999997	0.0
C 	19.676097173982445	7.099999999999998	0.0
C 	20.905853247356347	6.389999999999998	0.0
C 	22.13560932073025	7.099999999999997	0.0
C 	23.365365394104153	6.389999999999998	0.0
C 	24.59512146747805	7.099999999999997	0.0
C 	25.824877540851958	6.389999999999998	0.0
C 	27.054633614225857	7.099999999999997	0.0
C 	28.28438968759976	6.389999999999999	0.0
C 	29.514145760973662	7.099999999999997	0.0
C 	30.743901834347568	6.389999999999999	0.0
C 	31.97365790772147	7.099999999999998	0.0
C 	33.20341398109537	6.389999999999995	0.0
C 	34.43317005446928	7.099999999999994	0.0
C 	35.66292612784318	6.389999999999995	0.0
C 	36.892682201217085	7.099999999999996	0.0
C 	38.122438274590984	6.389999999999996	0.0
C 	39.35219434796489	7.099999999999997	0.0
C 	40.58195042133879	6.389999999999994	0.0
C 	41.811706494712695	7.099999999999995	0.0
C 	43.041462568086594	6.389999999999996	0.0
C 	44.2712186414605	7.099999999999997	0.0
C 	45.500974714834406	6.389999999999998	0.0
C 	46.730730788208305	7.099999999999998	0.0
C 	47.960486861582204	6.389999999999995	0.0
C 	49.19024293495611	7.099999999999996	0.0
C 	50.41999900833001	6.389999999999995	0.0
C 	51.649755081703915	7.099999999999996	0.0
C 	52.879511155077815	6.389999999999995	0.0
C 	54.10926722845172	7.099999999999996	0.0
C 	55.33902330182562	6.389999999999995	0.0
C 	56.568779375199526	7.099999999999995	0.0
C 	57.79853544857343	6.389999999999998	0.0
C 	59.02829152194733	7.099999999999999	0.0
C 	60.25804759532123	6.389999999999994	0.0
C 	61.487803668695136	7.099999999999995	0.0
C 	62.71755974206904	6.389999999999994	0.0
C 	63.94731581544294	7.099999999999995	0.0
C 	4.919024293495611	8.519999999999998	0.0
C 	6.148780366869514	9.229999999999999	0.0
C 	7.378536440243416	8.519999999999998	0.0
C 	8.60829251361732	9.229999999999999	0.0
C 	9.838048586991222	8.519999999999998	0.0
C 	11.067804660365125	9.229999999999999	0.0
C 	12.297560733739028	8.519999999999998	0.0
C 	13.52731680711293	9.229999999999997	0.0
C 	14.757072880486833	8.519999999999998	0.0
C 	15.986828953860737	9.229999999999999	0.0
C 	17.216585027234636	8.519999999999998	0.0
C 	18.44634110060854	9.229999999999997	0.0
C 	19.67609717398244	8.519999999999996	0.0
C 	20.905853247356347	9.229999999999997	0.0
C 	22.13560932073025	8.519999999999998	0.0
C 	23.365365394104153	9.229999999999999	0.0
C 	24.595121467478055	8.519999999999996	0.0
C 	25.824877540851954	9.229999999999995	0.0
C 	27.05463361422586	8.519999999999996	0.0
C 	28.284389687599763	9.229999999999997	0.0
C 	29.514145760973662	8.519999999999996	0.0
C 	30.743901834347565	9.229999999999995	0.0
C 	31.97365790772147	8.52	0.0
C 	33.20341398109537	9.229999999999997	0.0
C 	34.43317005446928	8.519999999999994	0.0
C 	35.66292612784318	9.229999999999995	0.0
C 	36.89268220121708	8.519999999999992	0.0
C 	38.122438274590984	9.229999999999993	0.0
C 	39.35219434796489	8.519999999999998	0.0
C 	40.58195042133879	9.229999999999995	0.0
C 	41.811706494712695	8.519999999999994	0.0
C 	43.0414625680866	9.229999999999995	0.0
C 	44.27121864146049	8.519999999999992	0.0
C 	45.5009747148344	9.229999999999993	0.0
C 	46.730730788208305	8.519999999999998	0.0
C 	47.960486861582204	9.229999999999995	0.0
C 	49.19024293495611	8.519999999999996	0.0
C 	50.41999900833001	9.229999999999993	0.0
C 	51.64975508170391	8.519999999999994	0.0
C 	52.879511155077815	9.229999999999995	0.0
C 	54.10926722845171	8.51999999999999	0.0
C 	55.33902330182562	9.229999999999992	0.0
C 	56.568779375199526	8.519999999999998	0.0
C 	57.798535448573425	9.229999999999995	0.0
C 	59.02829152194733	8.519999999999994	0.0
C 	60.25804759532123	9.229999999999993	0.0
C 	61.48780366869513	8.519999999999992	0.0
C 	62.717559742069035	9.229999999999993	0.0
C 	63.94731581544294	8.519999999999992	0.0
C 	65.17707188881684	9.22999999999999	0.0
C 	6.148780366869514	10.649999999999997	0.0
C 	7.378536440243416	11.359999999999998	0.0
C 	8.608292513617318	10.649999999999997	0.0
C 	9.838048586991222	11.359999999999998	0.0
C 	11.067804660365125	10.649999999999997	0.0
C 	12.297560733739028	11.359999999999996	0.0
C 	13.52731680711293	10.649999999999997	0.0
C 	14.757072880486831	11.359999999999996	0.0
C 	15.986828953860735	10.649999999999997	0.0
C 	17.216585027234636	11.359999999999996	0.0
C 	18.44634110060854	10.649999999999997	0.0
C 	19.676097173982445	11.359999999999998	0.0
C 	20.905853247356347	10.649999999999997	0.0
C 	22.13560932073025	11.359999999999996	0.0
C 	23.365365394104153	10.649999999999997	0.0
C 	24.595121467478055	11.359999999999996	0.0
C 	25.824877540851958	10.649999999999997	0.0
C 	27.05463361422586	11.359999999999996	0.0
C 	28.284389687599763	10.649999999999995	0.0
C 	29.514145760973662	11.359999999999994	0.0
C 	30.743901834347565	10.649999999999995	0.0
C 	31.97365790772147	11.359999999999996	0.0
C 	33.20341398109537	10.649999999999997	0.0
C 	34.43317005446928	11.359999999999998	0.0
C 	35.66292612784318	10.649999999999991	0.0
C 	36.89268220121708	11.359999999999992	0.0
C 	38.122438274590984	10.649999999999993	0.0
C 	39.35219434796489	11.359999999999994	0.0
C 	40.58195042133879	10.649999999999993	0.0
C 	41.811706494712695	11.359999999999994	0.0
C 	43.041462568086594	10.649999999999991	0.0
C 	44.2712186414605	11.359999999999992	0.0
C 	45.5009747148344	10.649999999999993	0.0
C 	46.730730788208305	11.359999999999994	0.0
C 	47.960486861582204	10.649999999999995	0.0
C 	49.19024293495611	11.359999999999996	0.0
C 	50.41999900833001	10.649999999999993	0.0
C 	51.649755081703915	11.359999999999994	0.0
C 	52.879511155077815	10.649999999999995	0.0
C 	54.10926722845172	11.359999999999996	0.0
C 	55.33902330182562	10.649999999999993	0.0
C 	56.568779375199526	11.359999999999994	0.0
C 	57.798535448573425	10.649999999999993	0.0
C 	59.02829152194733	11.359999999999992	0.0
C 	60.25804759532124	10.649999999999995	0.0
C 	61.487803668695136	11.359999999999996	0.0
C 	62.717559742069035	10.649999999999991	0.0
C 	63.94731581544294	11.359999999999992	0.0
C 	65.17707188881684	10.649999999999991	0.0
C 	66.40682796219075	11.359999999999992	0.0
C 	7.378536440243417	12.779999999999998	0.0
C 	8.60829251361732	13.489999999999998	0.0
C 	9.838048586991222	12.78	0.0
C 	11.067804660365125	13.489999999999997	0.0
C 	12.297560733739028	12.779999999999998	0.0
C 	13.527316807112932	13.489999999999998	0.0
C 	14.757072880486833	12.779999999999998	0.0
C 	15.986828953860737	13.489999999999997	0.0
C 	17.216585027234636	12.779999999999996	0.0
C 	18.446341100608542	13.489999999999997	0.0
C 	19.676097173982445	12.779999999999998	0.0
C 	20.905853247356347	13.489999999999997	0.0
C 	22.13560932073025	12.779999999999996	0.0
C 	23.36536539410415	13.489999999999995	0.0
C 	24.595121467478055	12.779999999999996	0.0
C 	25.824877540851958	13.489999999999997	0.0
C 	27.05463361422586	12.779999999999998	0.0
C 	28.284389687599763	13.489999999999997	0.0
C 	29.514145760973662	12.779999999999996	0.0
C 	30.743901834347568	13.489999999999997	0.0
C 	31.97365790772147	12.779999999999996	0.0
C 	33.20341398109537	13.489999999999997	0.0
C 	34.43317005446928	12.779999999999998	0.0
C 	35.66292612784318	13.489999999999995	0.0
C 	36.89268220121708	12.779999999999994	0.0
C 	38.122438274590984	13.489999999999995	0.0
C 	39.35219434796489	12.779999999999996	0.0
C 	40.581950421338796	13.489999999999997	0.0
C 	41.811706494712695	12.779999999999996	0.0
C 	43.041462568086594	13.489999999999993	0.0
C 	44.2712186414605	12.779999999999994	0.0
C 	45.5009747148344	13.489999999999995	0.0
C 	46.730730788208305	12.779999999999996	0.0
C 	47.96048686158221	13.489999999999997	0.0
C 	49.19024293495611	12.779999999999998	0.0
C 	50.41999900833001	13.489999999999995	0.0
C 	51.649755081703915	12.779999999999996	0.0
C 	52.879511155077815	13.489999999999993	0.0
C 	54.10926722845172	12.779999999999998	0.0
C 	55.33902330182563	13.489999999999998	0.0
C 	56.56877937519952	12.779999999999998	0.0
C 	57.798535448573425	13.489999999999997	0.0
C 	59.02829152194733	12.779999999999994	0.0
C 	60.25804759532123	13.489999999999991	0.0
C 	61.487803668695136	12.779999999999998	0.0
C 	62.71755974206904	13.489999999999998	0.0
C 	63.94731581544294	12.779999999999994	0.0
C 	65.17707188881684	13.489999999999995	0.0
C 	66.40682796219075	12.77999999999999	0.0
C 	67.63658403556465	13.489999999999988	0.0
C 	8.60829251361732	14.909999999999998	0.0
C 	9.838048586991222	15.619999999999996	0.0
C 	11.067804660365125	14.909999999999997	0.0
C 	12.297560733739026	15.619999999999996	0.0
C 	13.527316807112934	14.909999999999998	0.0
C 	14.757072880486831	15.619999999999996	0.0
C 	15.986828953860737	14.909999999999998	0.0
C 	17.21658502723464	15.619999999999997	0.0
C 	18.446341100608542	14.909999999999997	0.0
C 	19.676097173982445	15.619999999999996	0.0
C 	20.905853247356347	14.909999999999997	0.0
C 	22.135609320730246	15.619999999999996	0.0
C 	23.365365394104153	14.909999999999995	0.0
C 	24.595121467478055	15.619999999999996	0.0
C 	25.824877540851958	14.909999999999997	0.0
C 	27.05463361422586	15.619999999999996	0.0
C 	28.284389687599763	14.909999999999997	0.0
C 	29.514145760973665	15.619999999999996	0.0
C 	30.743901834347568	14.909999999999997	0.0
C 	31.973657907721474	15.619999999999997	0.0
C 	33.203413981095366	14.909999999999993	0.0
C 	34.43317005446927	15.619999999999994	0.0
C 	35.662926127843185	14.909999999999998	0.0
C 	36.892682201217085	15.619999999999996	0.0
C 	38.122438274590984	14.909999999999995	0.0
C 	39.35219434796489	15.619999999999996	0.0
C 	40.58195042133879	14.909999999999993	0.0
C 	41.811706494712695	15.619999999999994	0.0
C 	43.0414625680866	14.909999999999998	0.0
C 	44.2712186414605	15.619999999999996	0.0
C 	45.5009747148344	14.909999999999995	0.0
C 	46.730730788208305	15.619999999999996	0.0
C 	47.960486861582204	14.909999999999993	0.0
C 	49.19024293495611	15.619999999999994	0.0
C 	50.41999900833002	14.909999999999998	0.0
C 	51.649755081703915	15.619999999999996	0.0
C 	52.87951115507782	14.909999999999997	0.0
C 	54.10926722845171	15.619999999999994	0.0
C 	55.33902330182562	14.909999999999995	0.0
C 	56.568779375199526	15.619999999999994	0.0
C 	57.798535448573425	14.909999999999991	0.0
C 	59.028291521947324	15.619999999999992	0.0
C 	60.25804759532124	14.909999999999998	0.0
C 	61.487803668695136	15.619999999999996	0.0
C 	62.717559742069035	14.909999999999993	0.0
C 	63.94731581544294	15.619999999999994	0.0
C 	65.17707188881684	14.909999999999993	0.0
C 	66.40682796219075	15.619999999999994	0.0
C 	67.63658403556465	14.909999999999997	0.0
C 	68.86634010893854	15.61999999999999	0.0
C 	9.838048586991222	17.039999999999996	0.0
C 	11.067804660365127	17.749999999999996	0.0
C 	12.297560733739028	17.039999999999996	0.0
C 	13.527316807112932	17.749999999999996	0.0
C 	14.757072880486833	17.039999999999996	0.0
C 	15.986828953860735	17.749999999999996	0.0
C 	17.21658502723464	17.039999999999996	0.0
C 	18.446341100608546	17.749999999999996	0.0
C 	19.676097173982445	17.039999999999996	0.0
C 	20.905853247356347	17.749999999999996	0.0
C 	22.13560932073025	17.039999999999996	0.0
C 	23.365365394104153	17.749999999999996	0.0
C 	24.595121467478055	17.039999999999996	0.0
C 	25.82487754085196	17.749999999999996	0.0
C 	27.05463361422586	17.039999999999996	0.0
C 	28.28438968759977	17.75	0.0
C 	29.514145760973665	17.039999999999996	0.0
C 	30.74390183434757	17.749999999999996	0.0
C 	31.973657907721467	17.039999999999992	0.0
C 	33.20341398109537	17.749999999999993	0.0
C 	34.43317005446927	17.039999999999996	0.0
C 	35.66292612784318	17.749999999999996	0.0
C 	36.892682201217085	17.039999999999996	0.0
C 	38.122438274590984	17.749999999999996	0.0
C 	39.35219434796488	17.039999999999992	0.0
C 	40.58195042133879	17.749999999999993	0.0
C 	41.811706494712695	17.039999999999992	0.0
C 	43.041462568086594	17.749999999999993	0.0
C 	44.2712186414605	17.039999999999996	0.0
C 	45.500974714834406	17.749999999999996	0.0
C 	46.7307307882083	17.039999999999992	0.0
C 	47.960486861582204	17.749999999999993	0.0
C 	49.19024293495611	17.039999999999992	0.0
C 	50.41999900833002	17.749999999999993	0.0
C 	51.649755081703915	17.039999999999996	0.0
C 	52.87951115507782	17.749999999999996	0.0
C 	54.10926722845172	17.039999999999992	0.0
C 	55.33902330182562	17.749999999999993	0.0
C 	56.568779375199526	17.039999999999996	0.0
C 	57.79853544857343	17.749999999999996	0.0
C 	59.028291521947324	17.039999999999992	0.0
C 	60.25804759532123	17.749999999999993	0.0
C 	61.487803668695136	17.039999999999996	0.0
C 	62.71755974206904	17.749999999999996	0.0
C 	63.94731581544294	17.04	0.0
C 	65.17707188881684	17.749999999999993	0.0
C 	66.40682796219075	17.039999999999996	0.0
C 	67.63658403556464	17.74999999999999	0.0
C 	68.86634010893856	17.03999999999999	0.0
C 	70.09609618231246	17.74999999999999	0.0
C 	11.067804660365125	19.169999999999995	0.0
C 	12.297560733739026	19.879999999999995	0.0
C 	13.52731680711293	19.169999999999995	0.0
C 	14.757072880486831	19.879999999999995	0.0
C 	15.986828953860737	19.169999999999998	0.0
C 	17.216585027234636	19.879999999999992	0.0
C 	18.446341100608542	19.169999999999995	0.0
C 	19.676097173982445	19.879999999999995	0.0
C 	20.905853247356347	19.169999999999995	0.0
C 	22.135609320730246	19.879999999999995	0.0
C 	23.365365394104153	19.169999999999995	0.0
C 	24.59512146747805	19.879999999999995	0.0
C 	25.824877540851958	19.169999999999995	0.0
C 	27.05463361422586	19.879999999999995	0.0
C 	28.284389687599763	19.169999999999995	0.0
C 	29.51414576097367	19.879999999999995	0.0
C 	30.743901834347565	19.16999999999999	0.0
C 	31.97365790772147	19.879999999999992	0.0
C 	33.20341398109537	19.169999999999995	0.0
C 	34.43317005446927	19.879999999999992	0.0
C 	35.66292612784318	19.169999999999995	0.0
C 	36.89268220121708	19.879999999999992	0.0
C 	38.122438274590984	19.169999999999995	0.0
C 	39.35219434796488	19.879999999999992	0.0
C 	40.58195042133879	19.16999999999999	0.0
C 	41.81170649471269	19.87999999999999	0.0
C 	43.0414625680866	19.169999999999995	0.0
C 	44.27121864146049	19.879999999999992	0.0
C 	45.5009747148344	19.16999999999999	0.0
C 	46.730730788208305	19.879999999999992	0.0
C 	47.960486861582204	19.169999999999995	0.0
C 	49.1902429349561	19.879999999999992	0.0
C 	50.41999900833002	19.169999999999995	0.0
C 	51.649755081703915	19.879999999999992	0.0
C 	52.879511155077815	19.16999999999999	0.0
C 	54.10926722845172	19.879999999999992	0.0
C 	55.33902330182562	19.16999999999999	0.0
C 	56.56877937519952	19.879999999999992	0.0
C 	57.79853544857343	19.169999999999995	0.0
C 	59.02829152194733	19.879999999999992	0.0
C 	60.25804759532123	19.169999999999995	0.0
C 	61.48780366869513	19.879999999999992	0.0
C 	62.717559742069035	19.16999999999999	0.0
C 	63.94731581544294	19.879999999999992	0.0
C 	65.17707188881684	19.169999999999995	0.0
C 	66.40682796219075	19.87999999999999	0.0
C 	67.63658403556465	19.169999999999995	0.0
C 	68.86634010893854	19.87999999999999	0.0
C 	70.09609618231245	19.16999999999999	0.0
C 	71.32585225568636	19.879999999999992	0.0
C 	12.297560733739028	21.299999999999994	0.0
C 	13.527316807112932	22.009999999999994	0.0
C 	14.757072880486831	21.299999999999994	0.0
C 	15.986828953860735	22.009999999999994	0.0
C 	17.216585027234636	21.299999999999994	0.0
C 	18.44634110060854	22.009999999999994	0.0
C 	19.676097173982445	21.299999999999994	0.0
C 	20.905853247356347	22.009999999999994	0.0
C 	22.13560932073025	21.299999999999994	0.0
C 	23.365365394104153	22.009999999999994	0.0
C 	24.595121467478055	21.299999999999994	0.0
C 	25.824877540851958	22.009999999999994	0.0
C 	27.05463361422586	21.299999999999994	0.0
C 	28.284389687599766	22.009999999999994	0.0
C 	29.514145760973662	21.29999999999999	0.0
C 	30.743901834347568	22.00999999999999	0.0
C 	31.97365790772147	21.299999999999994	0.0
C 	33.20341398109537	22.009999999999994	0.0
C 	34.43317005446928	21.299999999999994	0.0
C 	35.662926127843185	22.009999999999994	0.0
C 	36.89268220121708	21.299999999999994	0.0
C 	38.122438274590984	22.009999999999994	0.0
C 	39.35219434796489	21.299999999999994	0.0
C 	40.58195042133879	22.009999999999994	0.0
C 	41.811706494712695	21.299999999999994	0.0
C 	43.0414625680866	22.009999999999994	0.0
C 	44.2712186414605	21.29999999999999	0.0
C 	45.5009747148344	22.00999999999999	0.0
C 	46.730730788208305	21.299999999999994	0.0
C 	47.96048686158221	22.009999999999994	0.0
C 	49.19024293495611	21.299999999999994	0.0
C 	50.41999900833002	22.009999999999994	0.0
C 	51.649755081703915	21.299999999999994	0.0
C 	52.879511155077815	22.00999999999999	0.0
C 	54.10926722845172	21.299999999999994	0.0
C 	55.33902330182563	22.009999999999994	0.0
C 	56.568779375199526	21.29999999999999	0.0
C 	57.798535448573425	22.00999999999999	0.0
C 	59.02829152194733	21.299999999999994	0.0
C 	60.25804759532124	22.009999999999994	0.0
C 	61.48780366869513	21.29999999999999	0.0
C 	62.717559742069035	22.00999999999999	0.0
C 	63.94731581544294	21.299999999999994	0.0
C 	65.17707188881684	22.009999999999987	0.0
C 	66.40682796219075	21.299999999999994	0.0
C 	67.63658403556465	22.009999999999994	0.0
C 	68.86634010893854	21.29999999999999	0.0
C 	70.09609618231245	22.00999999999999	0.0
C 	71.32585225568636	21.299999999999983	0.0
C 	72.55560832906026	22.00999999999999	0.0
C 	13.527316807112932	23.429999999999996	0.0
C 	14.757072880486836	24.139999999999997	0.0
C 	15.986828953860737	23.429999999999996	0.0
C 	17.216585027234643	24.139999999999997	0.0
C 	18.446341100608542	23.429999999999996	0.0
C 	19.676097173982445	24.139999999999997	0.0
C 	20.90585324735635	23.429999999999996	0.0
C 	22.135609320730254	24.139999999999997	0.0
C 	23.365365394104156	23.429999999999993	0.0
C 	24.595121467478062	24.139999999999997	0.0
C 	25.824877540851958	23.429999999999993	0.0
C 	27.054633614225864	24.139999999999993	0.0
C 	28.284389687599766	23.429999999999996	0.0
C 	29.514145760973673	24.139999999999997	0.0
C 	30.743901834347575	23.429999999999996	0.0
C 	31.973657907721478	24.139999999999997	0.0
C 	33.20341398109537	23.429999999999993	0.0
C 	34.43317005446928	24.139999999999993	0.0
C 	35.66292612784318	23.429999999999993	0.0
C 	36.892682201217085	24.139999999999993	0.0
C 	38.122438274590984	23.429999999999993	0.0
C 	39.35219434796489	24.139999999999993	0.0
C 	40.58195042133879	23.429999999999996	0.0
C 	41.811706494712695	24.139999999999993	0.0
C 	43.041462568086594	23.42999999999999	0.0
C 	44.2712186414605	24.13999999999999	0.0
C 	45.5009747148344	23.429999999999993	0.0
C 	46.730730788208305	24.139999999999993	0.0
C 	47.96048686158221	23.429999999999993	0.0
C 	49.19024293495611	24.139999999999993	0.0
C 	50.41999900833001	23.429999999999993	0.0
C 	51.649755081703915	24.13999999999999	0.0
C 	52.87951115507782	23.429999999999993	0.0
C 	54.10926722845172	24.139999999999993	0.0
C 	55.33902330182563	23.429999999999993	0.0
C 	56.56877937519953	24.139999999999993	0.0
C 	57.798535448573425	23.429999999999993	0.0
C 	59.02829152194733	24.139999999999993	0.0
C 	60.25804759532124	23.429999999999993	0.0
C 	61.487803668695136	24.13999999999999	0.0
C 	62.71755974206904	23.429999999999993	0.0
C 	63.947315815442934	24.139999999999986	0.0
C 	65.17707188881684	23.429999999999993	0.0
C 	66.40682796219075	24.139999999999993	0.0
C 	67.63658403556464	23.42999999999999	0.0
C 	68.86634010893856	24.139999999999997	0.0
C 	70.09609618231245	23.42999999999999	0.0
C 	71.32585225568636	24.139999999999997	0.0
C 	72.55560832906026	23.42999999999999	0.0
C 	73.78536440243417	24.13999999999999	0.0
C 	14.757072880486835	25.559999999999995	0.0
C 	15.986828953860735	26.269999999999996	0.0
C 	17.21658502723464	25.559999999999995	0.0
C 	18.44634110060854	26.269999999999996	0.0
C 	19.676097173982445	25.56	0.0
C 	20.905853247356344	26.269999999999996	0.0
C 	22.13560932073025	25.56	0.0
C 	23.365365394104153	26.269999999999996	0.0
C 	24.595121467478055	25.559999999999995	0.0
C 	25.824877540851958	26.269999999999996	0.0
C 	27.054633614225857	25.559999999999995	0.0
C 	28.28438968759976	26.269999999999996	0.0
C 	29.514145760973665	25.559999999999995	0.0
C 	30.743901834347568	26.269999999999996	0.0
C 	31.973657907721474	25.559999999999995	0.0
C 	33.20341398109538	26.269999999999996	0.0
C 	34.43317005446927	25.55999999999999	0.0
C 	35.66292612784318	26.269999999999992	0.0
C 	36.892682201217085	25.559999999999995	0.0
C 	38.12243827459098	26.269999999999992	0.0
C 	39.35219434796489	25.559999999999995	0.0
C 	40.58195042133879	26.269999999999992	0.0
C 	41.81170649471269	25.55999999999999	0.0
C 	43.041462568086594	26.269999999999992	0.0
C 	44.2712186414605	25.55999999999999	0.0
C 	45.5009747148344	26.26999999999999	0.0
C 	46.730730788208305	25.559999999999995	0.0
C 	47.960486861582204	26.269999999999992	0.0
C 	49.19024293495611	25.55999999999999	0.0
C 	50.41999900833001	26.269999999999992	0.0
C 	51.649755081703915	25.559999999999995	0.0
C 	52.879511155077815	26.269999999999992	0.0
C 	54.10926722845172	25.559999999999995	0.0
C 	55.33902330182562	26.269999999999992	0.0
C 	56.568779375199526	25.55999999999999	0.0
C 	57.79853544857343	26.269999999999992	0.0
C 	59.028291521947324	25.55999999999999	0.0
C 	60.25804759532123	26.269999999999992	0.0
C 	61.487803668695136	25.559999999999995	0.0
C 	62.717559742069035	26.26999999999999	0.0
C 	63.94731581544294	25.55999999999999	0.0
C 	65.17707188881683	26.269999999999985	0.0
C 	66.40682796219075	25.55999999999999	0.0
C 	67.63658403556465	26.269999999999992	0.0
C 	68.86634010893856	25.559999999999995	0.0
C 	70.09609618231246	26.269999999999996	0.0
C 	71.32585225568636	25.559999999999995	0.0
C 	72.55560832906026	26.269999999999996	0.0
C 	73.78536440243415	25.559999999999988	0.0
C 	75.01512047580806	26.26999999999999	0.0
C 	15.986828953860735	27.689999999999994	0.0
C 	17.21658502723464	28.399999999999995	0.0
C 	18.446341100608542	27.689999999999994	0.0
C 	19.676097173982445	28.399999999999995	0.0
C 	20.905853247356344	27.689999999999994	0.0
C 	22.13560932073025	28.399999999999995	0.0
C 	23.365365394104153	27.689999999999994	0.0
C 	24.59512146747806	28.399999999999995	0.0
C 	25.824877540851954	27.689999999999994	0.0
C 	27.054633614225857	28.399999999999995	0.0
C 	28.284389687599763	27.689999999999994	0.0
C 	29.514145760973665	28.399999999999995	0.0
C 	30.74390183434757	27.689999999999994	0.0
C 	31.973657907721474	28.399999999999995	0.0
C 	33.20341398109537	27.68999999999999	0.0
C 	34.43317005446928	28.39999999999999	0.0
C 	35.66292612784318	27.689999999999994	0.0
C 	36.892682201217085	28.399999999999995	0.0
C 	38.122438274590984	27.689999999999994	0.0
C 	39.35219434796489	28.399999999999995	0.0
C 	40.58195042133879	27.689999999999994	0.0
C 	41.811706494712695	28.399999999999995	0.0
C 	43.041462568086594	27.689999999999994	0.0
C 	44.2712186414605	28.399999999999995	0.0
C 	45.500974714834406	27.689999999999994	0.0
C 	46.730730788208305	28.399999999999995	0.0
C 	47.960486861582204	27.68999999999999	0.0
C 	49.19024293495611	28.39999999999999	0.0
C 	50.41999900833002	27.689999999999994	0.0
C 	51.649755081703915	28.399999999999995	0.0
C 	52.87951115507782	27.689999999999994	0.0
C 	54.10926722845173	28.399999999999995	0.0
C 	55.33902330182562	27.68999999999999	0.0
C 	56.568779375199526	28.39999999999999	0.0
C 	57.79853544857343	27.689999999999994	0.0
C 	59.02829152194733	28.39999999999999	0.0
C 	60.25804759532124	27.689999999999994	0.0
C 	61.48780366869513	28.399999999999988	0.0
C 	62.717559742069035	27.689999999999994	0.0
C 	63.94731581544294	28.399999999999995	0.0
C 	65.17707188881684	27.68999999999999	0.0
C 	66.40682796219075	28.39999999999999	0.0
C 	67.63658403556464	27.689999999999987	0.0
C 	68.86634010893856	28.399999999999995	0.0
C 	70.09609618231245	27.689999999999994	0.0
C 	71.32585225568636	28.399999999999995	0.0
C 	72.55560832906026	27.68999999999999	0.0
C 	73.78536440243415	28.39999999999999	0.0
C 	75.01512047580808	27.689999999999994	0.0
C 	76.24487654918197	28.399999999999984	0.0
C 	17.21658502723464	29.819999999999997	0.0
C 	18.446341100608546	30.529999999999998	0.0
C 	19.676097173982445	29.819999999999997	0.0
C 	20.905853247356355	30.529999999999998	0.0
C 	22.13560932073025	29.819999999999993	0.0
C 	23.365365394104156	30.529999999999994	0.0
C 	24.59512146747806	29.819999999999997	0.0
C 	25.82487754085196	30.529999999999998	0.0
C 	27.054633614225867	29.819999999999997	0.0
C 	28.28438968759977	30.529999999999998	0.0
C 	29.514145760973665	29.819999999999997	0.0
C 	30.74390183434757	30.529999999999998	0.0
C 	31.973657907721474	29.819999999999997	0.0
C 	33.20341398109538	30.529999999999998	0.0
C 	34.43317005446928	29.819999999999997	0.0
C 	35.662926127843185	30.529999999999998	0.0
C 	36.892682201217085	29.819999999999993	0.0
C 	38.12243827459099	30.529999999999994	0.0
C 	39.35219434796488	29.819999999999993	0.0
C 	40.58195042133879	30.529999999999994	0.0
C 	41.811706494712695	29.819999999999993	0.0
C 	43.0414625680866	30.529999999999994	0.0
C 	44.2712186414605	29.819999999999993	0.0
C 	45.500974714834406	30.529999999999994	0.0
C 	46.730730788208305	29.81999999999999	0.0
C 	47.960486861582204	30.52999999999999	0.0
C 	49.19024293495611	29.819999999999993	0.0
C 	50.41999900833002	30.529999999999994	0.0
C 	51.649755081703915	29.819999999999993	0.0
C 	52.87951115507782	30.529999999999994	0.0
C 	54.10926722845172	29.819999999999993	0.0
C 	55.33902330182563	30.52999999999999	0.0
C 	56.568779375199526	29.819999999999993	0.0
C 	57.798535448573425	30.52999999999999	0.0
C 	59.02829152194734	29.819999999999993	0.0
C 	60.25804759532124	30.529999999999994	0.0
C 	61.487803668695136	29.819999999999993	0.0
C 	62.71755974206904	30.529999999999994	0.0
C 	63.947315815442934	29.81999999999999	0.0
C 	65.17707188881685	30.529999999999998	0.0
C 	66.40682796219073	29.819999999999986	0.0
C 	67.63658403556465	30.529999999999994	0.0
C 	68.86634010893856	29.819999999999993	0.0
C 	70.09609618231245	30.529999999999994	0.0
C 	71.32585225568637	29.819999999999997	0.0
C 	72.55560832906026	30.52999999999999	0.0
C 	73.78536440243417	29.819999999999997	0.0
C 	75.01512047580806	30.529999999999987	0.0
C 	76.24487654918197	29.81999999999999	0.0
C 	77.47463262255587	30.52999999999999	0.0
C 	18.446341100608542	31.949999999999996	0.0
C 	19.676097173982445	32.65999999999999	0.0
C 	20.905853247356347	31.949999999999992	0.0
C 	22.135609320730254	32.66	0.0
C 	23.365365394104156	31.949999999999996	0.0
C 	24.595121467478055	32.65999999999999	0.0
C 	25.824877540851958	31.949999999999992	0.0
C 	27.05463361422586	32.66	0.0
C 	28.284389687599766	31.949999999999996	0.0
C 	29.51414576097367	32.66	0.0
C 	30.743901834347568	31.949999999999992	0.0
C 	31.97365790772147	32.66	0.0
C 	33.20341398109537	31.949999999999992	0.0
C 	34.43317005446928	32.66	0.0
C 	35.66292612784318	31.949999999999996	0.0
C 	36.892682201217085	32.66	0.0
C 	38.122438274590984	31.949999999999992	0.0
C 	39.35219434796489	32.65999999999999	0.0
C 	40.58195042133879	31.949999999999992	0.0
C 	41.81170649471269	32.65999999999999	0.0
C 	43.0414625680866	31.949999999999996	0.0
C 	44.2712186414605	32.65999999999999	0.0
C 	45.5009747148344	31.949999999999992	0.0
C 	46.730730788208305	32.65999999999999	0.0
C 	47.96048686158221	31.949999999999992	0.0
C 	49.1902429349561	32.65999999999999	0.0
C 	50.41999900833002	31.949999999999992	0.0
C 	51.649755081703915	32.65999999999999	0.0
C 	52.879511155077815	31.949999999999992	0.0
C 	54.10926722845172	32.65999999999999	0.0
C 	55.33902330182563	31.949999999999992	0.0
C 	56.568779375199526	32.65999999999999	0.0
C 	57.79853544857343	31.949999999999992	0.0
C 	59.028291521947324	32.65999999999999	0.0
C 	60.25804759532124	31.949999999999992	0.0
C 	61.487803668695136	32.65999999999999	0.0
C 	62.717559742069035	31.94999999999999	0.0
C 	63.94731581544294	32.65999999999999	0.0
C 	65.17707188881685	31.949999999999992	0.0
C 	66.40682796219076	32.66	0.0
C 	67.63658403556465	31.949999999999992	0.0
C 	68.86634010893856	32.65999999999999	0.0
C 	70.09609618231245	31.94999999999999	0.0
C 	71.32585225568636	32.65999999999999	0.0
C 	72.55560832906026	31.949999999999996	0.0
C 	73.78536440243415	32.65999999999999	0.0
C 	75.01512047580806	31.949999999999992	0.0
C 	76.24487654918195	32.65999999999998	0.0
C 	77.47463262255587	31.949999999999985	0.0
C 	78.70438869592978	32.65999999999999	0.0
C 	19.676097173982445	34.07999999999999	0.0
C 	20.90585324735635	34.78999999999999	0.0
C 	22.135609320730254	34.07999999999999	0.0
C 	23.365365394104156	34.78999999999999	0.0
C 	24.595121467478055	34.07999999999999	0.0
C 	25.824877540851958	34.78999999999999	0.0
C 	27.054633614225864	34.07999999999999	0.0
C 	28.284389687599766	34.78999999999999	0.0
C 	29.514145760973665	34.07999999999999	0.0
C 	30.743901834347568	34.78999999999999	0.0
C 	31.97365790772147	34.07999999999999	0.0
C 	33.20341398109537	34.78999999999999	0.0
C 	34.43317005446928	34.07999999999999	0.0
C 	35.662926127843185	34.78999999999999	0.0
C 	36.89268220121708	34.07999999999999	0.0
C 	38.122438274590984	34.78999999999999	0.0
C 	39.35219434796489	34.07999999999999	0.0
C 	40.581950421338796	34.78999999999999	0.0
C 	41.811706494712695	34.07999999999999	0.0
C 	43.0414625680866	34.78999999999999	0.0
C 	44.2712186414605	34.07999999999999	0.0
C 	45.5009747148344	34.78999999999999	0.0
C 	46.730730788208305	34.07999999999999	0.0
C 	47.96048686158221	34.78999999999999	0.0
C 	49.19024293495611	34.07999999999999	0.0
C 	50.41999900833002	34.78999999999999	0.0
C 	51.649755081703915	34.07999999999999	0.0
C 	52.87951115507782	34.78999999999999	0.0
C 	54.10926722845172	34.07999999999999	0.0
C 	55.33902330182562	34.78999999999999	0.0
C 	56.56877937519953	34.07999999999999	0.0
C 	57.79853544857343	34.78999999999999	0.0
C 	59.02829152194733	34.07999999999999	0.0
C 	60.25804759532124	34.78999999999999	0.0
C 	61.487803668695136	34.07999999999999	0.0
C 	62.71755974206905	34.79	0.0
C 	63.947315815442934	34.079999999999984	0.0
C 	65.17707188881685	34.78999999999999	0.0
C 	66.40682796219075	34.07999999999999	0.0
C 	67.63658403556465	34.78999999999999	0.0
C 	68.86634010893854	34.07999999999999	0.0
C 	70.09609618231245	34.78999999999999	0.0
C 	71.32585225568636	34.07999999999999	0.0
C 	72.55560832906025	34.789999999999985	0.0
C 	73.78536440243417	34.07999999999999	0.0
C 	75.01512047580808	34.78999999999999	0.0
C 	76.24487654918197	34.07999999999999	0.0
C 	77.47463262255587	34.78999999999999	0.0
C 	78.70438869592977	34.079999999999984	0.0
C 	79.93414476930369	34.78999999999999	0.0
C 	20.90585324735635	36.209999999999994	0.0
C 	22.135609320730254	36.919999999999995	0.0
C 	23.36536539410416	36.209999999999994	0.0
C 	24.595121467478062	36.919999999999995	0.0
C 	25.82487754085196	36.209999999999994	0.0
C 	27.054633614225864	36.919999999999995	0.0
C 	28.284389687599766	36.209999999999994	0.0
C 	29.514145760973673	36.919999999999995	0.0
C 	30.743901834347575	36.209999999999994	0.0
C 	31.973657907721478	36.919999999999995	0.0
C 	33.20341398109537	36.209999999999994	0.0
C 	34.43317005446928	36.919999999999995	0.0
C 	35.662926127843185	36.209999999999994	0.0
C 	36.89268220121709	36.919999999999995	0.0
C 	38.12243827459099	36.209999999999994	0.0
C 	39.3521943479649	36.919999999999995	0.0
C 	40.581950421338796	36.209999999999994	0.0
C 	41.811706494712695	36.919999999999995	0.0
C 	43.041462568086594	36.209999999999994	0.0
C 	44.2712186414605	36.919999999999995	0.0
C 	45.500974714834406	36.209999999999994	0.0
C 	46.730730788208305	36.919999999999995	0.0
C 	47.96048686158221	36.209999999999994	0.0
C 	49.19024293495612	36.919999999999995	0.0
C 	50.41999900833002	36.20999999999999	0.0
C 	51.649755081703915	36.91999999999999	0.0
C 	52.87951115507782	36.209999999999994	0.0
C 	54.10926722845172	36.91999999999999	0.0
C 	55.33902330182563	36.209999999999994	0.0
C 	56.56877937519953	36.919999999999995	0.0
C 	57.79853544857343	36.20999999999999	0.0
C 	59.02829152194733	36.91999999999999	0.0
C 	60.25804759532123	36.20999999999999	0.0
C 	61.48780366869515	36.919999999999995	0.0
C 	62.71755974206904	36.209999999999994	0.0
C 	63.94731581544295	36.919999999999995	0.0
C 	65.17707188881684	36.209999999999994	0.0
C 	66.40682796219075	36.919999999999995	0.0
C 	67.63658403556467	36.209999999999994	0.0
C 	68.86634010893856	36.91999999999999	0.0
C 	70.09609618231246	36.209999999999994	0.0
C 	71.32585225568636	36.91999999999999	0.0
C 	72.55560832906026	36.209999999999994	0.0
C 	73.78536440243417	36.919999999999995	0.0
C 	75.01512047580806	36.20999999999999	0.0
C 	76.24487654918198	36.919999999999995	0.0
C 	77.47463262255586	36.20999999999999	0.0
C 	78.70438869592978	36.919999999999995	0.0
C 	79.93414476930369	36.20999999999999	0.0
C 	81.16390084267759	36.91999999999999	0.0
C 	22.13560932073025	38.33999999999999	0.0
C 	23.365365394104153	39.04999999999999	0.0
C 	24.59512146747806	38.33999999999999	0.0
C 	25.82487754085196	39.04999999999999	0.0
C 	27.05463361422586	38.33999999999999	0.0
C 	28.284389687599763	39.04999999999999	0.0
C 	29.514145760973665	38.33999999999999	0.0
C 	30.74390183434757	39.04999999999999	0.0
C 	31.973657907721474	38.339999999999996	0.0
C 	33.20341398109538	39.04999999999999	0.0
C 	34.43317005446927	38.33999999999999	0.0
C 	35.66292612784318	39.04999999999999	0.0
C 	36.892682201217085	38.33999999999999	0.0
C 	38.12243827459099	39.04999999999999	0.0
C 	39.35219434796489	38.33999999999999	0.0
C 	40.581950421338796	39.04999999999999	0.0
C 	41.811706494712695	38.33999999999999	0.0
C 	43.0414625680866	39.04999999999999	0.0
C 	44.27121864146049	38.33999999999999	0.0
C 	45.5009747148344	39.04999999999999	0.0
C 	46.730730788208305	38.33999999999999	0.0
C 	47.960486861582204	39.04999999999999	0.0
C 	49.19024293495611	38.33999999999999	0.0
C 	50.41999900833002	39.04999999999999	0.0
C 	51.649755081703915	38.33999999999999	0.0
C 	52.879511155077815	39.04999999999999	0.0
C 	54.10926722845173	38.33999999999999	0.0
C 	55.33902330182562	39.04999999999998	0.0
C 	56.568779375199526	38.33999999999999	0.0
C 	57.79853544857343	39.04999999999999	0.0
C 	59.02829152194733	38.33999999999999	0.0
C 	60.25804759532123	39.04999999999999	0.0
C 	61.48780366869513	38.33999999999998	0.0
C 	62.71755974206905	39.04999999999999	0.0
C 	63.94731581544294	38.33999999999999	0.0
C 	65.17707188881685	39.04999999999999	0.0
C 	66.40682796219075	38.33999999999999	0.0
C 	67.63658403556465	39.04999999999999	0.0
C 	68.86634010893856	38.33999999999999	0.0
C 	70.09609618231245	39.04999999999998	0.0
C 	71.32585225568636	38.33999999999999	0.0
C 	72.55560832906025	39.04999999999998	0.0
C 	73.78536440243415	38.33999999999999	0.0
C 	75.01512047580806	39.04999999999999	0.0
C 	76.24487654918197	38.33999999999999	0.0
C 	77.47463262255587	39.05	0.0
C 	78.70438869592977	38.33999999999998	0.0
C 	79.93414476930369	39.04999999999999	0.0
C 	81.16390084267758	38.33999999999998	0.0
C 	82.39365691605148	39.04999999999998	0.0
C 	23.365365394104156	40.46999999999999	0.0
C 	24.59512146747806	41.17999999999999	0.0
C 	25.82487754085196	40.46999999999999	0.0
C 	27.054633614225867	41.17999999999999	0.0
C 	28.284389687599763	40.46999999999999	0.0
C 	29.51414576097367	41.17999999999999	0.0
C 	30.74390183434757	40.46999999999999	0.0
C 	31.973657907721474	41.17999999999999	0.0
C 	33.20341398109537	40.46999999999999	0.0
C 	34.43317005446928	41.17999999999999	0.0
C 	35.66292612784318	40.46999999999999	0.0
C 	36.892682201217085	41.17999999999999	0.0
C 	38.12243827459099	40.46999999999999	0.0
C 	39.3521943479649	41.17999999999999	0.0
C 	40.58195042133879	40.46999999999999	0.0
C 	41.811706494712695	41.17999999999999	0.0
C 	43.0414625680866	40.46999999999999	0.0
C 	44.2712186414605	41.17999999999999	0.0
C 	45.500974714834406	40.46999999999999	0.0
C 	46.73073078820831	41.17999999999999	0.0
C 	47.960486861582204	40.46999999999999	0.0
C 	49.19024293495611	41.17999999999999	0.0
C 	50.41999900833002	40.46999999999999	0.0
C 	51.649755081703915	41.179999999999986	0.0
C 	52.87951115507782	40.46999999999999	0.0
C 	54.10926722845173	41.17999999999999	0.0
C 	55.33902330182563	40.46999999999999	0.0
C 	56.568779375199526	41.17999999999999	0.0
C 	57.798535448573425	40.469999999999985	0.0
C 	59.028291521947345	41.17999999999999	0.0
C 	60.25804759532124	40.46999999999999	0.0
C 	61.48780366869514	41.17999999999999	0.0
C 	62.71755974206904	40.46999999999999	0.0
C 	63.94731581544295	41.17999999999999	0.0
C 	65.17707188881685	40.46999999999999	0.0
C 	66.40682796219075	41.179999999999986	0.0
C 	67.63658403556465	40.46999999999999	0.0
C 	68.86634010893854	41.179999999999986	0.0
C 	70.09609618231246	40.46999999999999	0.0
C 	71.32585225568636	41.17999999999999	0.0
C 	72.55560832906026	40.469999999999985	0.0
C 	73.78536440243417	41.179999999999986	0.0
C 	75.01512047580806	40.469999999999985	0.0
C 	76.24487654918198	41.17999999999999	0.0
C 	77.47463262255587	40.46999999999999	0.0
C 	78.70438869592978	41.17999999999999	0.0
C 	79.93414476930367	40.469999999999985	0.0
C 	81.16390084267758	41.179999999999986	0.0
C 	82.3936569160515	40.46999999999999	0.0
C 	83.62341298942539	41.179999999999986	0.0
C 	24.595121467478055	42.59999999999999	0.0
C 	25.82487754085196	43.30999999999999	0.0
C 	27.05463361422586	42.59999999999999	0.0
C 	28.284389687599766	43.30999999999999	0.0
C 	29.514145760973662	42.59999999999999	0.0
C 	30.743901834347568	43.30999999999999	0.0
C 	31.97365790772147	42.59999999999999	0.0
C 	33.20341398109537	43.30999999999999	0.0
C 	34.43317005446927	42.59999999999999	0.0
C 	35.66292612784318	43.30999999999999	0.0
C 	36.89268220121708	42.59999999999999	0.0
C 	38.122438274590984	43.30999999999999	0.0
C 	39.35219434796489	42.59999999999999	0.0
C 	40.581950421338796	43.30999999999999	0.0
C 	41.81170649471269	42.59999999999999	0.0
C 	43.041462568086594	43.30999999999999	0.0
C 	44.2712186414605	42.59999999999999	0.0
C 	45.5009747148344	43.30999999999999	0.0
C 	46.730730788208305	42.59999999999999	0.0
C 	47.96048686158221	43.30999999999999	0.0
C 	49.19024293495611	42.59999999999999	0.0
C 	50.41999900833001	43.30999999999999	0.0
C 	51.64975508170392	42.599999999999994	0.0
C 	52.879511155077815	43.30999999999999	0.0
C 	54.10926722845172	42.59999999999999	0.0
C 	55.33902330182563	43.30999999999999	0.0
C 	56.568779375199526	42.59999999999999	0.0
C 	57.798535448573425	43.30999999999999	0.0
C 	59.028291521947324	42.59999999999998	0.0
C 	60.258047595321244	43.30999999999999	0.0
C 	61.487803668695136	42.59999999999999	0.0
C 	62.71755974206904	43.30999999999999	0.0
C 	63.94731581544294	42.59999999999999	0.0
C 	65.17707188881684	43.30999999999999	0.0
C 	66.40682796219076	42.599999999999994	0.0
C 	67.63658403556465	43.30999999999999	0.0
C 	68.86634010893856	42.59999999999999	0.0
C 	70.09609618231245	43.30999999999998	0.0
C 	71.32585225568636	42.59999999999999	0.0
C 	72.55560832906026	43.30999999999999	0.0
C 	73.78536440243415	42.59999999999999	0.0
C 	75.01512047580806	43.30999999999999	0.0
C 	76.24487654918197	42.59999999999998	0.0
C 	77.47463262255587	43.30999999999999	0.0
C 	78.70438869592978	42.59999999999999	0.0
C 	79.93414476930367	43.30999999999999	0.0
C 	81.16390084267758	42.59999999999999	0.0
C 	82.39365691605148	43.30999999999999	0.0
C 	83.62341298942539	42.59999999999999	0.0
C 	84.85316906279928	43.30999999999998	0.0
C 	25.82487754085196	44.72999999999999	0.0
C 	27.054633614225864	45.43999999999999	0.0
C 	28.284389687599766	44.72999999999999	0.0
C 	29.514145760973673	45.43999999999999	0.0
C 	30.743901834347568	44.72999999999999	0.0
C 	31.97365790772147	45.43999999999999	0.0
C 	33.20341398109537	44.72999999999999	0.0
C 	34.43317005446928	45.43999999999999	0.0
C 	35.662926127843185	44.72999999999999	0.0
C 	36.892682201217085	45.43999999999999	0.0
C 	38.122438274590984	44.72999999999999	0.0
C 	39.35219434796489	45.43999999999999	0.0
C 	40.581950421338796	44.72999999999999	0.0
C 	41.811706494712695	45.43999999999999	0.0
C 	43.0414625680866	44.72999999999999	0.0
C 	44.27121864146051	45.43999999999999	0.0
C 	45.500974714834406	44.72999999999999	0.0
C 	46.730730788208305	45.43999999999999	0.0
C 	47.960486861582204	44.72999999999999	0.0
C 	49.19024293495611	45.43999999999998	0.0
C 	50.41999900833002	44.72999999999999	0.0
C 	51.64975508170391	45.43999999999998	0.0
C 	52.87951115507782	44.72999999999999	0.0
C 	54.10926722845172	45.43999999999999	0.0
C 	55.33902330182562	44.72999999999998	0.0
C 	56.568779375199526	45.43999999999998	0.0
C 	57.798535448573425	44.72999999999998	0.0
C 	59.02829152194734	45.43999999999999	0.0
C 	60.25804759532124	44.72999999999999	0.0
C 	61.48780366869514	45.43999999999999	0.0
C 	62.717559742069035	44.72999999999998	0.0
C 	63.94731581544294	45.43999999999998	0.0
C 	65.17707188881685	44.72999999999999	0.0
C 	66.40682796219075	45.43999999999998	0.0
C 	67.63658403556465	44.72999999999999	0.0
C 	68.86634010893856	45.43999999999999	0.0
C 	70.09609618231245	44.72999999999999	0.0
C 	71.32585225568636	45.43999999999998	0.0
C 	72.55560832906026	44.72999999999998	0.0
C 	73.78536440243417	45.43999999999999	0.0
C 	75.01512047580806	44.72999999999998	0.0
C 	76.24487654918198	45.43999999999999	0.0
C 	77.47463262255587	44.72999999999999	0.0
C 	78.70438869592978	45.43999999999999	0.0
C 	79.93414476930369	44.72999999999999	0.0
C 	81.16390084267758	45.43999999999998	0.0
C 	82.39365691605148	44.72999999999999	0.0
C 	83.62341298942538	45.43999999999998	0.0
C 	84.8531690627993	44.72999999999998	0.0
C 	86.08292513617319	45.43999999999998	0.0
C 	27.054633614225864	46.85999999999999	0.0
C 	28.28438968759977	47.56999999999999	0.0
C 	29.514145760973673	46.85999999999999	0.0
C 	30.74390183434758	47.56999999999999	0.0
C 	31.973657907721474	46.85999999999999	0.0
C 	33.20341398109538	47.56999999999999	0.0
C 	34.43317005446928	46.85999999999999	0.0
C 	35.662926127843185	47.56999999999999	0.0
C 	36.892682201217085	46.85999999999999	0.0
C 	38.122438274590984	47.56999999999999	0.0
C 	39.35219434796489	46.85999999999999	0.0
C 	40.581950421338796	47.56999999999999	0.0
C 	41.8117064947127	46.85999999999999	0.0
C 	43.0414625680866	47.56999999999999	0.0
C 	44.2712186414605	46.85999999999999	0.0
C 	45.500974714834406	47.56999999999999	0.0
C 	46.73073078820831	46.859999999999985	0.0
C 	47.960486861582204	47.569999999999986	0.0
C 	49.19024293495612	46.85999999999999	0.0
C 	50.41999900833002	47.56999999999999	0.0
C 	51.649755081703915	46.859999999999985	0.0
C 	52.87951115507782	47.569999999999986	0.0
C 	54.10926722845172	46.859999999999985	0.0
C 	55.339023301825634	47.56999999999999	0.0
C 	56.56877937519953	46.85999999999999	0.0
C 	57.79853544857344	47.56999999999999	0.0
C 	59.02829152194733	46.859999999999985	0.0
C 	60.25804759532124	47.569999999999986	0.0
C 	61.48780366869515	46.85999999999999	0.0
C 	62.71755974206904	47.569999999999986	0.0
C 	63.94731581544295	46.85999999999999	0.0
C 	65.17707188881685	47.56999999999999	0.0
C 	66.40682796219075	46.859999999999985	0.0
C 	67.63658403556465	47.569999999999986	0.0
C 	68.86634010893856	46.859999999999985	0.0
C 	70.09609618231246	47.56999999999999	0.0
C 	71.32585225568636	46.859999999999985	0.0
C 	72.55560832906028	47.56999999999999	0.0
C 	73.78536440243417	46.859999999999985	0.0
C 	75.01512047580808	47.569999999999986	0.0
C 	76.24487654918197	46.859999999999985	0.0
C 	77.47463262255587	47.569999999999986	0.0
C 	78.70438869592978	46.85999999999999	0.0
C 	79.93414476930367	47.569999999999986	0.0
C 	81.16390084267758	46.85999999999999	0.0
C 	82.39365691605148	47.56999999999999	0.0
C 	83.62341298942539	46.859999999999985	0.0
C 	84.8531690627993	47.569999999999986	0.0
C 	86.08292513617319	46.85999999999998	0.0
C 	87.31268120954711	47.569999999999986	0.0
C 	28.284389687599763	48.98999999999999	0.0
C 	29.51414576097367	49.69999999999999	0.0
C 	30.74390183434757	48.98999999999999	0.0
C 	31.973657907721478	49.69999999999999	0.0
C 	33.20341398109537	48.98999999999999	0.0
C 	34.43317005446928	49.69999999999999	0.0
C 	35.66292612784318	48.98999999999999	0.0
C 	36.892682201217085	49.69999999999999	0.0
C 	38.122438274590984	48.98999999999999	0.0
C 	39.35219434796488	49.69999999999999	0.0
C 	40.58195042133879	48.98999999999999	0.0
C 	41.811706494712695	49.69999999999999	0.0
C 	43.041462568086594	48.98999999999999	0.0
C 	44.2712186414605	49.69999999999999	0.0
C 	45.5009747148344	48.98999999999999	0.0
C 	46.730730788208305	49.69999999999998	0.0
C 	47.96048686158221	48.98999999999999	0.0
C 	49.1902429349561	49.69999999999998	0.0
C 	50.41999900833002	48.98999999999999	0.0
C 	51.64975508170392	49.69999999999999	0.0
C 	52.879511155077815	48.98999999999999	0.0
C 	54.10926722845172	49.69999999999999	0.0
C 	55.33902330182562	48.98999999999998	0.0
C 	56.56877937519953	49.69999999999999	0.0
C 	57.79853544857343	48.98999999999999	0.0
C 	59.02829152194734	49.69999999999999	0.0
C 	60.25804759532124	48.98999999999999	0.0
C 	61.487803668695136	49.69999999999999	0.0
C 	62.71755974206905	48.98999999999999	0.0
C 	63.94731581544294	49.69999999999998	0.0
C 	65.17707188881685	48.98999999999999	0.0
C 	66.40682796219075	49.69999999999999	0.0
C 	67.63658403556465	48.98999999999999	0.0
C 	68.86634010893856	49.69999999999999	0.0
C 	70.09609618231245	48.98999999999998	0.0
C 	71.32585225568637	49.69999999999999	0.0
C 	72.55560832906025	48.98999999999998	0.0
C 	73.78536440243417	49.69999999999999	0.0
C 	75.01512047580806	48.98999999999999	0.0
C 	76.24487654918197	49.69999999999999	0.0
C 	77.47463262255587	48.98999999999998	0.0
C 	78.70438869592978	49.69999999999998	0.0
C 	79.93414476930369	48.98999999999999	0.0
C 	81.16390084267758	49.69999999999998	0.0
C 	82.39365691605148	48.98999999999999	0.0
C 	83.62341298942539	49.69999999999999	0.0
C 	84.85316906279928	48.98999999999998	0.0
C 	86.08292513617319	49.69999999999998	0.0
C 	87.3126812095471	48.98999999999998	0.0
C 	88.542437282921	49.69999999999999	0.0
C 	29.51414576097367	51.11999999999999	0.0
C 	30.74390183434757	51.82999999999999	0.0
C 	31.973657907721474	51.11999999999999	0.0
C 	33.20341398109538	51.82999999999999	0.0
C 	34.43317005446928	51.11999999999999	0.0
C 	35.66292612784318	51.82999999999999	0.0
C 	36.892682201217085	51.11999999999999	0.0
C 	38.12243827459099	51.82999999999999	0.0
C 	39.35219434796489	51.12	0.0
C 	40.581950421338796	51.83	0.0
C 	41.811706494712695	51.11999999999999	0.0
C 	43.041462568086594	51.82999999999999	0.0
C 	44.2712186414605	51.12	0.0
C 	45.5009747148344	51.82999999999999	0.0
C 	46.73073078820831	51.11999999999999	0.0
C 	47.96048686158221	51.82999999999999	0.0
C 	49.19024293495611	51.11999999999999	0.0
C 	50.41999900833002	51.82999999999999	0.0
C 	51.649755081703915	51.11999999999998	0.0
C 	52.879511155077815	51.829999999999984	0.0
C 	54.10926722845171	51.11999999999999	0.0
C 	55.33902330182563	51.83	0.0
C 	56.568779375199526	51.11999999999999	0.0
C 	57.79853544857343	51.82999999999999	0.0
C 	59.02829152194733	51.11999999999999	0.0
C 	60.25804759532124	51.82999999999999	0.0
C 	61.48780366869514	51.11999999999999	0.0
C 	62.717559742069035	51.829999999999984	0.0
C 	63.94731581544295	51.11999999999999	0.0
C 	65.17707188881685	51.82999999999999	0.0
C 	66.40682796219075	51.11999999999999	0.0
C 	67.63658403556465	51.82999999999999	0.0
C 	68.86634010893854	51.11999999999998	0.0
C 	70.09609618231246	51.82999999999999	0.0
C 	71.32585225568636	51.11999999999999	0.0
C 	72.55560832906026	51.82999999999999	0.0
C 	73.78536440243417	51.11999999999999	0.0
C 	75.01512047580806	51.82999999999999	0.0
C 	76.24487654918198	51.11999999999999	0.0
C 	77.47463262255587	51.829999999999984	0.0
C 	78.70438869592978	51.11999999999999	0.0
C 	79.93414476930367	51.829999999999984	0.0
C 	81.16390084267758	51.11999999999999	0.0
C 	82.39365691605148	51.82999999999999	0.0
C 	83.62341298942538	51.11999999999998	0.0
C 	84.8531690627993	51.82999999999999	0.0
C 	86.08292513617319	51.11999999999998	0.0
C 	87.3126812095471	51.82999999999999	0.0
C 	88.542437282921	51.11999999999998	0.0
C 	89.7721933562949	51.829999999999984	0.0
C 	49.75939833491323	-0.3761347463799649	2.15
C 	51.178152753653606	-0.3166713180845042	2.15
C 	51.83603312352381	0.9417377644238221	2.15
C 	53.25478754226418	1.0012011927192899	2.15
C 	53.91266791213439	2.259610275227616	2.15
C 	55.33142233087477	2.3190737035230704	2.15
C 	55.98930270074498	3.5774827860313967	2.15
C 	45.50313507869208	-0.5545250312663577	2.15
C 	46.92188949743247	-0.49506160297089025	2.15
C 	47.57976986730267	0.7633474795374329	2.15
C 	48.99852428604305	0.8228109078328905	2.15
C 	49.65640465591325	2.0812199903412134	2.15
C 	51.07515907465364	2.140683418636681	2.15
C 	51.73303944452384	3.399092501145004	2.15
C 	53.15179386326422	3.4585559294404713	2.15
C 	53.80967423313442	4.716965011948795	2.15
C 	55.22842865187479	4.776428440244259	2.15
C 	55.88630902174499	6.034837522752582	2.15
C 	57.305063440485384	6.094300951048046	2.15
C 	57.96294381035558	7.352710033556369	2.15
C 	41.24687182247096	-0.7329153161527441	2.15
C 	42.66562624121133	-0.6734518878572862	2.15
C 	43.32350661108153	0.5849571946510401	2.15
C 	44.74226102982191	0.6444206229465044	2.15
C 	45.40014139969212	1.9028297054548307	2.15
C 	46.818895818432495	1.962293133750295	2.15
C 	47.4767761883027	3.220702216258621	2.15
C 	48.89553060704308	3.280165644554079	2.15
C 	49.55341097691328	4.5385747270624055	2.15
C 	50.97216539565366	4.598038155357866	2.15
C 	51.63004576552387	5.856447237866193	2.15
C 	53.048800184264245	5.91591066616166	2.15
C 	53.70668055413445	7.174319748669986	2.15
C 	55.12543497287483	7.233783176965441	2.15
C 	55.78331534274503	8.492192259473768	2.15
C 	57.202069761485404	8.551655687769236	2.15
C 	57.85995013135561	9.810064770277561	2.15
C 	59.278704550095995	9.869528198573022	2.15
C 	59.9365849199662	11.127937281081348	2.15
C 	61.35533933870657	11.18740070937681	2.15
C 	62.01321970857677	12.445809791885136	2.15
C 	36.99060856624982	-0.9113056010391305	2.15
C 	38.409362984990196	-0.8518421727436744	2.15
C 	39.0672433548604	0.40656690976465193	2.15
C 	40.48599777360078	0.46603033806011795	2.15
C 	41.14387814347098	1.7244394205684441	2.15
C 	42.56263256221136	1.7839028488639022	2.15
C 	43.22051293208157	3.0423119313722284	2.15
C 	44.63926735082194	3.101775359667693	2.15
C 	45.297147720692145	4.360184442176019	2.15
C 	46.71590213943252	4.419647870471483	2.15
C 	47.37378250930273	5.6780569529798095	2.15
C 	48.792536928043106	5.737520381275267	2.15
C 	49.45041729791331	6.995929463783594	2.15
C 	50.86917171665369	7.055392892079058	2.15
C 	51.527052086523895	8.313801974587385	2.15
C 	52.94580650526427	8.373265402882845	2.15
C 	53.60368687513448	9.631674485391171	2.15
C 	55.022441293874856	9.691137913686633	2.15
C 	55.68032166374506	10.94954699619496	2.15
C 	57.09907608248543	11.009010424490423	2.15
C 	57.75695645235564	12.267419506998749	2.15
C 	59.175710871096015	12.326882935294213	2.15
C 	59.83359124096622	13.58529201780254	2.15
C 	61.2523456597066	13.644755446097998	2.15
C 	61.910226029576805	14.903164528606323	2.15
C 	63.32898044831718	14.96262795690179	2.15
C 	63.98686081818739	16.221037039410113	2.15
C 	34.81098009863926	0.22817662487826096	2.15
C 	36.22973451737965	0.2876400531737266	2.15
C 	36.887614887249846	1.5460491356820496	2.15
C 	38.30636930599022	1.6055125639775125	2.15
C 	38.96424967586042	2.863921646485836	2.15
C 	40.38300409460081	2.9233850747813013	2.15
C 	41.04088446447101	4.181794157289625	2.15
C 	42.45963888321138	4.241257585585087	2.15
C 	43.11751925308159	5.49966666809341	2.15
C 	44.536273671821974	5.559130096388878	2.15
C 	45.19415404169217	6.817539178897201	2.15
C 	46.61290846043255	6.877002607192669	2.15
C 	47.270788830302756	8.135411689700991	2.15
C 	48.68954324904313	8.194875117996453	2.15
C 	49.34742361891333	9.453284200504775	2.15
C 	50.766178037653724	9.51274762880024	2.15
C 	51.42405840752392	10.771156711308564	2.15
C 	52.8428128262643	10.830620139604031	2.15
C 	53.500693196134506	12.089029222112357	2.15
C 	54.91944761487488	12.14849265040781	2.15
C 	55.57732798474508	13.406901732916138	2.15
C 	56.99608240348547	13.46636516121161	2.15
C 	57.653962773355666	14.724774243719931	2.15
C 	59.07271719209605	14.784237672015392	2.15
C 	59.730597561966256	16.04264675452372	2.15
C 	61.149351980706626	16.10211018281918	2.15
C 	61.807232350576825	17.360519265327508	2.15
C 	63.22598676931722	17.419982693622973	2.15
C 	63.883867139187416	18.678391776131292	2.15
C 	65.3026215579278	18.73785520442676	2.15
C 	65.96050192779799	19.996264286935087	2.15
C 	30.554716842418127	0.049786339991871174	2.15
C 	31.973471261158505	0.10924976828733562	2.15
C 	32.63135163102871	1.3676588507956589	2.15
C 	34.05010604976909	1.4271222790911213	2.15
C 	34.7079864196393	2.6855313615994474	2.15
C 	36.12674083837967	2.7449947898949136	2.15
C 	36.784621208249874	4.00340387240324	2.15
C 	38.20337562699025	4.062867300698696	2.15
C 	38.86125599686046	5.321276383207023	2.15
C 	40.280010415600835	5.3807398115024885	2.15
C 	40.93789078547104	6.639148894010814	2.15
C 	42.35664520421142	6.69861232230627	2.15
C 	43.01452557408162	7.957021404814597	2.15
C 	44.433279992821994	8.016484833110063	2.15
C 	45.0911603626922	9.274893915618389	2.15
C 	46.509914781432585	9.334357343913853	2.15
C 	47.16779515130279	10.59276642642218	2.15
C 	48.58654957004316	10.652229854717637	2.15
C 	49.24442993991336	11.910638937225965	2.15
C 	50.663184358653744	11.970102365521429	2.15
C 	51.32106472852395	13.228511448029755	2.15
C 	52.739819147264335	13.287974876325215	2.15
C 	53.39769951713454	14.546383958833541	2.15
C 	54.81645393587491	14.605847387129003	2.15
C 	55.47433430574511	15.86425646963733	2.15
C 	56.89308872448549	15.923719897932793	2.15
C 	57.55096909435569	17.18212898044112	2.15
C 	58.96972351309608	17.241592408736583	2.15
C 	59.627603882966284	18.50000149124491	2.15
C 	61.046358301706654	18.559464919540368	2.15
C 	61.70423867157685	19.817874002048693	2.15
C 	63.12299309031724	19.87733743034416	2.15
C 	63.78087346018744	21.135746512852485	2.15
C 	65.19962787892783	21.19520994114795	2.15
C 	65.85750824879803	22.453619023656277	2.15
C 	67.2762626675384	22.513082451951732	2.15
C 	67.9341430374086	23.77149153446006	2.15
C 	26.298453586196988	-0.1286039448945198	2.15
C 	27.717208004937373	-0.06914051659905888	2.15
C 	28.375088374807575	1.1892685659092659	2.15
C 	29.793842793547952	1.2487319942047335	2.15
C 	30.451723163418155	2.5071410767130566	2.15
C 	31.870477582158536	2.566604505008519	2.15
C 	32.52835795202874	3.825013587516845	2.15
C 	33.94711237076911	3.8844770158123083	2.15
C 	34.60499274063932	5.1428860983206315	2.15
C 	36.0237471593797	5.202349526616097	2.15
C 	36.68162752924991	6.4607586091244205	2.15
C 	38.10038194799028	6.520222037419883	2.15
C 	38.75826231786048	7.778631119928206	2.15
C 	40.17701673660086	7.838094548223672	2.15
C 	40.83489710647107	9.096503630731995	2.15
C 	42.253651525211446	9.155967059027457	2.15
C 	42.911531895081644	10.414376141535781	2.15
C 	44.33028631382203	10.473839569831247	2.15
C 	44.98816668369223	11.73224865233957	2.15
C 	46.406921102432605	11.791712080635039	2.15
C 	47.06480147230281	13.050121163143363	2.15
C 	48.483555891043196	13.109584591438827	2.15
C 	49.141436260913395	14.367993673947145	2.15
C 	50.56019067965378	14.427457102242606	2.15
C 	51.21807104952398	15.685866184750934	2.15
C 	52.636825468264355	15.745329613046406	2.15
C 	53.294705838134554	17.003738695554727	2.15
C 	54.713460256874946	17.06320212385019	2.15
C 	55.371340626745145	18.321611206358508	2.15
C 	56.79009504548552	18.381074634653977	2.15
C 	57.44797541535572	19.639483717162303	2.15
C 	58.866729834096105	19.69894714545777	2.15
C 	59.524610203966304	20.957356227966088	2.15
C 	60.94336462270669	21.016819656261557	2.15
C 	61.60124499257689	22.275228738769876	2.15
C 	63.01999941131727	22.334692167065338	2.15
C 	63.67787978118747	23.593101249573664	2.15
C 	65.09663419992785	23.652564677869137	2.15
C 	65.75451456979805	24.91097376037746	2.15
C 	67.17326898853844	24.970437188672918	2.15
C 	67.83114935840864	26.22884627118124	2.15
C 	69.24990377714902	26.288309699476702	2.15
C 	69.90778414701921	27.54671878198502	2.15
C 	22.042190329975853	-0.30699422978091095	2.15
C 	23.460944748716233	-0.24753080148544512	2.15
C 	24.118825118586436	1.0108782810228796	2.15
C 	25.53757953732682	1.0703417093183405	2.15
C 	26.195459907197023	2.328750791826665	2.15
C 	27.614214325937397	2.3882142201221295	2.15
C 	28.2720946958076	3.6466233026304544	2.15
C 	29.690849114547984	3.7060867309259167	2.15
C 	30.348729484418186	4.964495813434243	2.15
C 	31.767483903158563	5.023959241729709	2.15
C 	32.42536427302877	6.282368324238032	2.15
C 	33.84411869176915	6.3418317525334915	2.15
C 	34.50199906163935	7.600240835041818	2.15
C 	35.92075348037972	7.659704263337284	2.15
C 	36.57863385024993	8.91811334584561	2.15
C 	37.99738826899031	8.977576774141067	2.15
C 	38.65526863886051	10.235985856649393	2.15
C 	40.07402305760089	10.295449284944858	2.15
C 	40.731903427471096	11.553858367453184	2.15
C 	42.15065784621147	11.613321795748641	2.15
C 	42.80853821608168	12.871730878256967	2.15
C 	44.22729263482206	12.931194306552433	2.15
C 	44.885173004692255	14.18960338906076	2.15
C 	46.30392742343264	14.249066817356223	2.15
C 	46.961807793302846	15.507475899864549	2.15
C 	48.380562212043216	15.566939328160007	2.15
C 	49.03844258191342	16.825348410668333	2.15
C 	50.45719700065381	16.8848118389638	2.15
C 	51.115077370524006	18.143220921472125	2.15
C 	52.53383178926439	18.202684349767587	2.15
C 	53.191712159134596	19.461093432275913	2.15
C 	54.610466577874966	19.520556860571375	2.15
C 	55.268346947745165	20.7789659430797	2.15
C 	56.68710136648555	20.838429371375163	2.15
C 	57.34498173635575	22.09683845388349	2.15
C 	58.76373615509613	22.156301882178955	2.15
C 	59.42161652496634	23.41471096468728	2.15
C 	60.84037094370671	23.47417439298274	2.15
C 	61.49825131357691	24.732583475491065	2.15
C 	62.9170057323173	24.792046903786527	2.15
C 	63.574886102187506	26.050455986294857	2.15
C 	64.99364052092787	26.10991941459032	2.15
C 	65.65152089079808	27.368328497098645	2.15
C 	67.07027530953846	27.427791925394104	2.15
C 	67.72815567940866	28.68620100790243	2.15
C 	69.14691009814905	28.745664436197885	2.15
C 	69.80479046801925	30.00407351870621	2.15
C 	71.22354488675963	30.063536947001683	2.15
C 	71.88142525662983	31.321946029510013	2.15
C 	17.78592707375472	-0.48538451466729987	2.15
C 	19.204681492495098	-0.4259210863718372	2.15
C 	19.8625618623653	0.8324879961364875	2.15
C 	21.28131628110568	0.8919514244319511	2.15
C 	21.939196650975884	2.1503605069402756	2.15
C 	23.35795106971626	2.2098239352357414	2.15
C 	24.015831439586464	3.4682330177440663	2.15
C 	25.434585858326844	3.527696446039529	2.15
C 	26.092466228197047	4.786105528547852	2.15
C 	27.511220646937428	4.845568956843317	2.15
C 	28.16910101680763	6.1039780393516425	2.15
C 	29.587855435548008	6.1634414676471065	2.15
C 	30.245735805418214	7.421850550155433	2.15
C 	31.66449022415859	7.481313978450895	2.15
C 	32.3223705940288	8.739723060959218	2.15
C 	33.741125012769174	8.799186489254682	2.15
C 	34.39900538263938	10.057595571763008	2.15
C 	35.81775980137976	10.117059000058472	2.15
C 	36.47564017124996	11.375468082566798	2.15
C 	37.894394589990334	11.434931510862256	2.15
C 	38.55227495986054	12.693340593370582	2.15
C 	39.97102937860092	12.752804021666046	2.15
C 	40.62890974847112	14.011213104174374	2.15
C 	42.0476641672115	14.07067653246983	2.15
C 	42.7055445370817	15.329085614978158	2.15
C 	44.124298955822084	15.388549043273622	2.15
C 	44.78217932569229	16.646958125781946	2.15
C 	46.20093374443267	16.706421554077412	2.15
C 	46.858814114302874	17.964830636585738	2.15
C 	48.27756853304325	18.024294064881193	2.15
C 	48.93544890291345	19.282703147389523	2.15
C 	50.354203321653834	19.342166575684985	2.15
C 	51.01208369152404	20.60057565819331	2.15
C 	52.43083811026442	20.660039086488776	2.15
C 	53.088718480134624	21.918448168997102	2.15
C 	54.507472898875	21.977911597292557	2.15
C 	55.1653532687452	23.236320679800883	2.15
C 	56.58410768748558	23.295784108096353	2.15
C 	57.24198805735578	24.55419319060468	2.15
C 	58.66074247609617	24.61365661890014	2.15
C 	59.318622845966374	25.872065701408467	2.15
C 	60.737377264706744	25.931529129703925	2.15
C 	61.39525763457695	27.189938212212255	2.15
C 	62.81401205331733	27.249401640507713	2.15
C 	63.47189242318753	28.50781072301604	2.15
C 	64.89064684192792	28.56727415131151	2.15
C 	65.54852721179812	29.825683233819834	2.15
C 	66.9672816305385	29.88514666211529	2.15
C 	67.6251620004087	31.143555744623615	2.15
C 	69.04391641914907	31.203019172919074	2.15
C 	69.70179678901928	32.4614282554274	2.15
C 	71.12055120775966	32.52089168372287	2.15
C 	71.77843157762986	33.779300766231195	2.15
C 	73.19718599637024	33.838764194526654	2.15
C 	73.85506636624045	35.097173277034976	2.15
C 	13.529663817533585	-0.663774799553691	2.15
C 	14.948418236273962	-0.6043113712582268	2.15
C 	15.606298606144167	0.654097711250098	2.15
C 	17.025053024884546	0.7135611395455607	2.15
C 	17.68293339475475	1.9719702220538853	2.15
C 	19.101687813495126	2.031433650349348	2.15
C 	19.75956818336533	3.2898427328576725	2.15
C 	21.17832260210571	3.349306161153135	2.15
C 	21.83620297197591	4.60771524366146	2.15
C 	23.254957390716292	4.667178671956926	2.15
C 	23.912837760586495	5.9255877544652495	2.15
C 	25.331592179326872	5.9850511827607145	2.15
C 	25.989472549197075	7.24346026526904	2.15
C 	27.408226967937455	7.302923693564502	2.15
C 	28.066107337807658	8.561332776072824	2.15
C 	29.48486175654804	8.620796204368292	2.15
C 	30.14274212641824	9.879205286876616	2.15
C 	31.56149654515862	9.93866871517208	2.15
C 	32.219376915028825	11.197077797680405	2.15
C 	33.6381313337692	11.256541225975866	2.15
C 	34.2960117036394	12.51495030848419	2.15
C 	35.714766122379785	12.574413736779658	2.15
C 	36.37264649224999	13.83282281928798	2.15
C 	37.79140091099036	13.892286247583442	2.15
C 	38.44928128086057	15.150695330091764	2.15
C 	39.868035699600945	15.210158758387232	2.15
C 	40.52591606947115	16.468567840895556	2.15
C 	41.94467048821153	16.52803126919102	2.15
C 	42.602550858081734	17.78644035169934	2.15
C 	44.02130527682211	17.845903779994803	2.15
C 	44.67918564669231	19.10431286250313	2.15
C 	46.097940065432695	19.1637762907986	2.15
C 	46.755820435302894	20.42218537330692	2.15
C 	48.17457485404328	20.481648801602386	2.15
C 	48.83245522391348	21.740057884110705	2.15
C 	50.25120964265386	21.799521312406167	2.15
C 	50.90909001252406	23.057930394914493	2.15
C 	52.32784443126445	23.117393823209962	2.15
C 	52.98572480113465	24.37580290571828	2.15
C 	54.40447921987503	24.43526633401375	2.15
C 	55.06235958974523	25.69367541652207	2.15
C 	56.481114008485605	25.753138844817535	2.15
C 	57.138994378355804	27.01154792732586	2.15
C 	58.55774879709619	27.07101135562133	2.15
C 	59.215629166966394	28.329420438129652	2.15
C 	60.63438358570677	28.388883866425115	2.15
C 	61.29226395557697	29.647292948933437	2.15
C 	62.711018374317355	29.7067563772289	2.15
C 	63.368898744187554	30.965165459737225	2.15
C 	64.78765316292794	31.024628888032698	2.15
C 	65.44553353279814	32.28303797054102	2.15
C 	66.86428795153851	32.34250139883648	2.15
C 	67.52216832140873	33.6009104813448	2.15
C 	68.9409227401491	33.66037390964026	2.15
C 	69.5988031100193	34.91878299214858	2.15
C 	71.01755752875968	34.97824642044406	2.15
C 	71.6754378986299	36.23665550295239	2.15
C 	73.09419231737027	36.29611893124784	2.15
C 	73.75207268724047	37.55452801375617	2.15
C 	75.17082710598085	37.61399144205163	2.15
C 	75.82870747585105	38.87240052455996	2.15
C 	77.24746189459144	38.93186395285542	2.15
C 	77.90534226446164	40.19027303536375	2.15
C 	9.273400561312448	-0.842165084440081	2.15
C 	10.692154980052825	-0.7827016561446178	2.15
C 	11.350035349923028	0.4757074263637069	2.15
C 	12.76878976866341	0.5351708546591702	2.15
C 	13.426670138533614	1.793579937167495	2.15
C 	14.845424557273992	1.8530433654629583	2.15
C 	15.503304927144196	3.111452447971285	2.15
C 	16.922059345884573	3.1709158762667458	2.15
C 	17.579939715754776	4.429324958775072	2.15
C 	18.998694134495157	4.488788387070533	2.15
C 	19.65657450436536	5.747197469578859	2.15
C 	21.075328923105737	5.806660897874321	2.15
C 	21.733209292975943	7.065069980382646	2.15
C 	23.15196371171632	7.124533408678111	2.15
C 	23.809844081586522	8.382942491186437	2.15
C 	25.228598500326903	8.4424059194819	2.15
C 	25.886478870197106	9.700815001990225	2.15
C 	27.305233288937483	9.760278430285688	2.15
C 	27.963113658807686	11.018687512794013	2.15
C 	29.381868077548067	11.078150941089477	2.15
C 	30.03974844741827	12.336560023597803	2.15
C 	31.45850286615865	12.396023451893264	2.15
C 	32.11638323602885	13.654432534401591	2.15
C 	33.53513765476923	13.713895962697052	2.15
C 	34.193018024639436	14.972305045205378	2.15
C 	35.61177244337981	15.031768473500842	2.15
C 	36.26965281325002	16.29017755600917	2.15
C 	37.688407231990396	16.349640984304628	2.15
C 	38.346287601860595	17.608050066812954	2.15
C 	39.76504202060097	17.667513495108416	2.15
C 	40.42292239047118	18.925922577616742	2.15
C 	41.841676809211556	18.9853860059122	2.15
C 	42.49955717908176	20.243795088420526	2.15
C 	43.91831159782214	20.303258516715992	2.15
C 	44.576191967692345	21.561667599224318	2.15
C 	45.99494638643272	21.621131027519784	2.15
C 	46.65282675630293	22.87954011002811	2.15
C 	48.071581175043306	22.93900353832357	2.15
C 	48.729461544913505	24.197412620831894	2.15
C 	50.14821596365389	24.256876049127353	2.15
C 	50.806096333524096	25.51528513163568	2.15
C 	52.22485075226447	25.574748559931145	2.15
C 	52.88273112213468	26.83315764243947	2.15
C 	54.301485540875056	26.89262107073493	2.15
C 	54.95936591074526	28.151030153243255	2.15
C 	56.37812032948564	28.21049358153872	2.15
C 	57.036000699355846	29.46890266404705	2.15
C 	58.45475511809622	29.52836609234251	2.15
C 	59.11263548796643	30.786775174850835	2.15
C 	60.5313899067068	30.846238603146297	2.15
C 	61.189270276577	32.104647685654626	2.15
C 	62.60802469531739	32.164111113950085	2.15
C 	63.265905065187596	33.42252019645841	2.15
C 	64.68465948392796	33.48198362475388	2.15
C 	65.34253985379817	34.7403927072622	2.15
C 	66.76129427253855	34.79985613555766	2.15
C 	67.41917464240875	36.05826521806598	2.15
C 	68.83792906114914	36.11772864636144	2.15
C 	69.49580943101934	37.37613772886977	2.15
C 	70.91456384975972	37.43560115716524	2.15
C 	71.57244421962992	38.69401023967357	2.15
C 	72.99119863837029	38.753473667969025	2.15
C 	73.6490790082405	40.01188275047735	2.15
C 	75.06783342698088	40.07134617877281	2.15
C 	75.72571379685108	41.329755261281136	2.15
C 	77.14446821559146	41.3892186895766	2.15
C 	77.80234858546167	42.64762777208493	2.15
C 	79.22110300420204	42.70709120038039	2.15
C 	79.87898337407225	43.96550028288872	2.15
C 	7.093772093701894	0.29731714147731686	2.15
C 	8.512526512442273	0.35678056977278033	2.15
C 	9.170406882312477	1.6151896522811051	2.15
C 	10.589161301052854	1.6746530805765676	2.15
C 	11.247041670923057	2.9330621630848923	2.15
C 	12.665796089663436	2.9925255913803572	2.15
C 	13.323676459533639	4.250934673888682	2.15
C 	14.74243087827402	4.310398102184146	2.15
C 	15.400311248144224	5.568807184692471	2.15
C 	16.8190656668846	5.628270612987933	2.15
C 	17.476946036754804	6.886679695496258	2.15
C 	18.89570045549518	6.946143123791721	2.15
C 	19.553580825365387	8.204552206300045	2.15
C 	20.972335244105764	8.26401563459551	2.15
C 	21.630215613975967	9.522424717103833	2.15
C 	23.048970032716348	9.5818881453993	2.15
C 	23.70685040258655	10.840297227907623	2.15
C 	25.12560482132693	10.899760656203084	2.15
C 	25.783485191197133	12.15816973871141	2.15
C 	27.202239609937514	12.217633167006875	2.15
C 	27.860119979807717	13.476042249515197	2.15
C 	29.278874398548094	13.535505677810665	2.15
C 	29.936754768418297	14.793914760318989	2.15
C 	31.355509187158678	14.85337818861445	2.15
C 	32.01338955702888	16.111787271122775	2.15
C 	33.43214397576926	16.17125069941824	2.15
C 	34.09002434563946	17.429659781926564	2.15
C 	35.50877876437984	17.48912321022203	2.15
C 	36.16665913425005	18.74753229273036	2.15
C 	37.585413552990424	18.806995721025814	2.15
C 	38.24329392286063	20.06540480353414	2.15
C 	39.66204834160101	20.124868231829605	2.15
C 	40.319928711471206	21.383277314337924	2.15
C 	41.738683130211584	21.44274074263339	2.15
C 	42.39656350008179	22.70114982514171	2.15
C 	43.81531791882217	22.76061325343718	2.15
C 	44.47319828869237	24.019022335945508	2.15
C 	45.89195270743276	24.07848576424097	2.15
C 	46.54983307730296	25.336894846749292	2.15
C 	47.968587496043334	25.396358275044754	2.15
C 	48.62646786591353	26.654767357553077	2.15
C 	50.04522228465392	26.714230785848542	2.15
C 	50.70310265452412	27.972639868356868	2.15
C 	52.12185707326451	28.032103296652334	2.15
C 	52.77973744313471	29.290512379160653	2.15
C 	54.198491861875084	29.34997580745612	2.15
C 	54.85637223174528	30.608384889964437	2.15
C 	56.27512665048566	30.66784831825991	2.15
C 	56.933007020355866	31.926257400768236	2.15
C 	58.35176143909625	31.985720829063702	2.15
C 	59.00964180896645	33.244129911572024	2.15
C 	60.42839622770683	33.30359333986748	2.15
C 	61.086276597577026	34.562002422375805	2.15
C 	62.50503101631741	34.62146585067128	2.15
C 	63.162911386187616	35.8798749331796	2.15
C 	64.581665804928	35.939338361475066	2.15
C 	65.23954617479819	37.19774744398339	2.15
C 	66.65830059353857	37.257210872278854	2.15
C 	67.31618096340878	38.51561995478717	2.15
C 	68.73493538214916	38.57508338308263	2.15
C 	69.39281575201936	39.83349246559095	2.15
C 	70.81157017075974	39.89295589388642	2.15
C 	71.46945054062995	41.15136497639475	2.15
C 	72.88820495937033	41.210828404690204	2.15
C 	73.54608532924053	42.469237487198534	2.15
C 	74.9648397479809	42.52870091549399	2.15
C 	75.6227201178511	43.78710999800232	2.15
C 	77.0414745365915	43.84657342629779	2.15
C 	77.69935490646169	45.10498250880612	2.15
C 	79.11810932520207	45.164445937101576	2.15
C 	2.8375088374807573	0.11892685659092692	2.15
C 	4.256263256221136	0.17839028488639017	2.15
C 	4.91414362609134	1.4367993673947148	2.15
C 	6.332898044831718	1.4962627956901786	2.15
C 	6.990778414701921	2.7546718781985033	2.15
C 	8.4095328334423	2.8141353064939665	2.15
C 	9.067413203312505	4.072544389002291	2.15
C 	10.486167622052882	4.132007817297755	2.15
C 	11.144047991923086	5.390416899806078	2.15
C 	12.562802410663465	5.449880328101542	2.15
C 	13.22068278053367	6.708289410609868	2.15
C 	14.639437199274047	6.7677528389053325	2.15
C 	15.29731756914425	8.026161921413657	2.15
C 	16.71607198788463	8.08562534970912	2.15
C 	17.373952357754835	9.344034432217443	2.15
C 	18.792706776495212	9.403497860512907	2.15
C 	19.450587146365415	10.661906943021231	2.15
C 	20.869341565105792	10.721370371316695	2.15
C 	21.527221934975994	11.979779453825017	2.15
C 	22.94597635371638	12.039242882120485	2.15
C 	23.60385672358658	13.297651964628809	2.15
C 	25.02261114232696	13.357115392924271	2.15
C 	25.68049151219716	14.615524475432595	2.15
C 	27.099245930937542	14.67498790372806	2.15
C 	27.757126300807744	15.933396986236382	2.15
C 	29.175880719548125	15.992860414531851	2.15
C 	29.833761089418328	17.251269497040173	2.15
C 	31.252515508158705	17.31073292533564	2.15
C 	31.910395878028908	18.56914200784396	2.15
C 	33.329150296769285	18.628605436139427	2.15
C 	33.98703066663949	19.88701451864775	2.15
C 	35.40578508537987	19.94647794694321	2.15
C 	36.063665455250074	21.204887029451537	2.15
C 	37.48241987399045	21.264350457746996	2.15
C 	38.14030024386065	22.522759540255322	2.15
C 	39.559054662601035	22.582222968550788	2.15
C 	40.216935032471234	23.840632051059114	2.15
C 	41.63568945121161	23.900095479354572	2.15
C 	42.29356982108182	25.158504561862898	2.15
C 	43.712324239822195	25.217967990158364	2.15
C 	44.3702046096924	26.47637707266669	2.15
C 	45.78895902843278	26.535840500962152	2.15
C 	46.446839398302984	27.794249583470478	2.15
C 	47.86559381704336	27.853713011765937	2.15
C 	48.52347418691357	29.112122094274262	2.15
C 	49.942228605653945	29.171585522569725	2.15
C 	50.60010897552415	30.42999460507805	2.15
C 	52.01886339426453	30.489458033373516	2.15
C 	52.676743764134734	31.747867115881842	2.15
C 	54.09549818287511	31.807330544177297	2.15
C 	54.75337855274532	33.06573962668563	2.15
C 	56.172132971485695	33.12520305498109	2.15
C 	56.830013341355894	34.383612137489415	2.15
C 	58.24876776009628	34.44307556578488	2.15
C 	58.906648129966484	35.7014846482932	2.15
C 	60.325402548706855	35.76094807658867	2.15
C 	60.98328291857706	37.01935715909699	2.15
C 	62.402037337317445	37.07882058739246	2.15
C 	63.059917707187644	38.33722966990078	2.15
C 	64.47867212592801	38.39669309819625	2.15
C 	65.13655249579823	39.65510218070458	2.15
C 	66.5553069145386	39.71456560900003	2.15
C 	67.21318728440882	40.97297469150836	2.15
C 	68.6319417031492	41.03243811980382	2.15
C 	69.2898220730194	42.29084720231214	2.15
C 	70.70857649175977	42.350310630607616	2.15
C 	71.36645686162998	43.608719713115946	2.15
C 	72.78521128037036	43.6681831414114	2.15
C 	73.44309165024056	44.92659222391973	2.15
C 	74.86184606898094	44.986055652215185	2.15
C 	75.51972643885114	46.244464734723515	2.15
C 	76.93848085759153	46.30392816301898	2.15
C 	2.076634788610582	1.317872510803788	2.15
C 	2.734515158480786	2.576281593312113	2.15
C 	4.153269577221164	2.635745021607576	2.15
C 	4.811149947091368	3.894154104115901	2.15
C 	6.2299043658317474	3.9536175324113643	2.15
C 	6.887784735701951	5.212026614919689	2.15
C 	8.306539154442328	5.271490043215152	2.15
C 	8.964419524312532	6.529899125723477	2.15
C 	10.383173943052912	6.58936255401894	2.15
C 	11.041054312923114	7.8477716365272645	2.15
C 	12.459808731663495	7.9072350648227285	2.15
C 	13.117689101533697	9.165644147331053	2.15
C 	14.536443520274076	9.225107575626517	2.15
C 	15.194323890144279	10.48351665813484	2.15
C 	16.613078308884656	10.542980086430305	2.15
C 	17.270958678754862	11.801389168938632	2.15
C 	18.68971309749524	11.860852597234093	2.15
C 	19.347593467365442	13.119261679742415	2.15
C 	20.766347886105823	13.17872510803788	2.15
C 	21.424228255976026	14.437134190546207	2.15
C 	22.842982674716403	14.49659761884167	2.15
C 	23.50086304458661	15.755006701349997	2.15
C 	24.91961746332699	15.814470129645457	2.15
C 	25.577497833197192	17.07287921215378	2.15
C 	26.99625225193757	17.132342640449245	2.15
C 	27.654132621807776	18.39075172295757	2.15
C 	29.072887040548153	18.450215151253033	2.15
C 	29.730767410418355	19.708624233761363	2.15
C 	31.149521829158736	19.768087662056825	2.15
C 	31.80740219902894	21.026496744565147	2.15
C 	33.22615661776931	21.08596017286061	2.15
C 	33.88403698763952	22.344369255368935	2.15
C 	35.302791406379896	22.4038326836644	2.15
C 	35.9606717762501	23.662241766172727	2.15
C 	37.37942619499048	23.721705194468186	2.15
C 	38.037306564860685	24.98011427697651	2.15
C 	39.45606098360106	25.039577705271977	2.15
C 	40.11394135347127	26.297986787780303	2.15
C 	41.532695772211646	26.35745021607576	2.15
C 	42.190576142081845	27.615859298584088	2.15
C 	43.60933056082223	27.67532272687955	2.15
C 	44.26721093069243	28.933731809387876	2.15
C 	45.685965349432806	28.99319523768334	2.15
C 	46.34384571930301	30.251604320191667	2.15
C 	47.76260013804339	30.311067748487126	2.15
C 	48.420480507913595	31.569476830995452	2.15
C 	49.83923492665398	31.628940259290914	2.15
C 	50.497115296524186	32.88734934179924	2.15
C 	51.915869715264556	32.9468127700947	2.15
C 	52.57375008513476	34.20522185260303	2.15
C 	53.99250450387514	34.26468528089849	2.15
C 	54.650384873745345	35.52309436340681	2.15
C 	56.06913929248572	35.58255779170228	2.15
C 	56.72701966235593	36.84096687421061	2.15
C 	58.145774081096306	36.90043030250607	2.15
C 	58.80365445096651	38.158839385014396	2.15
C 	60.22240886970688	38.218302813309855	2.15
C 	60.88028923957709	39.476711895818184	2.15
C 	62.29904365831747	39.53617532411365	2.15
C 	62.95692402818767	40.794584406621965	2.15
C 	64.37567844692805	40.85404783491744	2.15
C 	65.03355881679825	42.11245691742576	2.15
C 	66.45231323553863	42.17192034572122	2.15
C 	67.11019360540884	43.43032942822955	2.15
C 	68.52894802414922	43.489792856525	2.15
C 	69.18682839401943	44.74820193903333	2.15
C 	70.60558281275979	44.8076653673288	2.15
C 	71.26346318263	46.06607444983713	2.15
C 	72.68221760137038	46.12553787813258	2.15
C 	1.9736411096106108	3.775227247524974	2.15
C 	2.6315214794808144	5.033636330033299	2.15
C 	4.050275898221193	5.093099758328762	2.15
C 	4.708156268091397	6.351508840837087	2.15
C 	6.126910686831776	6.41097226913255	2.15
C 	6.784791056701979	7.669381351640875	2.15
C 	8.203545475442358	7.728844779936337	2.15
C 	8.861425845312562	8.987253862444664	2.15
C 	10.28018026405294	9.046717290740125	2.15
C 	10.938060633923143	10.305126373248452	2.15
C 	12.356815052663523	10.364589801543914	2.15
C 	13.014695422533727	11.622998884052238	2.15
C 	14.433449841274106	11.682462312347702	2.15
C 	15.09133021114431	12.940871394856028	2.15
C 	16.510084629884688	13.00033482315149	2.15
C 	17.16796499975489	14.258743905659816	2.15
C 	18.586719418495267	14.318207333955279	2.15
C 	19.244599788365473	15.576616416463605	2.15
C 	20.66335420710585	15.636079844759065	2.15
C 	21.321234576976053	16.894488927267393	2.15
C 	22.739988995716434	16.953952355562855	2.15
C 	23.397869365586637	18.21236143807118	2.15
C 	24.816623784327017	18.271824866366643	2.15
C 	25.47450415419722	19.53023394887497	2.15
C 	26.893258572937597	19.58969737717043	2.15
C 	27.551138942807803	20.848106459678757	2.15
C 	28.96989336154818	20.90756988797422	2.15
C 	29.627773731418383	22.165978970482545	2.15
C 	31.046528150158764	22.225442398778007	2.15
C 	31.704408520028966	23.483851481286333	2.15
C 	33.12316293876935	23.5433149095818	2.15
C 	33.781043308639546	24.801723992090118	2.15
C 	35.19979772737993	24.86118742038559	2.15
C 	35.85767809725013	26.11959650289391	2.15
C 	37.27643251599051	26.179059931189375	2.15
C 	37.93431288586071	27.437469013697694	2.15
C 	39.3530673046011	27.496932441993163	2.15
C 	40.010947674471296	28.755341524501485	2.15
C 	41.429702093211674	28.814804952796948	2.15
C 	42.08758246308187	30.07321403530527	2.15
C 	43.50633688182226	30.13267746360074	2.15
C 	44.164217251692456	31.391086546109058	2.15
C 	45.58297167043284	31.45054997440453	2.15
C 	46.24085204030304	32.708959056912846	2.15
C 	47.65960645904342	32.76842248520831	2.15
C 	48.31748682891362	34.026831567716634	2.15
C 	49.73624124765401	34.0862949960121	2.15
C 	50.394121617524206	35.34470407852042	2.15
C 	51.81287603626459	35.404167506815895	2.15
C 	52.47075640613479	36.66257658932421	2.15
C 	53.88951082487517	36.722040017619676	2.15
C 	54.54739119474537	37.980449100128	2.15
C 	55.96614561348575	38.03991252842347	2.15
C 	56.62402598335595	39.29832161093179	2.15
C 	58.042780402096334	39.35778503922726	2.15
C 	58.70066077196653	40.61619412173558	2.15
C 	60.11941519070691	40.67565755003105	2.15
C 	60.77729556057711	41.93406663253936	2.15
C 	62.19604997931749	41.993530060834836	2.15
C 	62.8539303491877	43.25193914334316	2.15
C 	64.27268476792807	43.311402571638624	2.15
C 	64.93056513779828	44.569811654146946	2.15
C 	66.34931955653866	44.629275082442405	2.15
C 	67.00719992640886	45.88768416495073	2.15
C 	68.42595434514924	45.947147593246186	2.15
C 	6.023917007831804	8.868327005853736	2.15
C 	6.681797377702008	10.126736088362062	2.15
C 	8.100551796442385	10.186199516657524	2.15
C 	8.75843216631259	11.44460859916585	2.15
C 	10.177186585052969	11.504072027461312	2.15
C 	10.835066954923171	12.762481109969636	2.15
C 	12.253821373663552	12.8219445382651	2.15
C 	12.911701743533756	14.080353620773426	2.15
C 	14.330456162274135	14.13981704906889	2.15
C 	14.988336532144338	15.398226131577214	2.15
C 	16.407090950884715	15.457689559872675	2.15
C 	17.06497132075492	16.716098642381002	2.15
C 	18.4837257394953	16.775562070676465	2.15
C 	19.1416061093655	18.03397115318479	2.15
C 	20.56036052810588	18.09343458148025	2.15
C 	21.21824089797608	19.351843663988575	2.15
C 	22.63699531671646	19.41130709228404	2.15
C 	23.294875686586668	20.669716174792367	2.15
C 	24.713630105327045	20.72917960308783	2.15
C 	25.37151047519725	21.987588685596155	2.15
C 	26.790264893937625	22.047052113891613	2.15
C 	27.44814526380783	23.305461196399943	2.15
C 	28.866899682548212	23.364924624695405	2.15
C 	29.524780052418414	24.62333370720373	2.15
C 	30.94353447115879	24.682797135499197	2.15
C 	31.601414841028994	25.941206218007515	2.15
C 	33.020169259769375	26.00066964630298	2.15
C 	33.678049629639574	27.259078728811307	2.15
C 	35.09680404837996	27.318542157106773	2.15
C 	35.754684418250164	28.5769512396151	2.15
C 	37.173438836990535	28.636414667910557	2.15
C 	37.83131920686074	29.894823750418883	2.15
C 	39.25007362560112	29.954287178714345	2.15
C 	39.907953995471324	31.21269626122267	2.15
C 	41.3267084142117	31.27215968951813	2.15
C 	41.98458878408191	32.530568772026456	2.15
C 	43.403343202822285	32.59003220032192	2.15
C 	44.061223572692484	33.848441282830244	2.15
C 	45.47997799143287	33.90790471112571	2.15
C 	46.137858361303074	35.16631379363404	2.15
C 	47.556612780043444	35.2257772219295	2.15
C 	48.21449314991365	36.48418630443782	2.15
C 	49.633247568654035	36.543649732733286	2.15
C 	50.291127938524234	37.80205881524161	2.15
C 	51.70988235726462	37.861522243537074	2.15
C 	52.367762727134824	39.1199313260454	2.15
C 	53.786517145875195	39.17939475434086	2.15
C 	54.4443975157454	40.437803836849184	2.15
C 	55.86315193448578	40.49726726514465	2.15
C 	56.52103230435598	41.75567634765298	2.15
C 	57.93978672309636	41.81513977594844	2.15
C 	58.59766709296657	43.07354885845676	2.15
C 	60.016421511706945	43.13301228675223	2.15
C 	60.67430188157714	44.39142136926055	2.15
C 	62.09305630031753	44.450884797556014	2.15
C 	62.75093667018773	45.709293880064344	2.15
C 	64.1696910889281	45.76875730835982	2.15
C 	7.9975581174424155	12.643554253378712	2.15
C 	8.655438487312617	13.901963335887034	2.15
C 	10.074192906052996	13.961426764182498	2.15
C 	10.7320732759232	15.219835846690822	2.15
C 	12.15082769466358	15.279299274986286	2.15
C 	12.808708064533784	16.537708357494612	2.15
C 	14.227462483274163	16.597171785790078	2.15
C 	14.885342853144365	17.8555808682984	2.15
C 	16.304097271884743	17.915044296593862	2.15
C 	16.961977641754945	19.173453379102188	2.15
C 	18.380732060495326	19.23291680739765	2.15
C 	19.03861243036553	20.491325889905973	2.15
C 	20.457366849105906	20.55078931820144	2.15
C 	21.11524721897611	21.80919840070976	2.15
C 	22.53400163771649	21.86866182900523	2.15
C 	23.191882007586695	23.127070911513552	2.15
C 	24.610636426327076	23.186534339809015	2.15
C 	25.26851679619728	24.44494342231734	2.15
C 	26.687271214937656	24.504406850612803	2.15
C 	27.345151584807862	25.76281593312113	2.15
C 	28.76390600354824	25.822279361416594	2.15
C 	29.421786373418445	27.08068844392492	2.15
C 	30.84054079215882	27.14015187222038	2.15
C 	31.498421162029025	28.398560954728705	2.15
C 	32.9171755807694	28.458024383024167	2.15
C 	33.57505595063961	29.716433465532493	2.15
C 	34.993810369379986	29.77589689382796	2.15
C 	35.65169073925019	31.034305976336285	2.15
C 	37.07044515799057	31.093769404631743	2.15
C 	37.72832552786077	32.35217848714007	2.15
C 	39.147079946601146	32.41164191543553	2.15
C 	39.80496031647135	33.67005099794386	2.15
C 	41.22371473521173	33.72951442623932	2.15
C 	41.881595105081935	34.98792350874764	2.15
C 	43.30034952382231	35.04738693704311	2.15
C 	43.95822989369252	36.30579601955144	2.15
C 	45.376984312432896	36.3652594478469	2.15
C 	46.0348646823031	37.623668530355225	2.15
C 	47.45361910104348	37.683131958650684	2.15
C 	48.11149947091368	38.94154104115901	2.15
C 	49.53025388965406	39.00100446945447	2.15
C 	50.18813425952427	40.2594135519628	2.15
C 	51.606888678264646	40.31887698025826	2.15
C 	52.26476904813485	41.57728606276659	2.15
C 	53.68352346687523	41.63674949106205	2.15
C 	54.34140383674543	42.89515857357037	2.15
C 	55.760158255485806	42.95462200186584	2.15
C 	56.41803862535601	44.21303108437416	2.15
C 	57.83679304409639	44.27249451266963	2.15
C 	58.494673413966595	45.53090359517795	2.15
C 	59.91342783270697	45.59036702347341	2.15
C 	60.57130820257717	46.84877610598174	2.15
C 	61.99006262131755	46.9082395342772	2.15
C 	9.971199227053026	16.418781500903684	2.15
C 	10.629079596923228	17.677190583412006	2.15
C 	12.047834015663607	17.736654011707472	2.15
C 	12.705714385533811	18.995063094215798	2.15
C 	14.12446880427419	19.05452652251126	2.15
C 	14.782349174144395	20.312935605019586	2.15
C 	16.20110359288477	20.372399033315048	2.15
C 	16.858983962754976	21.63080811582337	2.15
C 	18.277738381495354	21.690271544118836	2.15
C 	18.93561875136556	22.948680626627162	2.15
C 	20.354373170105937	23.008144054922624	2.15
C 	21.01225353997614	24.266553137430947	2.15
C 	22.431007958716517	24.326016565726416	2.15
C 	23.08888832858672	25.58442564823474	2.15
C 	24.507642747327104	25.6438890765302	2.15
C 	25.165523117197306	26.902298159038526	2.15
C 	26.584277535937684	26.961761587333985	2.15
C 	27.24215790580789	28.22017066984231	2.15
C 	28.66091232454827	28.27963409813778	2.15
C 	29.31879269441847	29.538043180646103	2.15
C 	30.73754711315885	29.597506608941565	2.15
C 	31.395427483029053	30.85591569144989	2.15
C 	32.81418190176943	30.91537911974535	2.15
C 	33.472062271639636	32.173788202253675	2.15
C 	34.890816690380014	32.23325163054915	2.15
C 	35.54869706025022	33.49166071305747	2.15
C 	36.9674514789906	33.55112414135293	2.15
C 	37.625331848860796	34.80953322386125	2.15
C 	39.04408626760118	34.86899665215672	2.15
C 	39.70196663747138	36.12740573466504	2.15
C 	41.12072105621176	36.1868691629605	2.15
C 	41.77860142608196	37.44527824546883	2.15
C 	43.19735584482234	37.5047416737643	2.15
C 	43.855236214692546	38.763150756272616	2.15
C 	45.27399063343292	38.82261418456808	2.15
C 	45.93187100330313	40.08102326707641	2.15
C 	47.3506254220435	40.14048669537186	2.15
C 	48.008505791913706	41.39889577788019	2.15
C 	49.42726021065409	41.45835920617566	2.15
C 	50.085140580524296	42.71676828868398	2.15
C 	51.50389499926467	42.776231716979446	2.15
C 	52.16177536913488	44.03464079948777	2.15
C 	53.58052978787525	44.09410422778323	2.15
C 	54.238410157745456	45.352513310291556	2.15
C 	55.65716457648583	45.41197673858703	2.15
C 	56.31504494635604	46.67038582109535	2.15
C 	57.733799365096424	46.72984924939081	2.15
C 	11.944840336663638	20.194008748428658	2.15
C 	12.602720706533841	21.452417830936984	2.15
C 	14.021475125274218	21.511881259232446	2.15
C 	14.679355495144423	22.77029034174077	2.15
C 	16.0981099138848	22.829753770036234	2.15
C 	16.755990283755004	24.08816285254456	2.15
C 	18.17474470249538	24.147626280840022	2.15
C 	18.832625072365584	25.406035363348344	2.15
C 	20.251379491105965	25.46549879164381	2.15
C 	20.909259860976167	26.723907874152136	2.15
C 	22.328014279716548	26.7833713024476	2.15
C 	22.98589464958675	28.041780384955924	2.15
C 	24.40464906832713	28.101243813251383	2.15
C 	25.062529438197334	29.35965289575971	2.15
C 	26.48128385693771	29.419116324055175	2.15
C 	27.139164226807917	30.6775254065635	2.15
C 	28.5579186455483	30.736988834858963	2.15
C 	29.2157990154185	31.99539791736729	2.15
C 	30.634553434158878	32.05486134566275	2.15
C 	31.29243380402908	33.31327042817107	2.15
C 	32.71118822276946	33.37273385646654	2.15
C 	33.369068592639664	34.63114293897487	2.15
C 	34.78782301138004	34.69060636727033	2.15
C 	35.44570338125025	35.949015449778656	2.15
C 	36.864457799990625	36.008478878074115	2.15
C 	37.52233816986083	37.26688796058244	2.15
C 	38.94109258860121	37.3263513888779	2.15
C 	39.598972958471414	38.58476047138623	2.15
C 	41.017727377211784	38.64422389968169	2.15
C 	41.67560774708199	39.90263298219001	2.15
C 	43.09436216582237	39.96209641048548	2.15
C 	43.752242535692574	41.22050549299381	2.15
C 	45.17099695443295	41.27996892128927	2.15
C 	45.82887732430316	42.5383780037976	2.15
C 	47.247631743043534	42.597841432093055	2.15
C 	47.90551211291374	43.85625051460138	2.15
C 	49.32426653165412	43.91571394289684	2.15
C 	49.982146901524324	45.174123025405166	2.15
C 	51.4009013202647	45.23358645370063	2.15
C 	52.05878169013491	46.491995536208954	2.15
C 	53.477536108875285	46.55145896450443	2.15
C 	13.918481446274248	23.969235995953632	2.15
C 	14.576361816144452	25.227645078461958	2.15
C 	15.995116234884831	25.287108506757423	2.15
C 	16.65299660475503	26.545517589265746	2.15
C 	18.07175102349541	26.604981017561208	2.15
C 	18.729631393365615	27.863390100069534	2.15
C 	20.148385812105992	27.922853528364996	2.15
C 	20.8062661819762	29.181262610873326	2.15
C 	22.225020600716576	29.240726039168788	2.15
C 	22.88290097058678	30.499135121677106	2.15
C 	24.30165538932716	30.558598549972572	2.15
C 	24.95953575919736	31.817007632480898	2.15
C 	26.378290177937743	31.87647106077636	2.15
C 	27.036170547807945	33.13488014328469	2.15
C 	28.454924966548326	33.194343571580156	2.15
C 	29.112805336418525	34.45275265408847	2.15
C 	30.531559755158906	34.51221608238394	2.15
C 	31.18944012502911	35.770625164892266	2.15
C 	32.608194543769486	35.830088593187725	2.15
C 	33.26607491363969	37.088497675696054	2.15
C 	34.68482933238007	37.14796110399152	2.15
C 	35.342709702250275	38.406370186499835	2.15
C 	36.76146412099065	38.4658336147953	2.15
C 	37.41934449086085	39.72424269730362	2.15
C 	38.838098909601236	39.783706125599096	2.15
C 	39.49597927947144	41.04211520810742	2.15
C 	40.91473369821181	41.10157863640288	2.15
C 	41.57261406808202	42.359987718911206	2.15
C 	42.9913684868224	42.419451147206665	2.15
C 	43.6492488566926	43.67786022971499	2.15
C 	45.06800327543298	43.73732365801046	2.15
C 	45.725883645303185	44.99573274051879	2.15
C 	47.14463806404356	45.05519616881424	2.15
C 	47.80251843391377	46.31360525132257	2.15
C 	49.22127285265415	46.37306867961803	2.15
C 	15.892122555884859	27.74446324347861	2.15
C 	16.550002925755063	29.00287232598693	2.15
C 	17.96875734449544	29.062335754282394	2.15
C 	18.626637714365646	30.320744836790723	2.15
C 	20.04539213310602	30.38020826508618	2.15
C 	20.703272502976226	31.638617347594504	2.15
C 	22.122026921716607	31.698080775889977	2.15
C 	22.77990729158681	32.9564898583983	2.15
C 	24.198661710327187	33.01595328669376	2.15
C 	24.856542080197393	34.27436236920209	2.15
C 	26.27529649893777	34.333825797497546	2.15
C 	26.933176868807973	35.59223488000587	2.15
C 	28.351931287548354	35.65169830830134	2.15
C 	29.009811657418556	36.910107390809664	2.15
C 	30.428566076158933	36.96957081910512	2.15
C 	31.08644644602914	38.22797990161345	2.15
C 	32.50520086476951	38.28744332990891	2.15
C 	33.16308123463972	39.54585241241723	2.15
C 	34.581835653380104	39.605315840712706	2.15
C 	35.2397160232503	40.86372492322103	2.15
C 	36.65847044199068	40.923188351516494	2.15
C 	37.31635081186088	42.18159743402481	2.15
C 	38.73510523060126	42.241060862320275	2.15
C 	39.39298560047147	43.499469944828604	2.15
C 	40.81174001921184	43.558933373124056	2.15
C 	41.469620389082046	44.817342455632385	2.15
C 	42.88837480782242	44.87680588392786	2.15
C 	43.54625517769263	46.13521496643618	2.15
C 	44.96500959643301	46.19467839473164	2.15
C 	17.865763665495468	31.519690491003576	2.15
C 	18.52364403536567	32.7780995735119	2.15
C 	19.94239845410605	32.83756300180737	2.15
C 	20.600278823976254	34.0959720843157	2.15
C 	22.019033242716635	34.155435512611156	2.15
C 	22.676913612586837	35.413844595119485	2.15
C 	24.095668031327214	35.473308023414944	2.15
C 	24.75354840119742	36.731717105923266	2.15
C 	26.172302819937798	36.79118053421873	2.15
C 	26.830183189808004	38.04958961672706	2.15
C 	28.24893760854838	38.10905304502252	2.15
C 	28.906817978418587	39.36746212753085	2.15
C 	30.32557239715896	39.42692555582631	2.15
C 	30.983452767029167	40.68533463833463	2.15
C 	32.40220718576954	40.744798066630096	2.15
C 	33.06008755563975	42.003207149138426	2.15
C 	34.47884197438013	42.06267057743389	2.15
C 	35.13672234425033	43.321079659942214	2.15
C 	36.55547676299071	43.38054308823767	2.15
C 	37.213357132860914	44.638952170746	2.15
C 	38.63211155160129	44.69841559904146	2.15
C 	39.2899919214715	45.95682468154979	2.15
C 	40.708746340211874	46.01628810984525	2.15
C 	21.91603956371666	36.61279024933234	2.15
C 	22.573919933586865	37.871199331840664	2.15
C 	23.992674352327246	37.93066276013613	2.15
C 	24.650554722197445	39.18907184264445	2.15
C 	26.06930914093783	39.24853527093992	2.15
C 	26.727189510808028	40.50694435344824	2.15
C 	28.14594392954841	40.566407781743706	2.15
C 	28.80382429941861	41.82481686425203	2.15
C 	30.222578718158992	41.884280292547494	2.15
C 	30.880459088029195	43.14268937505582	2.15
C 	32.299213506769576	43.20215280335129	2.15
C 	32.957093876639775	44.460561885859605	2.15
C 	34.37584829538015	44.52002531415507	2.15
C 	35.03372866525036	45.7784343966634	2.15
C 	36.452483083990735	45.83789782495885	2.15
C 	23.889680673327277	40.388017496857316	2.15
C 	24.54756104319748	41.646426579365645	2.15
C 	25.966315461937857	41.705890007661104	2.15
C 	26.62419583180806	42.964299090169426	2.15
C 	28.042950250548436	43.02376251846489	2.15
C 	28.700830620418643	44.28217160097322	2.15
C 	30.119585039159023	44.34163502926869	2.15
C 	30.777465409029226	45.60004411177701	2.15
C 	32.1962198277696	45.65950754007247	2.15
C 	25.863321782937884	44.16324474438229	2.15
C 	26.52120215280809	45.42165382689062	2.15
C 	27.939956571548468	45.48111725518608	2.15
C 	28.597836941418674	46.73952633769441	2.15
C 	30.016591360159047	46.798989765989866	2.15
H 	49.25440565663258	-1.3420966477419891	2.15
H 	51.762203960180706	-1.2369887568817055	2.15
H 	53.83883874879128	0.08088375392209024	2.15
H 	55.91547353740188	1.3987562647258724	2.15
H 	57.07834658555274	3.6231272485962243	2.15
H 	44.99814240041143	-1.5204869326283794	2.15
H 	47.505940703959574	-1.4153790417680845	2.15
H 	57.8891146470125	5.173983512250856	2.15
H 	59.05198769516334	7.398354496121192	2.15
H 	40.74187914419031	-1.6988772175147688	2.15
H 	43.24967744773843	-1.593769326654488	2.15
H 	59.8627557566231	8.949210759775825	2.15
H 	61.93939054523367	10.26708327057961	2.15
H 	63.10226359338453	12.491454254449966	2.15
H 	36.48561588796916	-1.8772675024011496	2.15
H 	38.993414191517296	-1.7721596115408764	2.15
H 	63.91303165484428	14.042310518104589	2.15
H 	65.07590470299515	16.266681501974944	2.15
H 	34.305987420358605	-0.7377852764837604	2.15
H 	65.88667276445491	17.817537765629574	2.15
H 	67.04954581260574	20.04190874949991	2.15
H 	30.049724164137476	-0.9161755613701524	2.15
H 	32.55752246768561	-0.8110676705098616	2.15
H 	67.86031387406551	21.592765013154537	2.15
H 	69.02318692221635	23.817135997024895	2.15
H 	25.793460907916327	-1.0945658462565382	2.15
H 	28.301259211464483	-0.9894579553962524	2.15
H 	69.83395498367614	25.367992260679515	2.15
H 	70.99682803182696	27.592363244549844	2.15
H 	21.537197651695198	-1.2729561311429325	2.15
H 	24.044995955243344	-1.1678482402826398	2.15
H 	71.80759609328675	29.143219508204496	2.15
H 	72.97046914143758	31.367590492074843	2.15
H 	17.280934395474073	-1.4513464160293252	2.15
H 	19.788732699022205	-1.3462385251690328	2.15
H 	73.78123720289733	32.918446755729455	2.15
H 	74.9441102510482	35.1428177395998	2.15
H 	13.024671139252936	-1.6297367009157155	2.15
H 	15.532469442801068	-1.5246288100554244	2.15
H 	75.75487831250796	36.693674003254436	2.15
H 	77.83151310111856	38.01154651405823	2.15
H 	78.99438614926939	40.23591749792859	2.15
H 	8.768407883031799	-1.8081269858021054	2.15
H 	11.27620618657993	-1.7030190949418145	2.15
H 	79.80515421072913	41.786773761583184	2.15
H 	80.96802725888	44.01114474545356	2.15
H 	6.588779415421246	-0.6686447598847076	2.15
H 	79.62310200348271	46.130407838463604	2.15
H 	2.3325161592001074	-0.8470350447710969	2.15
H 	4.840314462748243	-0.741927153910806	2.15
H 	74.93567523232402	47.164782173520706	2.15
H 	77.4434735358722	47.269890064380995	2.15
H 	0.9875909038028265	1.27222804823896	2.15
H 	70.67941197610291	46.98639188863434	2.15
H 	73.18721027965104	47.091499779494605	2.15
H 	0.8845972248028551	3.729582784960146	2.15
H 	2.047470272953708	5.9539537688304955	2.15
H 	4.124105061564291	7.271826279634284	2.15
H 	66.42314871988174	46.80800160374792	2.15
H 	68.93094702342988	46.913109494608214	2.15
H 	4.9348731230240475	8.822682543288908	2.15
H 	6.0977461711749035	11.04705352715926	2.15
H 	64.67468376720875	46.734719209721845	2.15
H 	6.908514232634659	12.597909790813885	2.15
H 	8.071387280785508	14.822280774684229	2.15
H 	59.98725699605007	47.76909354477894	2.15
H 	62.4950552995982	47.87420143563922	2.15
H 	8.88215534224527	16.37313703833886	2.15
H 	10.045028390396121	18.5975080222092	2.15
H 	55.73099373982893	47.59070325989255	2.15
H 	58.23879204337708	47.69581115075283	2.15
H 	10.855796451855882	20.148364285863828	2.15
H 	12.018669500006736	22.372735269734182	2.15
H 	51.4747304836078	47.41231297500615	2.15
H 	53.98252878715593	47.517420865866455	2.15
H 	12.829437561466492	23.92359153338881	2.15
H 	13.992310609617345	26.147962517259153	2.15
H 	47.21846722738667	47.23392269011977	2.15
H 	49.72626553093481	47.33903058098005	2.15
H 	14.803078671077103	27.698818780913786	2.15
H 	15.965951719227958	29.92318976478413	2.15
H 	42.96220397116552	47.05553240523338	2.15
H 	45.47000227471367	47.16064029609366	2.15
H 	16.776719780687714	31.474046028438742	2.15
H 	17.939592828838563	33.6984170123091	2.15
H 	20.016227617449147	35.016289523112896	2.15
H 	38.705940714944404	46.877142120346996	2.15
H 	41.21373901849253	46.98225001120727	2.15
H 	20.826995678908904	36.567145786767504	2.15
H 	21.989868727059758	38.79151677063786	2.15
H 	34.44967745872326	46.6987518354606	2.15
H 	36.95747576227139	46.80385972632087	2.15
H 	22.800636788519522	40.34237303429249	2.15
H 	23.963509836670376	42.566744018162844	2.15
H 	32.701212506050254	46.62546944143449	2.15
H 	24.77427789813013	44.11760028181745	2.15
H 	25.93715094628099	46.34197126568782	2.15
H 	28.01378573489157	47.659843776491606	2.15
H 	30.521584038439695	47.764951667351895	2.15
