2304

C 	0.0	0.0	0.0
C 	1.2297560733739028	0.7099999999999999	0.0
C 	2.4595121467478056	-2.3647750424515833e-16	0.0
C 	3.689268220121708	0.7099999999999995	0.0
C 	4.919024293495611	-4.729550084903167e-16	0.0
C 	6.148780366869514	0.7099999999999993	0.0
C 	7.378536440243416	-7.09432512735475e-16	0.0
C 	8.60829251361732	0.7099999999999991	0.0
C 	9.838048586991222	-9.459100169806333e-16	0.0
C 	11.067804660365125	0.7099999999999989	0.0
C 	12.297560733739026	-1.1823875212257916e-15	0.0
C 	13.527316807112928	0.7099999999999986	0.0
C 	14.757072880486833	-1.41886502547095e-15	0.0
C 	15.986828953860735	0.7099999999999984	0.0
C 	17.21658502723464	-7.671641100159832e-16	0.0
C 	18.44634110060854	0.7099999999999982	0.0
C 	19.676097173982445	-1.8918200339612667e-15	0.0
C 	20.905853247356347	0.7099999999999989	0.0
C 	22.135609320730246	-2.128297538206425e-15	0.0
C 	23.36536539410415	0.7099999999999967	0.0
C 	24.59512146747805	-2.364775042451583e-15	0.0
C 	25.824877540851954	0.7099999999999983	0.0
C 	27.05463361422586	-8.248957072964913e-16	0.0
C 	28.284389687599763	0.7099999999999999	0.0
C 	29.514145760973665	-2.8377300509419e-15	0.0
C 	30.743901834347565	0.7099999999999961	0.0
C 	31.97365790772147	-3.0742075551870582e-15	0.0
C 	33.20341398109537	0.7099999999999976	0.0
C 	34.43317005446928	-1.5343282200319664e-15	0.0
C 	35.66292612784318	0.7099999999999992	0.0
C 	36.892682201217085	-1.7708057242771246e-15	0.0
C 	38.122438274590984	0.7099999999999972	0.0
C 	39.35219434796489	-3.783640067922533e-15	0.0
C 	40.58195042133879	0.7099999999999969	0.0
C 	41.811706494712695	-4.67403893367191e-16	0.0
C 	43.0414625680866	0.7100000000000002	0.0
C 	44.27121864146049	-4.25659507641285e-15	0.0
C 	45.5009747148344	0.7099999999999964	0.0
C 	46.730730788208305	-9.403589018575075e-16	0.0
C 	47.96048686158221	0.7099999999999997	0.0
C 	49.1902429349561	-4.729550084903166e-15	0.0
C 	50.41999900833001	0.709999999999996	0.0
C 	51.64975508170391	-1.413313910347824e-15	0.0
C 	52.879511155077815	0.7099999999999993	0.0
C 	54.10926722845172	-1.6497914145929826e-15	0.0
C 	55.33902330182562	0.7099999999999991	0.0
C 	56.56877937519952	-5.438982597638641e-15	0.0
C 	57.798535448573425	0.7099999999999953	0.0
C 	59.02829152194733	-5.6754601018838e-15	0.0
C 	60.25804759532124	0.709999999999995	0.0
C 	1.2297560733739028	2.1299999999999994	0.0
C 	2.4595121467478056	2.8399999999999994	0.0
C 	3.689268220121708	2.1299999999999994	0.0
C 	4.919024293495611	2.8399999999999994	0.0
C 	6.148780366869514	2.129999999999999	0.0
C 	7.378536440243416	2.839999999999999	0.0
C 	8.60829251361732	2.1299999999999986	0.0
C 	9.838048586991222	2.8399999999999985	0.0
C 	11.067804660365123	2.129999999999998	0.0
C 	12.297560733739028	2.839999999999999	0.0
C 	13.527316807112928	2.1299999999999977	0.0
C 	14.757072880486833	2.839999999999998	0.0
C 	15.986828953860735	2.129999999999998	0.0
C 	17.216585027234636	2.839999999999997	0.0
C 	18.446341100608542	2.129999999999998	0.0
C 	19.676097173982445	2.8399999999999985	0.0
C 	20.905853247356344	2.1299999999999977	0.0
C 	22.13560932073025	2.8399999999999985	0.0
C 	23.36536539410415	2.129999999999997	0.0
C 	24.595121467478055	2.839999999999997	0.0
C 	25.824877540851954	2.1299999999999963	0.0
C 	27.05463361422586	2.839999999999997	0.0
C 	28.284389687599763	2.129999999999998	0.0
C 	29.514145760973665	2.8399999999999985	0.0
C 	30.743901834347568	2.129999999999996	0.0
C 	31.97365790772147	2.8399999999999967	0.0
C 	33.20341398109537	2.129999999999996	0.0
C 	34.43317005446928	2.8399999999999963	0.0
C 	35.66292612784318	2.1299999999999972	0.0
C 	36.89268220121708	2.8399999999999963	0.0
C 	38.122438274590984	2.129999999999997	0.0
C 	39.35219434796489	2.8399999999999976	0.0
C 	40.58195042133879	2.1299999999999986	0.0
C 	41.81170649471269	2.839999999999996	0.0
C 	43.0414625680866	2.129999999999998	0.0
C 	44.2712186414605	2.8399999999999954	0.0
C 	45.5009747148344	2.129999999999998	0.0
C 	46.7307307882083	2.8399999999999954	0.0
C 	47.96048686158221	2.1299999999999977	0.0
C 	49.19024293495611	2.839999999999995	0.0
C 	50.41999900833001	2.1299999999999977	0.0
C 	51.64975508170391	2.8399999999999945	0.0
C 	52.879511155077815	2.1299999999999972	0.0
C 	54.10926722845171	2.8399999999999945	0.0
C 	55.33902330182563	2.130000000000001	0.0
C 	56.56877937519952	2.8399999999999976	0.0
C 	57.798535448573425	2.129999999999997	0.0
C 	59.028291521947324	2.839999999999994	0.0
C 	60.25804759532124	2.129999999999997	0.0
C 	61.487803668695136	2.8399999999999936	0.0
C 	2.4595121467478056	4.259999999999999	0.0
C 	3.689268220121708	4.969999999999999	0.0
C 	4.919024293495611	4.259999999999999	0.0
C 	6.148780366869514	4.969999999999999	0.0
C 	7.378536440243416	4.259999999999999	0.0
C 	8.60829251361732	4.969999999999999	0.0
C 	9.83804858699122	4.259999999999998	0.0
C 	11.067804660365125	4.969999999999999	0.0
C 	12.297560733739028	4.259999999999998	0.0
C 	13.52731680711293	4.969999999999998	0.0
C 	14.757072880486831	4.259999999999998	0.0
C 	15.986828953860735	4.969999999999998	0.0
C 	17.21658502723464	4.259999999999997	0.0
C 	18.446341100608542	4.969999999999998	0.0
C 	19.676097173982445	4.259999999999999	0.0
C 	20.905853247356347	4.969999999999997	0.0
C 	22.135609320730246	4.259999999999996	0.0
C 	23.365365394104153	4.969999999999997	0.0
C 	24.595121467478055	4.259999999999998	0.0
C 	25.824877540851958	4.969999999999997	0.0
C 	27.054633614225857	4.259999999999995	0.0
C 	28.28438968759976	4.969999999999996	0.0
C 	29.514145760973665	4.259999999999997	0.0
C 	30.743901834347568	4.969999999999997	0.0
C 	31.97365790772147	4.259999999999996	0.0
C 	33.20341398109537	4.969999999999995	0.0
C 	34.43317005446927	4.2599999999999945	0.0
C 	35.66292612784318	4.969999999999995	0.0
C 	36.892682201217085	4.259999999999996	0.0
C 	38.122438274590984	4.969999999999997	0.0
C 	39.35219434796489	4.259999999999997	0.0
C 	40.58195042133879	4.969999999999994	0.0
C 	41.81170649471269	4.259999999999995	0.0
C 	43.041462568086594	4.969999999999996	0.0
C 	44.2712186414605	4.259999999999997	0.0
C 	45.500974714834406	4.969999999999998	0.0
C 	46.7307307882083	4.259999999999994	0.0
C 	47.960486861582204	4.9699999999999935	0.0
C 	49.19024293495611	4.259999999999996	0.0
C 	50.41999900833001	4.969999999999997	0.0
C 	51.64975508170391	4.259999999999993	0.0
C 	52.879511155077815	4.9699999999999935	0.0
C 	54.10926722845171	4.259999999999996	0.0
C 	55.33902330182562	4.969999999999997	0.0
C 	56.568779375199526	4.259999999999996	0.0
C 	57.798535448573425	4.969999999999996	0.0
C 	59.028291521947324	4.259999999999995	0.0
C 	60.25804759532123	4.969999999999996	0.0
C 	61.487803668695136	4.259999999999992	0.0
C 	62.717559742069035	4.969999999999993	0.0
C 	3.6892682201217086	6.389999999999999	0.0
C 	4.919024293495611	7.099999999999999	0.0
C 	6.148780366869514	6.389999999999999	0.0
C 	7.378536440243416	7.099999999999999	0.0
C 	8.608292513617318	6.389999999999998	0.0
C 	9.838048586991222	7.099999999999999	0.0
C 	11.067804660365125	6.389999999999998	0.0
C 	12.297560733739028	7.099999999999998	0.0
C 	13.52731680711293	6.389999999999999	0.0
C 	14.757072880486833	7.099999999999998	0.0
C 	15.986828953860735	6.389999999999998	0.0
C 	17.216585027234636	7.099999999999997	0.0
C 	18.44634110060854	6.389999999999997	0.0
C 	19.676097173982445	7.099999999999998	0.0
C 	20.905853247356347	6.389999999999998	0.0
C 	22.13560932073025	7.099999999999997	0.0
C 	23.365365394104153	6.389999999999998	0.0
C 	24.59512146747805	7.099999999999997	0.0
C 	25.824877540851958	6.389999999999998	0.0
C 	27.054633614225857	7.099999999999997	0.0
C 	28.28438968759976	6.389999999999999	0.0
C 	29.514145760973662	7.099999999999997	0.0
C 	30.743901834347568	6.389999999999999	0.0
C 	31.97365790772147	7.099999999999998	0.0
C 	33.20341398109537	6.389999999999995	0.0
C 	34.43317005446928	7.099999999999994	0.0
C 	35.66292612784318	6.389999999999995	0.0
C 	36.892682201217085	7.099999999999996	0.0
C 	38.122438274590984	6.389999999999996	0.0
C 	39.35219434796489	7.099999999999997	0.0
C 	40.58195042133879	6.389999999999994	0.0
C 	41.811706494712695	7.099999999999995	0.0
C 	43.041462568086594	6.389999999999996	0.0
C 	44.2712186414605	7.099999999999997	0.0
C 	45.500974714834406	6.389999999999998	0.0
C 	46.730730788208305	7.099999999999998	0.0
C 	47.960486861582204	6.389999999999995	0.0
C 	49.19024293495611	7.099999999999996	0.0
C 	50.41999900833001	6.389999999999995	0.0
C 	51.649755081703915	7.099999999999996	0.0
C 	52.879511155077815	6.389999999999995	0.0
C 	54.10926722845172	7.099999999999996	0.0
C 	55.33902330182562	6.389999999999995	0.0
C 	56.568779375199526	7.099999999999995	0.0
C 	57.79853544857343	6.389999999999998	0.0
C 	59.02829152194733	7.099999999999999	0.0
C 	60.25804759532123	6.389999999999994	0.0
C 	61.487803668695136	7.099999999999995	0.0
C 	62.71755974206904	6.389999999999994	0.0
C 	63.94731581544294	7.099999999999995	0.0
C 	4.919024293495611	8.519999999999998	0.0
C 	6.148780366869514	9.229999999999999	0.0
C 	7.378536440243416	8.519999999999998	0.0
C 	8.60829251361732	9.229999999999999	0.0
C 	9.838048586991222	8.519999999999998	0.0
C 	11.067804660365125	9.229999999999999	0.0
C 	12.297560733739028	8.519999999999998	0.0
C 	13.52731680711293	9.229999999999997	0.0
C 	14.757072880486833	8.519999999999998	0.0
C 	15.986828953860737	9.229999999999999	0.0
C 	17.216585027234636	8.519999999999998	0.0
C 	18.44634110060854	9.229999999999997	0.0
C 	19.67609717398244	8.519999999999996	0.0
C 	20.905853247356347	9.229999999999997	0.0
C 	22.13560932073025	8.519999999999998	0.0
C 	23.365365394104153	9.229999999999999	0.0
C 	24.595121467478055	8.519999999999996	0.0
C 	25.824877540851954	9.229999999999995	0.0
C 	27.05463361422586	8.519999999999996	0.0
C 	28.284389687599763	9.229999999999997	0.0
C 	29.514145760973662	8.519999999999996	0.0
C 	30.743901834347565	9.229999999999995	0.0
C 	31.97365790772147	8.52	0.0
C 	33.20341398109537	9.229999999999997	0.0
C 	34.43317005446928	8.519999999999994	0.0
C 	35.66292612784318	9.229999999999995	0.0
C 	36.89268220121708	8.519999999999992	0.0
C 	38.122438274590984	9.229999999999993	0.0
C 	39.35219434796489	8.519999999999998	0.0
C 	40.58195042133879	9.229999999999995	0.0
C 	41.811706494712695	8.519999999999994	0.0
C 	43.0414625680866	9.229999999999995	0.0
C 	44.27121864146049	8.519999999999992	0.0
C 	45.5009747148344	9.229999999999993	0.0
C 	46.730730788208305	8.519999999999998	0.0
C 	47.960486861582204	9.229999999999995	0.0
C 	49.19024293495611	8.519999999999996	0.0
C 	50.41999900833001	9.229999999999993	0.0
C 	51.64975508170391	8.519999999999994	0.0
C 	52.879511155077815	9.229999999999995	0.0
C 	54.10926722845171	8.51999999999999	0.0
C 	55.33902330182562	9.229999999999992	0.0
C 	56.568779375199526	8.519999999999998	0.0
C 	57.798535448573425	9.229999999999995	0.0
C 	59.02829152194733	8.519999999999994	0.0
C 	60.25804759532123	9.229999999999993	0.0
C 	61.48780366869513	8.519999999999992	0.0
C 	62.717559742069035	9.229999999999993	0.0
C 	63.94731581544294	8.519999999999992	0.0
C 	65.17707188881684	9.22999999999999	0.0
C 	6.148780366869514	10.649999999999997	0.0
C 	7.378536440243416	11.359999999999998	0.0
C 	8.608292513617318	10.649999999999997	0.0
C 	9.838048586991222	11.359999999999998	0.0
C 	11.067804660365125	10.649999999999997	0.0
C 	12.297560733739028	11.359999999999996	0.0
C 	13.52731680711293	10.649999999999997	0.0
C 	14.757072880486831	11.359999999999996	0.0
C 	15.986828953860735	10.649999999999997	0.0
C 	17.216585027234636	11.359999999999996	0.0
C 	18.44634110060854	10.649999999999997	0.0
C 	19.676097173982445	11.359999999999998	0.0
C 	20.905853247356347	10.649999999999997	0.0
C 	22.13560932073025	11.359999999999996	0.0
C 	23.365365394104153	10.649999999999997	0.0
C 	24.595121467478055	11.359999999999996	0.0
C 	25.824877540851958	10.649999999999997	0.0
C 	27.05463361422586	11.359999999999996	0.0
C 	28.284389687599763	10.649999999999995	0.0
C 	29.514145760973662	11.359999999999994	0.0
C 	30.743901834347565	10.649999999999995	0.0
C 	31.97365790772147	11.359999999999996	0.0
C 	33.20341398109537	10.649999999999997	0.0
C 	34.43317005446928	11.359999999999998	0.0
C 	35.66292612784318	10.649999999999991	0.0
C 	36.89268220121708	11.359999999999992	0.0
C 	38.122438274590984	10.649999999999993	0.0
C 	39.35219434796489	11.359999999999994	0.0
C 	40.58195042133879	10.649999999999993	0.0
C 	41.811706494712695	11.359999999999994	0.0
C 	43.041462568086594	10.649999999999991	0.0
C 	44.2712186414605	11.359999999999992	0.0
C 	45.5009747148344	10.649999999999993	0.0
C 	46.730730788208305	11.359999999999994	0.0
C 	47.960486861582204	10.649999999999995	0.0
C 	49.19024293495611	11.359999999999996	0.0
C 	50.41999900833001	10.649999999999993	0.0
C 	51.649755081703915	11.359999999999994	0.0
C 	52.879511155077815	10.649999999999995	0.0
C 	54.10926722845172	11.359999999999996	0.0
C 	55.33902330182562	10.649999999999993	0.0
C 	56.568779375199526	11.359999999999994	0.0
C 	57.798535448573425	10.649999999999993	0.0
C 	59.02829152194733	11.359999999999992	0.0
C 	60.25804759532124	10.649999999999995	0.0
C 	61.487803668695136	11.359999999999996	0.0
C 	62.717559742069035	10.649999999999991	0.0
C 	63.94731581544294	11.359999999999992	0.0
C 	65.17707188881684	10.649999999999991	0.0
C 	66.40682796219075	11.359999999999992	0.0
C 	7.378536440243417	12.779999999999998	0.0
C 	8.60829251361732	13.489999999999998	0.0
C 	9.838048586991222	12.78	0.0
C 	11.067804660365125	13.489999999999997	0.0
C 	12.297560733739028	12.779999999999998	0.0
C 	13.527316807112932	13.489999999999998	0.0
C 	14.757072880486833	12.779999999999998	0.0
C 	15.986828953860737	13.489999999999997	0.0
C 	17.216585027234636	12.779999999999996	0.0
C 	18.446341100608542	13.489999999999997	0.0
C 	19.676097173982445	12.779999999999998	0.0
C 	20.905853247356347	13.489999999999997	0.0
C 	22.13560932073025	12.779999999999996	0.0
C 	23.36536539410415	13.489999999999995	0.0
C 	24.595121467478055	12.779999999999996	0.0
C 	25.824877540851958	13.489999999999997	0.0
C 	27.05463361422586	12.779999999999998	0.0
C 	28.284389687599763	13.489999999999997	0.0
C 	29.514145760973662	12.779999999999996	0.0
C 	30.743901834347568	13.489999999999997	0.0
C 	31.97365790772147	12.779999999999996	0.0
C 	33.20341398109537	13.489999999999997	0.0
C 	34.43317005446928	12.779999999999998	0.0
C 	35.66292612784318	13.489999999999995	0.0
C 	36.89268220121708	12.779999999999994	0.0
C 	38.122438274590984	13.489999999999995	0.0
C 	39.35219434796489	12.779999999999996	0.0
C 	40.581950421338796	13.489999999999997	0.0
C 	41.811706494712695	12.779999999999996	0.0
C 	43.041462568086594	13.489999999999993	0.0
C 	44.2712186414605	12.779999999999994	0.0
C 	45.5009747148344	13.489999999999995	0.0
C 	46.730730788208305	12.779999999999996	0.0
C 	47.96048686158221	13.489999999999997	0.0
C 	49.19024293495611	12.779999999999998	0.0
C 	50.41999900833001	13.489999999999995	0.0
C 	51.649755081703915	12.779999999999996	0.0
C 	52.879511155077815	13.489999999999993	0.0
C 	54.10926722845172	12.779999999999998	0.0
C 	55.33902330182563	13.489999999999998	0.0
C 	56.56877937519952	12.779999999999998	0.0
C 	57.798535448573425	13.489999999999997	0.0
C 	59.02829152194733	12.779999999999994	0.0
C 	60.25804759532123	13.489999999999991	0.0
C 	61.487803668695136	12.779999999999998	0.0
C 	62.71755974206904	13.489999999999998	0.0
C 	63.94731581544294	12.779999999999994	0.0
C 	65.17707188881684	13.489999999999995	0.0
C 	66.40682796219075	12.77999999999999	0.0
C 	67.63658403556465	13.489999999999988	0.0
C 	8.60829251361732	14.909999999999998	0.0
C 	9.838048586991222	15.619999999999996	0.0
C 	11.067804660365125	14.909999999999997	0.0
C 	12.297560733739026	15.619999999999996	0.0
C 	13.527316807112934	14.909999999999998	0.0
C 	14.757072880486831	15.619999999999996	0.0
C 	15.986828953860737	14.909999999999998	0.0
C 	17.21658502723464	15.619999999999997	0.0
C 	18.446341100608542	14.909999999999997	0.0
C 	19.676097173982445	15.619999999999996	0.0
C 	20.905853247356347	14.909999999999997	0.0
C 	22.135609320730246	15.619999999999996	0.0
C 	23.365365394104153	14.909999999999995	0.0
C 	24.595121467478055	15.619999999999996	0.0
C 	25.824877540851958	14.909999999999997	0.0
C 	27.05463361422586	15.619999999999996	0.0
C 	28.284389687599763	14.909999999999997	0.0
C 	29.514145760973665	15.619999999999996	0.0
C 	30.743901834347568	14.909999999999997	0.0
C 	31.973657907721474	15.619999999999997	0.0
C 	33.203413981095366	14.909999999999993	0.0
C 	34.43317005446927	15.619999999999994	0.0
C 	35.662926127843185	14.909999999999998	0.0
C 	36.892682201217085	15.619999999999996	0.0
C 	38.122438274590984	14.909999999999995	0.0
C 	39.35219434796489	15.619999999999996	0.0
C 	40.58195042133879	14.909999999999993	0.0
C 	41.811706494712695	15.619999999999994	0.0
C 	43.0414625680866	14.909999999999998	0.0
C 	44.2712186414605	15.619999999999996	0.0
C 	45.5009747148344	14.909999999999995	0.0
C 	46.730730788208305	15.619999999999996	0.0
C 	47.960486861582204	14.909999999999993	0.0
C 	49.19024293495611	15.619999999999994	0.0
C 	50.41999900833002	14.909999999999998	0.0
C 	51.649755081703915	15.619999999999996	0.0
C 	52.87951115507782	14.909999999999997	0.0
C 	54.10926722845171	15.619999999999994	0.0
C 	55.33902330182562	14.909999999999995	0.0
C 	56.568779375199526	15.619999999999994	0.0
C 	57.798535448573425	14.909999999999991	0.0
C 	59.028291521947324	15.619999999999992	0.0
C 	60.25804759532124	14.909999999999998	0.0
C 	61.487803668695136	15.619999999999996	0.0
C 	62.717559742069035	14.909999999999993	0.0
C 	63.94731581544294	15.619999999999994	0.0
C 	65.17707188881684	14.909999999999993	0.0
C 	66.40682796219075	15.619999999999994	0.0
C 	67.63658403556465	14.909999999999997	0.0
C 	68.86634010893854	15.61999999999999	0.0
C 	9.838048586991222	17.039999999999996	0.0
C 	11.067804660365127	17.749999999999996	0.0
C 	12.297560733739028	17.039999999999996	0.0
C 	13.527316807112932	17.749999999999996	0.0
C 	14.757072880486833	17.039999999999996	0.0
C 	15.986828953860735	17.749999999999996	0.0
C 	17.21658502723464	17.039999999999996	0.0
C 	18.446341100608546	17.749999999999996	0.0
C 	19.676097173982445	17.039999999999996	0.0
C 	20.905853247356347	17.749999999999996	0.0
C 	22.13560932073025	17.039999999999996	0.0
C 	23.365365394104153	17.749999999999996	0.0
C 	24.595121467478055	17.039999999999996	0.0
C 	25.82487754085196	17.749999999999996	0.0
C 	27.05463361422586	17.039999999999996	0.0
C 	28.28438968759977	17.75	0.0
C 	29.514145760973665	17.039999999999996	0.0
C 	30.74390183434757	17.749999999999996	0.0
C 	31.973657907721467	17.039999999999992	0.0
C 	33.20341398109537	17.749999999999993	0.0
C 	34.43317005446927	17.039999999999996	0.0
C 	35.66292612784318	17.749999999999996	0.0
C 	36.892682201217085	17.039999999999996	0.0
C 	38.122438274590984	17.749999999999996	0.0
C 	39.35219434796488	17.039999999999992	0.0
C 	40.58195042133879	17.749999999999993	0.0
C 	41.811706494712695	17.039999999999992	0.0
C 	43.041462568086594	17.749999999999993	0.0
C 	44.2712186414605	17.039999999999996	0.0
C 	45.500974714834406	17.749999999999996	0.0
C 	46.7307307882083	17.039999999999992	0.0
C 	47.960486861582204	17.749999999999993	0.0
C 	49.19024293495611	17.039999999999992	0.0
C 	50.41999900833002	17.749999999999993	0.0
C 	51.649755081703915	17.039999999999996	0.0
C 	52.87951115507782	17.749999999999996	0.0
C 	54.10926722845172	17.039999999999992	0.0
C 	55.33902330182562	17.749999999999993	0.0
C 	56.568779375199526	17.039999999999996	0.0
C 	57.79853544857343	17.749999999999996	0.0
C 	59.028291521947324	17.039999999999992	0.0
C 	60.25804759532123	17.749999999999993	0.0
C 	61.487803668695136	17.039999999999996	0.0
C 	62.71755974206904	17.749999999999996	0.0
C 	63.94731581544294	17.04	0.0
C 	65.17707188881684	17.749999999999993	0.0
C 	66.40682796219075	17.039999999999996	0.0
C 	67.63658403556464	17.74999999999999	0.0
C 	68.86634010893856	17.03999999999999	0.0
C 	70.09609618231246	17.74999999999999	0.0
C 	11.067804660365125	19.169999999999995	0.0
C 	12.297560733739026	19.879999999999995	0.0
C 	13.52731680711293	19.169999999999995	0.0
C 	14.757072880486831	19.879999999999995	0.0
C 	15.986828953860737	19.169999999999998	0.0
C 	17.216585027234636	19.879999999999992	0.0
C 	18.446341100608542	19.169999999999995	0.0
C 	19.676097173982445	19.879999999999995	0.0
C 	20.905853247356347	19.169999999999995	0.0
C 	22.135609320730246	19.879999999999995	0.0
C 	23.365365394104153	19.169999999999995	0.0
C 	24.59512146747805	19.879999999999995	0.0
C 	25.824877540851958	19.169999999999995	0.0
C 	27.05463361422586	19.879999999999995	0.0
C 	28.284389687599763	19.169999999999995	0.0
C 	29.51414576097367	19.879999999999995	0.0
C 	30.743901834347565	19.16999999999999	0.0
C 	31.97365790772147	19.879999999999992	0.0
C 	33.20341398109537	19.169999999999995	0.0
C 	34.43317005446927	19.879999999999992	0.0
C 	35.66292612784318	19.169999999999995	0.0
C 	36.89268220121708	19.879999999999992	0.0
C 	38.122438274590984	19.169999999999995	0.0
C 	39.35219434796488	19.879999999999992	0.0
C 	40.58195042133879	19.16999999999999	0.0
C 	41.81170649471269	19.87999999999999	0.0
C 	43.0414625680866	19.169999999999995	0.0
C 	44.27121864146049	19.879999999999992	0.0
C 	45.5009747148344	19.16999999999999	0.0
C 	46.730730788208305	19.879999999999992	0.0
C 	47.960486861582204	19.169999999999995	0.0
C 	49.1902429349561	19.879999999999992	0.0
C 	50.41999900833002	19.169999999999995	0.0
C 	51.649755081703915	19.879999999999992	0.0
C 	52.879511155077815	19.16999999999999	0.0
C 	54.10926722845172	19.879999999999992	0.0
C 	55.33902330182562	19.16999999999999	0.0
C 	56.56877937519952	19.879999999999992	0.0
C 	57.79853544857343	19.169999999999995	0.0
C 	59.02829152194733	19.879999999999992	0.0
C 	60.25804759532123	19.169999999999995	0.0
C 	61.48780366869513	19.879999999999992	0.0
C 	62.717559742069035	19.16999999999999	0.0
C 	63.94731581544294	19.879999999999992	0.0
C 	65.17707188881684	19.169999999999995	0.0
C 	66.40682796219075	19.87999999999999	0.0
C 	67.63658403556465	19.169999999999995	0.0
C 	68.86634010893854	19.87999999999999	0.0
C 	70.09609618231245	19.16999999999999	0.0
C 	71.32585225568636	19.879999999999992	0.0
C 	12.297560733739028	21.299999999999994	0.0
C 	13.527316807112932	22.009999999999994	0.0
C 	14.757072880486831	21.299999999999994	0.0
C 	15.986828953860735	22.009999999999994	0.0
C 	17.216585027234636	21.299999999999994	0.0
C 	18.44634110060854	22.009999999999994	0.0
C 	19.676097173982445	21.299999999999994	0.0
C 	20.905853247356347	22.009999999999994	0.0
C 	22.13560932073025	21.299999999999994	0.0
C 	23.365365394104153	22.009999999999994	0.0
C 	24.595121467478055	21.299999999999994	0.0
C 	25.824877540851958	22.009999999999994	0.0
C 	27.05463361422586	21.299999999999994	0.0
C 	28.284389687599766	22.009999999999994	0.0
C 	29.514145760973662	21.29999999999999	0.0
C 	30.743901834347568	22.00999999999999	0.0
C 	31.97365790772147	21.299999999999994	0.0
C 	33.20341398109537	22.009999999999994	0.0
C 	34.43317005446928	21.299999999999994	0.0
C 	35.662926127843185	22.009999999999994	0.0
C 	36.89268220121708	21.299999999999994	0.0
C 	38.122438274590984	22.009999999999994	0.0
C 	39.35219434796489	21.299999999999994	0.0
C 	40.58195042133879	22.009999999999994	0.0
C 	41.811706494712695	21.299999999999994	0.0
C 	43.0414625680866	22.009999999999994	0.0
C 	44.2712186414605	21.29999999999999	0.0
C 	45.5009747148344	22.00999999999999	0.0
C 	46.730730788208305	21.299999999999994	0.0
C 	47.96048686158221	22.009999999999994	0.0
C 	49.19024293495611	21.299999999999994	0.0
C 	50.41999900833002	22.009999999999994	0.0
C 	51.649755081703915	21.299999999999994	0.0
C 	52.879511155077815	22.00999999999999	0.0
C 	54.10926722845172	21.299999999999994	0.0
C 	55.33902330182563	22.009999999999994	0.0
C 	56.568779375199526	21.29999999999999	0.0
C 	57.798535448573425	22.00999999999999	0.0
C 	59.02829152194733	21.299999999999994	0.0
C 	60.25804759532124	22.009999999999994	0.0
C 	61.48780366869513	21.29999999999999	0.0
C 	62.717559742069035	22.00999999999999	0.0
C 	63.94731581544294	21.299999999999994	0.0
C 	65.17707188881684	22.009999999999987	0.0
C 	66.40682796219075	21.299999999999994	0.0
C 	67.63658403556465	22.009999999999994	0.0
C 	68.86634010893854	21.29999999999999	0.0
C 	70.09609618231245	22.00999999999999	0.0
C 	71.32585225568636	21.299999999999983	0.0
C 	72.55560832906026	22.00999999999999	0.0
C 	13.527316807112932	23.429999999999996	0.0
C 	14.757072880486836	24.139999999999997	0.0
C 	15.986828953860737	23.429999999999996	0.0
C 	17.216585027234643	24.139999999999997	0.0
C 	18.446341100608542	23.429999999999996	0.0
C 	19.676097173982445	24.139999999999997	0.0
C 	20.90585324735635	23.429999999999996	0.0
C 	22.135609320730254	24.139999999999997	0.0
C 	23.365365394104156	23.429999999999993	0.0
C 	24.595121467478062	24.139999999999997	0.0
C 	25.824877540851958	23.429999999999993	0.0
C 	27.054633614225864	24.139999999999993	0.0
C 	28.284389687599766	23.429999999999996	0.0
C 	29.514145760973673	24.139999999999997	0.0
C 	30.743901834347575	23.429999999999996	0.0
C 	31.973657907721478	24.139999999999997	0.0
C 	33.20341398109537	23.429999999999993	0.0
C 	34.43317005446928	24.139999999999993	0.0
C 	35.66292612784318	23.429999999999993	0.0
C 	36.892682201217085	24.139999999999993	0.0
C 	38.122438274590984	23.429999999999993	0.0
C 	39.35219434796489	24.139999999999993	0.0
C 	40.58195042133879	23.429999999999996	0.0
C 	41.811706494712695	24.139999999999993	0.0
C 	43.041462568086594	23.42999999999999	0.0
C 	44.2712186414605	24.13999999999999	0.0
C 	45.5009747148344	23.429999999999993	0.0
C 	46.730730788208305	24.139999999999993	0.0
C 	47.96048686158221	23.429999999999993	0.0
C 	49.19024293495611	24.139999999999993	0.0
C 	50.41999900833001	23.429999999999993	0.0
C 	51.649755081703915	24.13999999999999	0.0
C 	52.87951115507782	23.429999999999993	0.0
C 	54.10926722845172	24.139999999999993	0.0
C 	55.33902330182563	23.429999999999993	0.0
C 	56.56877937519953	24.139999999999993	0.0
C 	57.798535448573425	23.429999999999993	0.0
C 	59.02829152194733	24.139999999999993	0.0
C 	60.25804759532124	23.429999999999993	0.0
C 	61.487803668695136	24.13999999999999	0.0
C 	62.71755974206904	23.429999999999993	0.0
C 	63.947315815442934	24.139999999999986	0.0
C 	65.17707188881684	23.429999999999993	0.0
C 	66.40682796219075	24.139999999999993	0.0
C 	67.63658403556464	23.42999999999999	0.0
C 	68.86634010893856	24.139999999999997	0.0
C 	70.09609618231245	23.42999999999999	0.0
C 	71.32585225568636	24.139999999999997	0.0
C 	72.55560832906026	23.42999999999999	0.0
C 	73.78536440243417	24.13999999999999	0.0
C 	14.757072880486835	25.559999999999995	0.0
C 	15.986828953860735	26.269999999999996	0.0
C 	17.21658502723464	25.559999999999995	0.0
C 	18.44634110060854	26.269999999999996	0.0
C 	19.676097173982445	25.56	0.0
C 	20.905853247356344	26.269999999999996	0.0
C 	22.13560932073025	25.56	0.0
C 	23.365365394104153	26.269999999999996	0.0
C 	24.595121467478055	25.559999999999995	0.0
C 	25.824877540851958	26.269999999999996	0.0
C 	27.054633614225857	25.559999999999995	0.0
C 	28.28438968759976	26.269999999999996	0.0
C 	29.514145760973665	25.559999999999995	0.0
C 	30.743901834347568	26.269999999999996	0.0
C 	31.973657907721474	25.559999999999995	0.0
C 	33.20341398109538	26.269999999999996	0.0
C 	34.43317005446927	25.55999999999999	0.0
C 	35.66292612784318	26.269999999999992	0.0
C 	36.892682201217085	25.559999999999995	0.0
C 	38.12243827459098	26.269999999999992	0.0
C 	39.35219434796489	25.559999999999995	0.0
C 	40.58195042133879	26.269999999999992	0.0
C 	41.81170649471269	25.55999999999999	0.0
C 	43.041462568086594	26.269999999999992	0.0
C 	44.2712186414605	25.55999999999999	0.0
C 	45.5009747148344	26.26999999999999	0.0
C 	46.730730788208305	25.559999999999995	0.0
C 	47.960486861582204	26.269999999999992	0.0
C 	49.19024293495611	25.55999999999999	0.0
C 	50.41999900833001	26.269999999999992	0.0
C 	51.649755081703915	25.559999999999995	0.0
C 	52.879511155077815	26.269999999999992	0.0
C 	54.10926722845172	25.559999999999995	0.0
C 	55.33902330182562	26.269999999999992	0.0
C 	56.568779375199526	25.55999999999999	0.0
C 	57.79853544857343	26.269999999999992	0.0
C 	59.028291521947324	25.55999999999999	0.0
C 	60.25804759532123	26.269999999999992	0.0
C 	61.487803668695136	25.559999999999995	0.0
C 	62.717559742069035	26.26999999999999	0.0
C 	63.94731581544294	25.55999999999999	0.0
C 	65.17707188881683	26.269999999999985	0.0
C 	66.40682796219075	25.55999999999999	0.0
C 	67.63658403556465	26.269999999999992	0.0
C 	68.86634010893856	25.559999999999995	0.0
C 	70.09609618231246	26.269999999999996	0.0
C 	71.32585225568636	25.559999999999995	0.0
C 	72.55560832906026	26.269999999999996	0.0
C 	73.78536440243415	25.559999999999988	0.0
C 	75.01512047580806	26.26999999999999	0.0
C 	15.986828953860735	27.689999999999994	0.0
C 	17.21658502723464	28.399999999999995	0.0
C 	18.446341100608542	27.689999999999994	0.0
C 	19.676097173982445	28.399999999999995	0.0
C 	20.905853247356344	27.689999999999994	0.0
C 	22.13560932073025	28.399999999999995	0.0
C 	23.365365394104153	27.689999999999994	0.0
C 	24.59512146747806	28.399999999999995	0.0
C 	25.824877540851954	27.689999999999994	0.0
C 	27.054633614225857	28.399999999999995	0.0
C 	28.284389687599763	27.689999999999994	0.0
C 	29.514145760973665	28.399999999999995	0.0
C 	30.74390183434757	27.689999999999994	0.0
C 	31.973657907721474	28.399999999999995	0.0
C 	33.20341398109537	27.68999999999999	0.0
C 	34.43317005446928	28.39999999999999	0.0
C 	35.66292612784318	27.689999999999994	0.0
C 	36.892682201217085	28.399999999999995	0.0
C 	38.122438274590984	27.689999999999994	0.0
C 	39.35219434796489	28.399999999999995	0.0
C 	40.58195042133879	27.689999999999994	0.0
C 	41.811706494712695	28.399999999999995	0.0
C 	43.041462568086594	27.689999999999994	0.0
C 	44.2712186414605	28.399999999999995	0.0
C 	45.500974714834406	27.689999999999994	0.0
C 	46.730730788208305	28.399999999999995	0.0
C 	47.960486861582204	27.68999999999999	0.0
C 	49.19024293495611	28.39999999999999	0.0
C 	50.41999900833002	27.689999999999994	0.0
C 	51.649755081703915	28.399999999999995	0.0
C 	52.87951115507782	27.689999999999994	0.0
C 	54.10926722845173	28.399999999999995	0.0
C 	55.33902330182562	27.68999999999999	0.0
C 	56.568779375199526	28.39999999999999	0.0
C 	57.79853544857343	27.689999999999994	0.0
C 	59.02829152194733	28.39999999999999	0.0
C 	60.25804759532124	27.689999999999994	0.0
C 	61.48780366869513	28.399999999999988	0.0
C 	62.717559742069035	27.689999999999994	0.0
C 	63.94731581544294	28.399999999999995	0.0
C 	65.17707188881684	27.68999999999999	0.0
C 	66.40682796219075	28.39999999999999	0.0
C 	67.63658403556464	27.689999999999987	0.0
C 	68.86634010893856	28.399999999999995	0.0
C 	70.09609618231245	27.689999999999994	0.0
C 	71.32585225568636	28.399999999999995	0.0
C 	72.55560832906026	27.68999999999999	0.0
C 	73.78536440243415	28.39999999999999	0.0
C 	75.01512047580808	27.689999999999994	0.0
C 	76.24487654918197	28.399999999999984	0.0
C 	17.21658502723464	29.819999999999997	0.0
C 	18.446341100608546	30.529999999999998	0.0
C 	19.676097173982445	29.819999999999997	0.0
C 	20.905853247356355	30.529999999999998	0.0
C 	22.13560932073025	29.819999999999993	0.0
C 	23.365365394104156	30.529999999999994	0.0
C 	24.59512146747806	29.819999999999997	0.0
C 	25.82487754085196	30.529999999999998	0.0
C 	27.054633614225867	29.819999999999997	0.0
C 	28.28438968759977	30.529999999999998	0.0
C 	29.514145760973665	29.819999999999997	0.0
C 	30.74390183434757	30.529999999999998	0.0
C 	31.973657907721474	29.819999999999997	0.0
C 	33.20341398109538	30.529999999999998	0.0
C 	34.43317005446928	29.819999999999997	0.0
C 	35.662926127843185	30.529999999999998	0.0
C 	36.892682201217085	29.819999999999993	0.0
C 	38.12243827459099	30.529999999999994	0.0
C 	39.35219434796488	29.819999999999993	0.0
C 	40.58195042133879	30.529999999999994	0.0
C 	41.811706494712695	29.819999999999993	0.0
C 	43.0414625680866	30.529999999999994	0.0
C 	44.2712186414605	29.819999999999993	0.0
C 	45.500974714834406	30.529999999999994	0.0
C 	46.730730788208305	29.81999999999999	0.0
C 	47.960486861582204	30.52999999999999	0.0
C 	49.19024293495611	29.819999999999993	0.0
C 	50.41999900833002	30.529999999999994	0.0
C 	51.649755081703915	29.819999999999993	0.0
C 	52.87951115507782	30.529999999999994	0.0
C 	54.10926722845172	29.819999999999993	0.0
C 	55.33902330182563	30.52999999999999	0.0
C 	56.568779375199526	29.819999999999993	0.0
C 	57.798535448573425	30.52999999999999	0.0
C 	59.02829152194734	29.819999999999993	0.0
C 	60.25804759532124	30.529999999999994	0.0
C 	61.487803668695136	29.819999999999993	0.0
C 	62.71755974206904	30.529999999999994	0.0
C 	63.947315815442934	29.81999999999999	0.0
C 	65.17707188881685	30.529999999999998	0.0
C 	66.40682796219073	29.819999999999986	0.0
C 	67.63658403556465	30.529999999999994	0.0
C 	68.86634010893856	29.819999999999993	0.0
C 	70.09609618231245	30.529999999999994	0.0
C 	71.32585225568637	29.819999999999997	0.0
C 	72.55560832906026	30.52999999999999	0.0
C 	73.78536440243417	29.819999999999997	0.0
C 	75.01512047580806	30.529999999999987	0.0
C 	76.24487654918197	29.81999999999999	0.0
C 	77.47463262255587	30.52999999999999	0.0
C 	18.446341100608542	31.949999999999996	0.0
C 	19.676097173982445	32.65999999999999	0.0
C 	20.905853247356347	31.949999999999992	0.0
C 	22.135609320730254	32.66	0.0
C 	23.365365394104156	31.949999999999996	0.0
C 	24.595121467478055	32.65999999999999	0.0
C 	25.824877540851958	31.949999999999992	0.0
C 	27.05463361422586	32.66	0.0
C 	28.284389687599766	31.949999999999996	0.0
C 	29.51414576097367	32.66	0.0
C 	30.743901834347568	31.949999999999992	0.0
C 	31.97365790772147	32.66	0.0
C 	33.20341398109537	31.949999999999992	0.0
C 	34.43317005446928	32.66	0.0
C 	35.66292612784318	31.949999999999996	0.0
C 	36.892682201217085	32.66	0.0
C 	38.122438274590984	31.949999999999992	0.0
C 	39.35219434796489	32.65999999999999	0.0
C 	40.58195042133879	31.949999999999992	0.0
C 	41.81170649471269	32.65999999999999	0.0
C 	43.0414625680866	31.949999999999996	0.0
C 	44.2712186414605	32.65999999999999	0.0
C 	45.5009747148344	31.949999999999992	0.0
C 	46.730730788208305	32.65999999999999	0.0
C 	47.96048686158221	31.949999999999992	0.0
C 	49.1902429349561	32.65999999999999	0.0
C 	50.41999900833002	31.949999999999992	0.0
C 	51.649755081703915	32.65999999999999	0.0
C 	52.879511155077815	31.949999999999992	0.0
C 	54.10926722845172	32.65999999999999	0.0
C 	55.33902330182563	31.949999999999992	0.0
C 	56.568779375199526	32.65999999999999	0.0
C 	57.79853544857343	31.949999999999992	0.0
C 	59.028291521947324	32.65999999999999	0.0
C 	60.25804759532124	31.949999999999992	0.0
C 	61.487803668695136	32.65999999999999	0.0
C 	62.717559742069035	31.94999999999999	0.0
C 	63.94731581544294	32.65999999999999	0.0
C 	65.17707188881685	31.949999999999992	0.0
C 	66.40682796219076	32.66	0.0
C 	67.63658403556465	31.949999999999992	0.0
C 	68.86634010893856	32.65999999999999	0.0
C 	70.09609618231245	31.94999999999999	0.0
C 	71.32585225568636	32.65999999999999	0.0
C 	72.55560832906026	31.949999999999996	0.0
C 	73.78536440243415	32.65999999999999	0.0
C 	75.01512047580806	31.949999999999992	0.0
C 	76.24487654918195	32.65999999999998	0.0
C 	77.47463262255587	31.949999999999985	0.0
C 	78.70438869592978	32.65999999999999	0.0
C 	19.676097173982445	34.07999999999999	0.0
C 	20.90585324735635	34.78999999999999	0.0
C 	22.135609320730254	34.07999999999999	0.0
C 	23.365365394104156	34.78999999999999	0.0
C 	24.595121467478055	34.07999999999999	0.0
C 	25.824877540851958	34.78999999999999	0.0
C 	27.054633614225864	34.07999999999999	0.0
C 	28.284389687599766	34.78999999999999	0.0
C 	29.514145760973665	34.07999999999999	0.0
C 	30.743901834347568	34.78999999999999	0.0
C 	31.97365790772147	34.07999999999999	0.0
C 	33.20341398109537	34.78999999999999	0.0
C 	34.43317005446928	34.07999999999999	0.0
C 	35.662926127843185	34.78999999999999	0.0
C 	36.89268220121708	34.07999999999999	0.0
C 	38.122438274590984	34.78999999999999	0.0
C 	39.35219434796489	34.07999999999999	0.0
C 	40.581950421338796	34.78999999999999	0.0
C 	41.811706494712695	34.07999999999999	0.0
C 	43.0414625680866	34.78999999999999	0.0
C 	44.2712186414605	34.07999999999999	0.0
C 	45.5009747148344	34.78999999999999	0.0
C 	46.730730788208305	34.07999999999999	0.0
C 	47.96048686158221	34.78999999999999	0.0
C 	49.19024293495611	34.07999999999999	0.0
C 	50.41999900833002	34.78999999999999	0.0
C 	51.649755081703915	34.07999999999999	0.0
C 	52.87951115507782	34.78999999999999	0.0
C 	54.10926722845172	34.07999999999999	0.0
C 	55.33902330182562	34.78999999999999	0.0
C 	56.56877937519953	34.07999999999999	0.0
C 	57.79853544857343	34.78999999999999	0.0
C 	59.02829152194733	34.07999999999999	0.0
C 	60.25804759532124	34.78999999999999	0.0
C 	61.487803668695136	34.07999999999999	0.0
C 	62.71755974206905	34.79	0.0
C 	63.947315815442934	34.079999999999984	0.0
C 	65.17707188881685	34.78999999999999	0.0
C 	66.40682796219075	34.07999999999999	0.0
C 	67.63658403556465	34.78999999999999	0.0
C 	68.86634010893854	34.07999999999999	0.0
C 	70.09609618231245	34.78999999999999	0.0
C 	71.32585225568636	34.07999999999999	0.0
C 	72.55560832906025	34.789999999999985	0.0
C 	73.78536440243417	34.07999999999999	0.0
C 	75.01512047580808	34.78999999999999	0.0
C 	76.24487654918197	34.07999999999999	0.0
C 	77.47463262255587	34.78999999999999	0.0
C 	78.70438869592977	34.079999999999984	0.0
C 	79.93414476930369	34.78999999999999	0.0
C 	20.90585324735635	36.209999999999994	0.0
C 	22.135609320730254	36.919999999999995	0.0
C 	23.36536539410416	36.209999999999994	0.0
C 	24.595121467478062	36.919999999999995	0.0
C 	25.82487754085196	36.209999999999994	0.0
C 	27.054633614225864	36.919999999999995	0.0
C 	28.284389687599766	36.209999999999994	0.0
C 	29.514145760973673	36.919999999999995	0.0
C 	30.743901834347575	36.209999999999994	0.0
C 	31.973657907721478	36.919999999999995	0.0
C 	33.20341398109537	36.209999999999994	0.0
C 	34.43317005446928	36.919999999999995	0.0
C 	35.662926127843185	36.209999999999994	0.0
C 	36.89268220121709	36.919999999999995	0.0
C 	38.12243827459099	36.209999999999994	0.0
C 	39.3521943479649	36.919999999999995	0.0
C 	40.581950421338796	36.209999999999994	0.0
C 	41.811706494712695	36.919999999999995	0.0
C 	43.041462568086594	36.209999999999994	0.0
C 	44.2712186414605	36.919999999999995	0.0
C 	45.500974714834406	36.209999999999994	0.0
C 	46.730730788208305	36.919999999999995	0.0
C 	47.96048686158221	36.209999999999994	0.0
C 	49.19024293495612	36.919999999999995	0.0
C 	50.41999900833002	36.20999999999999	0.0
C 	51.649755081703915	36.91999999999999	0.0
C 	52.87951115507782	36.209999999999994	0.0
C 	54.10926722845172	36.91999999999999	0.0
C 	55.33902330182563	36.209999999999994	0.0
C 	56.56877937519953	36.919999999999995	0.0
C 	57.79853544857343	36.20999999999999	0.0
C 	59.02829152194733	36.91999999999999	0.0
C 	60.25804759532123	36.20999999999999	0.0
C 	61.48780366869515	36.919999999999995	0.0
C 	62.71755974206904	36.209999999999994	0.0
C 	63.94731581544295	36.919999999999995	0.0
C 	65.17707188881684	36.209999999999994	0.0
C 	66.40682796219075	36.919999999999995	0.0
C 	67.63658403556467	36.209999999999994	0.0
C 	68.86634010893856	36.91999999999999	0.0
C 	70.09609618231246	36.209999999999994	0.0
C 	71.32585225568636	36.91999999999999	0.0
C 	72.55560832906026	36.209999999999994	0.0
C 	73.78536440243417	36.919999999999995	0.0
C 	75.01512047580806	36.20999999999999	0.0
C 	76.24487654918198	36.919999999999995	0.0
C 	77.47463262255586	36.20999999999999	0.0
C 	78.70438869592978	36.919999999999995	0.0
C 	79.93414476930369	36.20999999999999	0.0
C 	81.16390084267759	36.91999999999999	0.0
C 	22.13560932073025	38.33999999999999	0.0
C 	23.365365394104153	39.04999999999999	0.0
C 	24.59512146747806	38.33999999999999	0.0
C 	25.82487754085196	39.04999999999999	0.0
C 	27.05463361422586	38.33999999999999	0.0
C 	28.284389687599763	39.04999999999999	0.0
C 	29.514145760973665	38.33999999999999	0.0
C 	30.74390183434757	39.04999999999999	0.0
C 	31.973657907721474	38.339999999999996	0.0
C 	33.20341398109538	39.04999999999999	0.0
C 	34.43317005446927	38.33999999999999	0.0
C 	35.66292612784318	39.04999999999999	0.0
C 	36.892682201217085	38.33999999999999	0.0
C 	38.12243827459099	39.04999999999999	0.0
C 	39.35219434796489	38.33999999999999	0.0
C 	40.581950421338796	39.04999999999999	0.0
C 	41.811706494712695	38.33999999999999	0.0
C 	43.0414625680866	39.04999999999999	0.0
C 	44.27121864146049	38.33999999999999	0.0
C 	45.5009747148344	39.04999999999999	0.0
C 	46.730730788208305	38.33999999999999	0.0
C 	47.960486861582204	39.04999999999999	0.0
C 	49.19024293495611	38.33999999999999	0.0
C 	50.41999900833002	39.04999999999999	0.0
C 	51.649755081703915	38.33999999999999	0.0
C 	52.879511155077815	39.04999999999999	0.0
C 	54.10926722845173	38.33999999999999	0.0
C 	55.33902330182562	39.04999999999998	0.0
C 	56.568779375199526	38.33999999999999	0.0
C 	57.79853544857343	39.04999999999999	0.0
C 	59.02829152194733	38.33999999999999	0.0
C 	60.25804759532123	39.04999999999999	0.0
C 	61.48780366869513	38.33999999999998	0.0
C 	62.71755974206905	39.04999999999999	0.0
C 	63.94731581544294	38.33999999999999	0.0
C 	65.17707188881685	39.04999999999999	0.0
C 	66.40682796219075	38.33999999999999	0.0
C 	67.63658403556465	39.04999999999999	0.0
C 	68.86634010893856	38.33999999999999	0.0
C 	70.09609618231245	39.04999999999998	0.0
C 	71.32585225568636	38.33999999999999	0.0
C 	72.55560832906025	39.04999999999998	0.0
C 	73.78536440243415	38.33999999999999	0.0
C 	75.01512047580806	39.04999999999999	0.0
C 	76.24487654918197	38.33999999999999	0.0
C 	77.47463262255587	39.05	0.0
C 	78.70438869592977	38.33999999999998	0.0
C 	79.93414476930369	39.04999999999999	0.0
C 	81.16390084267758	38.33999999999998	0.0
C 	82.39365691605148	39.04999999999998	0.0
C 	23.365365394104156	40.46999999999999	0.0
C 	24.59512146747806	41.17999999999999	0.0
C 	25.82487754085196	40.46999999999999	0.0
C 	27.054633614225867	41.17999999999999	0.0
C 	28.284389687599763	40.46999999999999	0.0
C 	29.51414576097367	41.17999999999999	0.0
C 	30.74390183434757	40.46999999999999	0.0
C 	31.973657907721474	41.17999999999999	0.0
C 	33.20341398109537	40.46999999999999	0.0
C 	34.43317005446928	41.17999999999999	0.0
C 	35.66292612784318	40.46999999999999	0.0
C 	36.892682201217085	41.17999999999999	0.0
C 	38.12243827459099	40.46999999999999	0.0
C 	39.3521943479649	41.17999999999999	0.0
C 	40.58195042133879	40.46999999999999	0.0
C 	41.811706494712695	41.17999999999999	0.0
C 	43.0414625680866	40.46999999999999	0.0
C 	44.2712186414605	41.17999999999999	0.0
C 	45.500974714834406	40.46999999999999	0.0
C 	46.73073078820831	41.17999999999999	0.0
C 	47.960486861582204	40.46999999999999	0.0
C 	49.19024293495611	41.17999999999999	0.0
C 	50.41999900833002	40.46999999999999	0.0
C 	51.649755081703915	41.179999999999986	0.0
C 	52.87951115507782	40.46999999999999	0.0
C 	54.10926722845173	41.17999999999999	0.0
C 	55.33902330182563	40.46999999999999	0.0
C 	56.568779375199526	41.17999999999999	0.0
C 	57.798535448573425	40.469999999999985	0.0
C 	59.028291521947345	41.17999999999999	0.0
C 	60.25804759532124	40.46999999999999	0.0
C 	61.48780366869514	41.17999999999999	0.0
C 	62.71755974206904	40.46999999999999	0.0
C 	63.94731581544295	41.17999999999999	0.0
C 	65.17707188881685	40.46999999999999	0.0
C 	66.40682796219075	41.179999999999986	0.0
C 	67.63658403556465	40.46999999999999	0.0
C 	68.86634010893854	41.179999999999986	0.0
C 	70.09609618231246	40.46999999999999	0.0
C 	71.32585225568636	41.17999999999999	0.0
C 	72.55560832906026	40.469999999999985	0.0
C 	73.78536440243417	41.179999999999986	0.0
C 	75.01512047580806	40.469999999999985	0.0
C 	76.24487654918198	41.17999999999999	0.0
C 	77.47463262255587	40.46999999999999	0.0
C 	78.70438869592978	41.17999999999999	0.0
C 	79.93414476930367	40.469999999999985	0.0
C 	81.16390084267758	41.179999999999986	0.0
C 	82.3936569160515	40.46999999999999	0.0
C 	83.62341298942539	41.179999999999986	0.0
C 	24.595121467478055	42.59999999999999	0.0
C 	25.82487754085196	43.30999999999999	0.0
C 	27.05463361422586	42.59999999999999	0.0
C 	28.284389687599766	43.30999999999999	0.0
C 	29.514145760973662	42.59999999999999	0.0
C 	30.743901834347568	43.30999999999999	0.0
C 	31.97365790772147	42.59999999999999	0.0
C 	33.20341398109537	43.30999999999999	0.0
C 	34.43317005446927	42.59999999999999	0.0
C 	35.66292612784318	43.30999999999999	0.0
C 	36.89268220121708	42.59999999999999	0.0
C 	38.122438274590984	43.30999999999999	0.0
C 	39.35219434796489	42.59999999999999	0.0
C 	40.581950421338796	43.30999999999999	0.0
C 	41.81170649471269	42.59999999999999	0.0
C 	43.041462568086594	43.30999999999999	0.0
C 	44.2712186414605	42.59999999999999	0.0
C 	45.5009747148344	43.30999999999999	0.0
C 	46.730730788208305	42.59999999999999	0.0
C 	47.96048686158221	43.30999999999999	0.0
C 	49.19024293495611	42.59999999999999	0.0
C 	50.41999900833001	43.30999999999999	0.0
C 	51.64975508170392	42.599999999999994	0.0
C 	52.879511155077815	43.30999999999999	0.0
C 	54.10926722845172	42.59999999999999	0.0
C 	55.33902330182563	43.30999999999999	0.0
C 	56.568779375199526	42.59999999999999	0.0
C 	57.798535448573425	43.30999999999999	0.0
C 	59.028291521947324	42.59999999999998	0.0
C 	60.258047595321244	43.30999999999999	0.0
C 	61.487803668695136	42.59999999999999	0.0
C 	62.71755974206904	43.30999999999999	0.0
C 	63.94731581544294	42.59999999999999	0.0
C 	65.17707188881684	43.30999999999999	0.0
C 	66.40682796219076	42.599999999999994	0.0
C 	67.63658403556465	43.30999999999999	0.0
C 	68.86634010893856	42.59999999999999	0.0
C 	70.09609618231245	43.30999999999998	0.0
C 	71.32585225568636	42.59999999999999	0.0
C 	72.55560832906026	43.30999999999999	0.0
C 	73.78536440243415	42.59999999999999	0.0
C 	75.01512047580806	43.30999999999999	0.0
C 	76.24487654918197	42.59999999999998	0.0
C 	77.47463262255587	43.30999999999999	0.0
C 	78.70438869592978	42.59999999999999	0.0
C 	79.93414476930367	43.30999999999999	0.0
C 	81.16390084267758	42.59999999999999	0.0
C 	82.39365691605148	43.30999999999999	0.0
C 	83.62341298942539	42.59999999999999	0.0
C 	84.85316906279928	43.30999999999998	0.0
C 	25.82487754085196	44.72999999999999	0.0
C 	27.054633614225864	45.43999999999999	0.0
C 	28.284389687599766	44.72999999999999	0.0
C 	29.514145760973673	45.43999999999999	0.0
C 	30.743901834347568	44.72999999999999	0.0
C 	31.97365790772147	45.43999999999999	0.0
C 	33.20341398109537	44.72999999999999	0.0
C 	34.43317005446928	45.43999999999999	0.0
C 	35.662926127843185	44.72999999999999	0.0
C 	36.892682201217085	45.43999999999999	0.0
C 	38.122438274590984	44.72999999999999	0.0
C 	39.35219434796489	45.43999999999999	0.0
C 	40.581950421338796	44.72999999999999	0.0
C 	41.811706494712695	45.43999999999999	0.0
C 	43.0414625680866	44.72999999999999	0.0
C 	44.27121864146051	45.43999999999999	0.0
C 	45.500974714834406	44.72999999999999	0.0
C 	46.730730788208305	45.43999999999999	0.0
C 	47.960486861582204	44.72999999999999	0.0
C 	49.19024293495611	45.43999999999998	0.0
C 	50.41999900833002	44.72999999999999	0.0
C 	51.64975508170391	45.43999999999998	0.0
C 	52.87951115507782	44.72999999999999	0.0
C 	54.10926722845172	45.43999999999999	0.0
C 	55.33902330182562	44.72999999999998	0.0
C 	56.568779375199526	45.43999999999998	0.0
C 	57.798535448573425	44.72999999999998	0.0
C 	59.02829152194734	45.43999999999999	0.0
C 	60.25804759532124	44.72999999999999	0.0
C 	61.48780366869514	45.43999999999999	0.0
C 	62.717559742069035	44.72999999999998	0.0
C 	63.94731581544294	45.43999999999998	0.0
C 	65.17707188881685	44.72999999999999	0.0
C 	66.40682796219075	45.43999999999998	0.0
C 	67.63658403556465	44.72999999999999	0.0
C 	68.86634010893856	45.43999999999999	0.0
C 	70.09609618231245	44.72999999999999	0.0
C 	71.32585225568636	45.43999999999998	0.0
C 	72.55560832906026	44.72999999999998	0.0
C 	73.78536440243417	45.43999999999999	0.0
C 	75.01512047580806	44.72999999999998	0.0
C 	76.24487654918198	45.43999999999999	0.0
C 	77.47463262255587	44.72999999999999	0.0
C 	78.70438869592978	45.43999999999999	0.0
C 	79.93414476930369	44.72999999999999	0.0
C 	81.16390084267758	45.43999999999998	0.0
C 	82.39365691605148	44.72999999999999	0.0
C 	83.62341298942538	45.43999999999998	0.0
C 	84.8531690627993	44.72999999999998	0.0
C 	86.08292513617319	45.43999999999998	0.0
C 	27.054633614225864	46.85999999999999	0.0
C 	28.28438968759977	47.56999999999999	0.0
C 	29.514145760973673	46.85999999999999	0.0
C 	30.74390183434758	47.56999999999999	0.0
C 	31.973657907721474	46.85999999999999	0.0
C 	33.20341398109538	47.56999999999999	0.0
C 	34.43317005446928	46.85999999999999	0.0
C 	35.662926127843185	47.56999999999999	0.0
C 	36.892682201217085	46.85999999999999	0.0
C 	38.122438274590984	47.56999999999999	0.0
C 	39.35219434796489	46.85999999999999	0.0
C 	40.581950421338796	47.56999999999999	0.0
C 	41.8117064947127	46.85999999999999	0.0
C 	43.0414625680866	47.56999999999999	0.0
C 	44.2712186414605	46.85999999999999	0.0
C 	45.500974714834406	47.56999999999999	0.0
C 	46.73073078820831	46.859999999999985	0.0
C 	47.960486861582204	47.569999999999986	0.0
C 	49.19024293495612	46.85999999999999	0.0
C 	50.41999900833002	47.56999999999999	0.0
C 	51.649755081703915	46.859999999999985	0.0
C 	52.87951115507782	47.569999999999986	0.0
C 	54.10926722845172	46.859999999999985	0.0
C 	55.339023301825634	47.56999999999999	0.0
C 	56.56877937519953	46.85999999999999	0.0
C 	57.79853544857344	47.56999999999999	0.0
C 	59.02829152194733	46.859999999999985	0.0
C 	60.25804759532124	47.569999999999986	0.0
C 	61.48780366869515	46.85999999999999	0.0
C 	62.71755974206904	47.569999999999986	0.0
C 	63.94731581544295	46.85999999999999	0.0
C 	65.17707188881685	47.56999999999999	0.0
C 	66.40682796219075	46.859999999999985	0.0
C 	67.63658403556465	47.569999999999986	0.0
C 	68.86634010893856	46.859999999999985	0.0
C 	70.09609618231246	47.56999999999999	0.0
C 	71.32585225568636	46.859999999999985	0.0
C 	72.55560832906028	47.56999999999999	0.0
C 	73.78536440243417	46.859999999999985	0.0
C 	75.01512047580808	47.569999999999986	0.0
C 	76.24487654918197	46.859999999999985	0.0
C 	77.47463262255587	47.569999999999986	0.0
C 	78.70438869592978	46.85999999999999	0.0
C 	79.93414476930367	47.569999999999986	0.0
C 	81.16390084267758	46.85999999999999	0.0
C 	82.39365691605148	47.56999999999999	0.0
C 	83.62341298942539	46.859999999999985	0.0
C 	84.8531690627993	47.569999999999986	0.0
C 	86.08292513617319	46.85999999999998	0.0
C 	87.31268120954711	47.569999999999986	0.0
C 	28.284389687599763	48.98999999999999	0.0
C 	29.51414576097367	49.69999999999999	0.0
C 	30.74390183434757	48.98999999999999	0.0
C 	31.973657907721478	49.69999999999999	0.0
C 	33.20341398109537	48.98999999999999	0.0
C 	34.43317005446928	49.69999999999999	0.0
C 	35.66292612784318	48.98999999999999	0.0
C 	36.892682201217085	49.69999999999999	0.0
C 	38.122438274590984	48.98999999999999	0.0
C 	39.35219434796488	49.69999999999999	0.0
C 	40.58195042133879	48.98999999999999	0.0
C 	41.811706494712695	49.69999999999999	0.0
C 	43.041462568086594	48.98999999999999	0.0
C 	44.2712186414605	49.69999999999999	0.0
C 	45.5009747148344	48.98999999999999	0.0
C 	46.730730788208305	49.69999999999998	0.0
C 	47.96048686158221	48.98999999999999	0.0
C 	49.1902429349561	49.69999999999998	0.0
C 	50.41999900833002	48.98999999999999	0.0
C 	51.64975508170392	49.69999999999999	0.0
C 	52.879511155077815	48.98999999999999	0.0
C 	54.10926722845172	49.69999999999999	0.0
C 	55.33902330182562	48.98999999999998	0.0
C 	56.56877937519953	49.69999999999999	0.0
C 	57.79853544857343	48.98999999999999	0.0
C 	59.02829152194734	49.69999999999999	0.0
C 	60.25804759532124	48.98999999999999	0.0
C 	61.487803668695136	49.69999999999999	0.0
C 	62.71755974206905	48.98999999999999	0.0
C 	63.94731581544294	49.69999999999998	0.0
C 	65.17707188881685	48.98999999999999	0.0
C 	66.40682796219075	49.69999999999999	0.0
C 	67.63658403556465	48.98999999999999	0.0
C 	68.86634010893856	49.69999999999999	0.0
C 	70.09609618231245	48.98999999999998	0.0
C 	71.32585225568637	49.69999999999999	0.0
C 	72.55560832906025	48.98999999999998	0.0
C 	73.78536440243417	49.69999999999999	0.0
C 	75.01512047580806	48.98999999999999	0.0
C 	76.24487654918197	49.69999999999999	0.0
C 	77.47463262255587	48.98999999999998	0.0
C 	78.70438869592978	49.69999999999998	0.0
C 	79.93414476930369	48.98999999999999	0.0
C 	81.16390084267758	49.69999999999998	0.0
C 	82.39365691605148	48.98999999999999	0.0
C 	83.62341298942539	49.69999999999999	0.0
C 	84.85316906279928	48.98999999999998	0.0
C 	86.08292513617319	49.69999999999998	0.0
C 	87.3126812095471	48.98999999999998	0.0
C 	88.542437282921	49.69999999999999	0.0
C 	29.51414576097367	51.11999999999999	0.0
C 	30.74390183434757	51.82999999999999	0.0
C 	31.973657907721474	51.11999999999999	0.0
C 	33.20341398109538	51.82999999999999	0.0
C 	34.43317005446928	51.11999999999999	0.0
C 	35.66292612784318	51.82999999999999	0.0
C 	36.892682201217085	51.11999999999999	0.0
C 	38.12243827459099	51.82999999999999	0.0
C 	39.35219434796489	51.12	0.0
C 	40.581950421338796	51.83	0.0
C 	41.811706494712695	51.11999999999999	0.0
C 	43.041462568086594	51.82999999999999	0.0
C 	44.2712186414605	51.12	0.0
C 	45.5009747148344	51.82999999999999	0.0
C 	46.73073078820831	51.11999999999999	0.0
C 	47.96048686158221	51.82999999999999	0.0
C 	49.19024293495611	51.11999999999999	0.0
C 	50.41999900833002	51.82999999999999	0.0
C 	51.649755081703915	51.11999999999998	0.0
C 	52.879511155077815	51.829999999999984	0.0
C 	54.10926722845171	51.11999999999999	0.0
C 	55.33902330182563	51.83	0.0
C 	56.568779375199526	51.11999999999999	0.0
C 	57.79853544857343	51.82999999999999	0.0
C 	59.02829152194733	51.11999999999999	0.0
C 	60.25804759532124	51.82999999999999	0.0
C 	61.48780366869514	51.11999999999999	0.0
C 	62.717559742069035	51.829999999999984	0.0
C 	63.94731581544295	51.11999999999999	0.0
C 	65.17707188881685	51.82999999999999	0.0
C 	66.40682796219075	51.11999999999999	0.0
C 	67.63658403556465	51.82999999999999	0.0
C 	68.86634010893854	51.11999999999998	0.0
C 	70.09609618231246	51.82999999999999	0.0
C 	71.32585225568636	51.11999999999999	0.0
C 	72.55560832906026	51.82999999999999	0.0
C 	73.78536440243417	51.11999999999999	0.0
C 	75.01512047580806	51.82999999999999	0.0
C 	76.24487654918198	51.11999999999999	0.0
C 	77.47463262255587	51.829999999999984	0.0
C 	78.70438869592978	51.11999999999999	0.0
C 	79.93414476930367	51.829999999999984	0.0
C 	81.16390084267758	51.11999999999999	0.0
C 	82.39365691605148	51.82999999999999	0.0
C 	83.62341298942538	51.11999999999998	0.0
C 	84.8531690627993	51.82999999999999	0.0
C 	86.08292513617319	51.11999999999998	0.0
C 	87.3126812095471	51.82999999999999	0.0
C 	88.542437282921	51.11999999999998	0.0
C 	89.7721933562949	51.829999999999984	0.0
C 	51.955066860058224	0.7941206248919833	2.15
C 	53.246182134905055	1.3852393499017464	2.15
C 	53.37981593981735	2.798937339638121	2.15
C 	54.67093121466419	3.3900560646478914	2.15
C 	54.80456501957648	4.8037540543842665	2.15
C 	56.09568029442331	5.394872779394038	2.15
C 	56.2293140993356	6.808570769130412	2.15
C 	57.52042937418244	7.399689494140176	2.15
C 	57.65406317909473	8.813387483876552	2.15
C 	58.945178453941566	9.404506208886321	2.15
C 	59.07881225885386	10.818204198622697	2.15
C 	60.369927533700704	11.409322923632468	2.15
C 	60.50356133861299	12.823020913368842	2.15
C 	61.79467661345981	13.414139638378607	2.15
C 	61.92831041837211	14.827837628114983	2.15
C 	63.219425693218945	15.418956353124752	2.15
C 	63.35305949813124	16.832654342861126	2.15
C 	64.64417477297808	17.423773067870897	2.15
C 	64.77780857789037	18.83747105760727	2.15
C 	66.06892385273721	19.428589782617035	2.15
C 	66.20255765764949	20.842287772353412	2.15
C 	48.08172103551771	-0.9792355501373358	2.15
C 	49.37283631036455	-0.3881168251275648	2.15
C 	49.50647011527684	1.0255811646088102	2.15
C 	50.797585390123665	1.6166998896185814	2.15
C 	50.93121919503596	3.030397879354956	2.15
C 	52.2223344698828	3.6215166043647193	2.15
C 	52.35596827479509	5.035214594101094	2.15
C 	53.64708354964193	5.626333319110865	2.15
C 	53.78071735455422	7.04003130884724	2.15
C 	55.071832629401065	7.6311500338570095	2.15
C 	55.20546643431335	9.044848023593385	2.15
C 	56.49658170916018	9.635966748603149	2.15
C 	56.630215514072475	11.049664738339525	2.15
C 	57.92133078891931	11.640783463349296	2.15
C 	58.0549645938316	13.05448145308567	2.15
C 	59.34607986867844	13.64560017809544	2.15
C 	59.47971367359073	15.059298167831816	2.15
C 	60.77082894843756	15.650416892841578	2.15
C 	60.904462753349854	17.064114882577954	2.15
C 	62.19557802819669	17.655233607587725	2.15
C 	62.32921183310898	19.0689315973241	2.15
C 	63.620327107955816	19.66005032233387	2.15
C 	63.75396091286811	21.073748312070247	2.15
C 	65.04507618771494	21.664867037080008	2.15
C 	65.17870999262723	23.078565026816385	2.15
C 	66.46982526747408	23.669683751826145	2.15
C 	66.60345907238637	25.083381741562523	2.15
C 	67.89457434723319	25.6745004665723	2.15
C 	68.02820815214548	27.088198456308675	2.15
C 	69.31932342699234	27.67931718131844	2.15
C 	69.45295723190462	29.093015171054812	2.15
C 	70.74407250675146	29.684133896064576	2.15
C 	70.87770631166376	31.097831885800954	2.15
C 	72.16882158651059	31.68895061081073	2.15
C 	72.30245539142288	33.102648600547106	2.15
C 	73.59357066626971	33.69376732555687	2.15
C 	73.727204471182	35.10746531529324	2.15
C 	75.01831974602882	35.698584040303004	2.15
C 	75.15195355094112	37.11228203003938	2.15
C 	45.63312429073632	-0.7477750104204937	2.15
C 	46.924239565583164	-0.1566562854107307	2.15
C 	47.05787337049546	1.2570417043256443	2.15
C 	48.34898864534229	1.8481604293354146	2.15
C 	48.48262245025458	3.2618584190717894	2.15
C 	49.77373772510142	3.8529771440815606	2.15
C 	49.907371530013705	5.266675133817936	2.15
C 	51.198486804860536	5.8577938588277	2.15
C 	51.33212060977283	7.271491848564075	2.15
C 	52.623235884619675	7.8626105735738445	2.15
C 	52.75686968953196	9.27630856331022	2.15
C 	54.0479849643788	9.86742728831999	2.15
C 	54.18161876929109	11.281125278056365	2.15
C 	55.47273404413794	11.872244003066129	2.15
C 	55.60636784905022	13.285941992802503	2.15
C 	56.89748312389705	13.877060717812276	2.15
C 	57.03111692880934	15.290758707548651	2.15
C 	58.32223220365618	15.88187743255842	2.15
C 	58.45586600856847	17.295575422294796	2.15
C 	59.74698128341531	17.88669414730456	2.15
C 	59.880615088327595	19.300392137040934	2.15
C 	61.17173036317444	19.891510862050705	2.15
C 	61.30536416808673	21.30520885178708	2.15
C 	62.59647944293356	21.89632757679685	2.15
C 	62.73011324784584	23.310025566533227	2.15
C 	64.0212285226927	23.901144291542987	2.15
C 	64.15486232760497	25.314842281279365	2.15
C 	65.44597760245182	25.905961006289125	2.15
C 	65.57961140736411	27.319658996025503	2.15
C 	66.87072668221096	27.91077772103528	2.15
C 	67.00436048712324	29.324475710771654	2.15
C 	68.29547576197008	29.91559443578142	2.15
C 	68.42910956688237	31.329292425517792	2.15
C 	69.72022484172919	31.920411150527556	2.15
C 	69.85385864664148	33.334109140263934	2.15
C 	71.14497392148833	33.92522786527371	2.15
C 	71.27860772640062	35.33892585501008	2.15
C 	72.56972300124745	35.930044580019846	2.15
C 	72.70335680615975	37.34374256975622	2.15
C 	73.99447208100659	37.93486129476599	2.15
C 	74.12810588591887	39.34855928450236	2.15
C 	43.18452754595494	-0.5163144707036675	2.15
C 	44.47564282080178	0.07480425430610341	2.15
C 	44.609276625714074	1.4885022440424784	2.15
C 	45.9003919005609	2.0796209690522423	2.15
C 	46.03402570547319	3.4933189587886178	2.15
C 	47.325140980320036	4.084437683798388	2.15
C 	47.45877478523232	5.498135673534763	2.15
C 	48.74989006007916	6.089254398544533	2.15
C 	48.88352386499145	7.502952388280908	2.15
C 	50.17463913983829	8.094071113290672	2.15
C 	50.30827294475058	9.507769103027046	2.15
C 	51.599388219597415	10.098887828036817	2.15
C 	51.73302202450971	11.512585817773193	2.15
C 	53.024137299356546	12.103704542782964	2.15
C 	53.15777110426883	13.517402532519338	2.15
C 	54.44888637911567	14.108521257529102	2.15
C 	54.58252018402796	15.522219247265477	2.15
C 	55.873635458874794	16.113337972275247	2.15
C 	56.00726926378709	17.527035962011624	2.15
C 	57.298384538633925	18.11815468702139	2.15
C 	57.43201834354621	19.53185267675777	2.15
C 	58.72313361839305	20.122971401767533	2.15
C 	58.85676742330534	21.536669391503906	2.15
C 	60.14788269815218	22.127788116513678	2.15
C 	60.281516503064466	23.54148610625005	2.15
C 	61.572631777911305	24.132604831259822	2.15
C 	61.7062655828236	25.5463028209962	2.15
C 	62.997380857670436	26.13742154600596	2.15
C 	63.13101466258272	27.551119535742338	2.15
C 	64.42212993742956	28.142238260752098	2.15
C 	64.55576374234185	29.555936250488475	2.15
C 	65.84687901718868	30.147054975498254	2.15
C 	65.98051282210098	31.560752965234627	2.15
C 	67.27162809694782	32.15187169024439	2.15
C 	67.40526190186011	33.56556967998077	2.15
C 	68.69637717670693	34.15668840499053	2.15
C 	68.83001098161922	35.5703863947269	2.15
C 	70.12112625646607	36.16150511973668	2.15
C 	70.25476006137836	37.57520310947306	2.15
C 	71.54587533622521	38.16632183448282	2.15
C 	71.67950914113749	39.58001982421919	2.15
C 	72.97062441598433	40.17113854922896	2.15
C 	73.10425822089663	41.584836538965334	2.15
C 	40.73593080117355	-0.2848539309868255	2.15
C 	42.0270460760204	0.30626479402293755	2.15
C 	42.16067988093269	1.7199627837593126	2.15
C 	43.45179515577952	2.3110815087690826	2.15
C 	43.585428960691814	3.7247794985054576	2.15
C 	44.87654423553865	4.315898223515222	2.15
C 	45.01017804045094	5.729596213251597	2.15
C 	46.30129331529777	6.320714938261368	2.15
C 	46.43492712021006	7.734412927997743	2.15
C 	47.72604239505691	8.325531653007513	2.15
C 	47.85967619996919	9.739229642743888	2.15
C 	49.15079147481603	10.33034836775365	2.15
C 	49.284425279728325	11.744046357490026	2.15
C 	50.57554055457517	12.335165082499797	2.15
C 	50.709174359487456	13.74886307223617	2.15
C 	52.00028963433429	14.339981797245942	2.15
C 	52.13392343924658	15.753679786982318	2.15
C 	53.42503871409341	16.34479851199208	2.15
C 	53.558672519005704	17.758496501728455	2.15
C 	54.84978779385254	18.349615226738226	2.15
C 	54.98342159876483	19.7633132164746	2.15
C 	56.27453687361167	20.35443194148437	2.15
C 	56.408170678523966	21.76812993122075	2.15
C 	57.69928595337079	22.359248656230513	2.15
C 	57.832919758283076	23.772946645966886	2.15
C 	59.12403503312992	24.364065370976657	2.15
C 	59.257668838042214	25.77776336071303	2.15
C 	60.54878411288905	26.368882085722802	2.15
C 	60.68241791780134	27.782580075459176	2.15
C 	61.97353319264818	28.37369880046894	2.15
C 	62.107166997560476	29.787396790205314	2.15
C 	63.39828227240731	30.378515515215078	2.15
C 	63.5319160773196	31.792213504951455	2.15
C 	64.82303135216642	32.38333222996123	2.15
C 	64.95666515707872	33.79703021969761	2.15
C 	66.24778043192556	34.38814894470737	2.15
C 	66.38141423683786	35.801846934443745	2.15
C 	67.67252951168469	36.39296565945351	2.15
C 	67.80616331659698	37.806663649189886	2.15
C 	69.09727859144382	38.397782374199664	2.15
C 	69.2309123963561	39.811480363936035	2.15
C 	70.52202767120293	40.4025990889458	2.15
C 	70.65566147611523	41.816297078682176	2.15
C 	71.94677675096207	42.40741580369194	2.15
C 	72.08041055587437	43.82111379342832	2.15
C 	38.287334056392176	-0.05339339126999932	2.15
C 	39.578449331239014	0.5377253337397752	2.15
C 	39.71208313615131	1.9514233234761467	2.15
C 	41.00319841099813	2.542542048485914	2.15
C 	41.136832215910424	3.956240038222286	2.15
C 	42.42794749075727	4.54735876323206	2.15
C 	42.561581295669555	5.961056752968431	2.15
C 	43.85269657051639	6.5521754779781975	2.15
C 	43.986330375428686	7.9658734677145695	2.15
C 	45.277445650275524	8.556992192724344	2.15
C 	45.41107945518781	9.970690182460714	2.15
C 	46.70219473003464	10.561808907470489	2.15
C 	46.835828534946934	11.975506897206861	2.15
C 	48.12694380979377	12.566625622216629	2.15
C 	48.260577614706065	13.980323611952999	2.15
C 	49.5516928895529	14.571442336962773	2.15
C 	49.685326694465196	15.985140326699145	2.15
C 	50.976441969312035	16.576259051708917	2.15
C 	51.11007577422433	17.98995704144529	2.15
C 	52.40119104907116	18.581075766455058	2.15
C 	52.534824853983444	19.994773756191428	2.15
C 	53.82594012883028	20.585892481201203	2.15
C 	53.959573933742575	21.999590470937576	2.15
C 	55.250689208589414	22.590709195947348	2.15
C 	55.3843230135017	24.00440718568372	2.15
C 	56.67543828834854	24.59552591069349	2.15
C 	56.80907209326083	26.00922390042986	2.15
C 	58.10018736810767	26.600342625439634	2.15
C 	58.233821173019955	28.014040615176004	2.15
C 	59.52493644786679	28.605159340185775	2.15
C 	59.658570252779086	30.01885732992215	2.15
C 	60.94968552762592	30.609976054931913	2.15
C 	61.08331933253821	32.02367404466829	2.15
C 	62.374434607385055	32.614792769678054	2.15
C 	62.50806841229734	34.028490759414424	2.15
C 	63.79918368714417	34.6196094844242	2.15
C 	63.932817492056465	36.03330747416058	2.15
C 	65.2239327669033	36.624426199170344	2.15
C 	65.3575665718156	38.03812418890672	2.15
C 	66.64868184666243	38.629242913916485	2.15
C 	66.78231565157472	40.042940903652855	2.15
C 	68.07343092642157	40.634059628662634	2.15
C 	68.20706473133386	42.04775761839901	2.15
C 	69.49818000618068	42.638876343408775	2.15
C 	69.63181381109297	44.05257433314515	2.15
C 	70.92292908593981	44.64369305815491	2.15
C 	71.0565628908521	46.05739104789129	2.15
C 	35.838737311610785	0.1780671484468392	2.15
C 	37.12985258645763	0.7691858734566057	2.15
C 	37.26348639136992	2.182883863192981	2.15
C 	38.554601666216755	2.774002588202751	2.15
C 	38.68823547112905	4.187700577939126	2.15
C 	39.979350745975886	4.77881930294889	2.15
C 	40.11298455088817	6.192517292685265	2.15
C 	41.404099825735	6.783636017695036	2.15
C 	41.537733630647296	8.197334007431412	2.15
C 	42.82884890549414	8.788452732441174	2.15
C 	42.96248271040643	10.20215072217755	2.15
C 	44.253597985253265	10.793269447187319	2.15
C 	44.38723179016556	12.206967436923694	2.15
C 	45.678347065012396	12.798086161933465	2.15
C 	45.81198086992468	14.21178415166984	2.15
C 	47.10309614477151	14.802902876679605	2.15
C 	47.236729949683806	16.21660086641598	2.15
C 	48.527845224530644	16.807719591425748	2.15
C 	48.66147902944294	18.221417581162125	2.15
C 	49.952594304289775	18.812536306171896	2.15
C 	50.08622810920206	20.22623429590827	2.15
C 	51.377343384048906	20.817353020918034	2.15
C 	51.5109771889612	22.231051010654408	2.15
C 	52.80209246380802	22.82216973566418	2.15
C 	52.93572626872031	24.235867725400556	2.15
C 	54.226841543567154	24.826986450410324	2.15
C 	54.36047534847945	26.2406844401467	2.15
C 	55.651590623326285	26.83180316515646	2.15
C 	55.78522442823857	28.24550115489284	2.15
C 	57.07633970308542	28.83661987990261	2.15
C 	57.20997350799771	30.250317869638984	2.15
C 	58.50108878284453	30.841436594648755	2.15
C 	58.63472258775682	32.25513458438513	2.15
C 	59.925837862603665	32.846253309394896	2.15
C 	60.05947166751596	34.25995129913127	2.15
C 	61.35058694236279	34.85107002414103	2.15
C 	61.48422074727508	36.26476801387741	2.15
C 	62.77533602212193	36.855886738887186	2.15
C 	62.90896982703421	38.269584728623556	2.15
C 	64.20008510188106	38.86070345363332	2.15
C 	64.33371890679334	40.2744014433697	2.15
C 	65.62483418164017	40.86552016837946	2.15
C 	65.75846798655246	42.27921815811584	2.15
C 	67.0495832613993	42.87033688312562	2.15
C 	67.18321706631158	44.28403487286199	2.15
C 	68.47433234115843	44.87515359787175	2.15
C 	68.60796614607072	46.28885158760813	2.15
C 	69.89908142091755	46.87997031261789	2.15
C 	33.39014056682941	0.40952768816367596	2.15
C 	34.68125584167625	1.0006464131734434	2.15
C 	34.81488964658854	2.4143444029098187	2.15
C 	36.106004921435364	3.005463127919586	2.15
C 	36.23963872634766	4.419161117655961	2.15
C 	37.5307540011945	5.010279842665732	2.15
C 	37.66438780610679	6.423977832402106	2.15
C 	38.955503080953626	7.015096557411869	2.15
C 	39.08913688586592	8.428794547148245	2.15
C 	40.38025216071276	9.019913272158016	2.15
C 	40.51388596562504	10.43361126189439	2.15
C 	41.805001240471874	11.024729986904154	2.15
C 	41.93863504538417	12.43842797664053	2.15
C 	43.22975032023101	13.0295467016503	2.15
C 	43.3633841251433	14.443244691386674	2.15
C 	44.65449939999014	15.034363416396445	2.15
C 	44.78813320490243	16.44806140613282	2.15
C 	46.07924847974926	17.039180131142583	2.15
C 	46.21288228466155	18.45287812087896	2.15
C 	47.50399755950839	19.043996845888728	2.15
C 	47.63763136442068	20.457694835625105	2.15
C 	48.928746639267516	21.048813560634876	2.15
C 	49.06238044417981	22.46251155037125	2.15
C 	50.35349571902665	23.053630275381014	2.15
C 	50.48712952393893	24.467328265117388	2.15
C 	51.77824479878577	25.05844699012716	2.15
C 	51.911878603698064	26.472144979863536	2.15
C 	53.2029938785449	27.063263704873304	2.15
C 	53.33662768345719	28.47696169460968	2.15
C 	54.627742958304026	29.068080419619445	2.15
C 	54.76137676321632	30.48177840935582	2.15
C 	56.05249203806316	31.07289713436559	2.15
C 	56.18612584297544	32.48659512410197	2.15
C 	57.47724111782228	33.07771384911173	2.15
C 	57.610874922734574	34.49141183884811	2.15
C 	58.901990197581405	35.08253056385787	2.15
C 	59.0356240024937	36.49622855359425	2.15
C 	60.32673927734054	37.087347278604014	2.15
C 	60.46037308225283	38.501045268340384	2.15
C 	61.75148835709966	39.09216399335016	2.15
C 	61.88512216201195	40.50586198308654	2.15
C 	63.1762374368588	41.096980708096304	2.15
C 	63.309871241771084	42.51067869783268	2.15
C 	64.60098651661792	43.10179742284244	2.15
C 	64.7346203215302	44.515495412578815	2.15
C 	66.02573559637705	45.10661413758859	2.15
C 	30.941543822048025	0.6409882278805035	2.15
C 	32.232659096894864	1.2321069528902775	2.15
C 	32.36629290180716	2.6458049426266492	2.15
C 	33.65740817665399	3.236923667636419	2.15
C 	33.79104198156628	4.650621657372791	2.15
C 	35.08215725641312	5.241740382382562	2.15
C 	35.215791061325405	6.655438372118933	2.15
C 	36.506906336172236	7.246557097128708	2.15
C 	36.64054014108453	8.66025508686508	2.15
C 	37.931655415931374	9.251373811874846	2.15
C 	38.06528922084366	10.665071801611218	2.15
C 	39.3564044956905	11.25619052662099	2.15
C 	39.49003830060279	12.669888516357362	2.15
C 	40.78115357544962	13.26100724136713	2.15
C 	40.914787380361915	14.674705231103502	2.15
C 	42.205902655208746	15.265823956113277	2.15
C 	42.33953646012104	16.679521945849647	2.15
C 	43.63065173496788	17.27064067085942	2.15
C 	43.76428553988017	18.68433866059579	2.15
C 	45.05540081472701	19.27545738560556	2.15
C 	45.189034619639294	20.68915537534193	2.15
C 	46.48014989448614	21.280274100351704	2.15
C 	46.61378369939843	22.693972090088078	2.15
C 	47.90489897424526	23.285090815097853	2.15
C 	48.03853277915755	24.698788804834223	2.15
C 	49.32964805400439	25.28990752984399	2.15
C 	49.46328185891668	26.70360551958036	2.15
C 	50.75439713376352	27.294724244590135	2.15
C 	50.888030938675804	28.708422234326505	2.15
C 	52.17914621352265	29.299540959336277	2.15
C 	52.31278001843494	30.71323894907265	2.15
C 	53.60389529328176	31.304357674082418	2.15
C 	53.73752909819405	32.718055663818795	2.15
C 	55.0286443730409	33.309174388828566	2.15
C 	55.16227817795319	34.72287237856494	2.15
C 	56.45339345280002	35.31399110357471	2.15
C 	56.587027257712315	36.727689093311085	2.15
C 	57.87814253255916	37.31880781832084	2.15
C 	58.011776337471446	38.73250580805722	2.15
C 	59.302891612318284	39.32362453306698	2.15
C 	59.43652541723058	40.73732252280336	2.15
C 	60.72764069207741	41.32844124781314	2.15
C 	60.861274496989694	42.742139237549516	2.15
C 	62.15238977183653	43.33325796255927	2.15
C 	62.286023576748825	44.74695595229565	2.15
C 	63.57713885159566	45.338074677305414	2.15
C 	28.49294707726664	0.8724487675973416	2.15
C 	29.78406235211348	1.463567492607108	2.15
C 	29.91769615702577	2.8772654823434833	2.15
C 	31.208811431872604	3.468384207353254	2.15
C 	31.342445236784894	4.8820821970896295	2.15
C 	32.633560511631735	5.473200922099396	2.15
C 	32.76719431654402	6.886898911835771	2.15
C 	34.05830959139085	7.478017636845538	2.15
C 	34.191943396303145	8.891715626581913	2.15
C 	35.48305867114999	9.482834351591684	2.15
C 	35.616692476062276	10.896532341328058	2.15
C 	36.90780775090911	11.487651066337822	2.15
C 	37.0414415558214	12.901349056074197	2.15
C 	38.332556830668246	13.492467781083969	2.15
C 	38.46619063558053	14.906165770820342	2.15
C 	39.75730591042736	15.497284495830106	2.15
C 	39.890939715339655	16.910982485566482	2.15
C 	41.182054990186494	17.502101210576253	2.15
C 	41.31568879509879	18.915799200312627	2.15
C 	42.60680406994562	19.506917925322398	2.15
C 	42.7404378748579	20.92061591505877	2.15
C 	44.03155314970475	21.511734640068536	2.15
C 	44.16518695461704	22.925432629804913	2.15
C 	45.45630222946388	23.51655135481468	2.15
C 	45.589936034376166	24.930249344551058	2.15
C 	46.881051309223004	25.52136806956083	2.15
C 	47.0146851141353	26.935066059297203	2.15
C 	48.305800388982135	27.526184784306967	2.15
C 	48.43943419389442	28.93988277404334	2.15
C 	49.73054946874126	29.53100149905311	2.15
C 	49.86418327365355	30.944699488789485	2.15
C 	51.15529854850039	31.535818213799256	2.15
C 	51.288932353412676	32.94951620353563	2.15
C 	52.580047628259514	33.540634928545394	2.15
C 	52.71368143317181	34.95433291828177	2.15
C 	54.00479670801864	35.54545164329154	2.15
C 	54.13843051293093	36.95914963302791	2.15
C 	55.42954578777777	37.550268358037684	2.15
C 	55.563179592690055	38.96396634777406	2.15
C 	56.85429486753689	39.555085072783825	2.15
C 	56.987928672449186	40.9687830625202	2.15
C 	58.27904394729603	41.55990178752997	2.15
C 	58.41267775220832	42.97359977726634	2.15
C 	59.70379302705515	43.564718502276115	2.15
C 	59.83742683196744	44.97841649201249	2.15
C 	61.12854210681429	45.569535217022256	2.15
C 	24.619601252726127	-0.9009074074319664	2.15
C 	25.910716527572966	-0.3097886824221959	2.15
C 	26.044350332485255	1.1039093073141792	2.15
C 	27.335465607332097	1.6950280323239457	2.15
C 	27.469099412244386	3.108726022060321	2.15
C 	28.76021468709122	3.699844747070088	2.15
C 	28.89384849200351	5.113542736806464	2.15
C 	30.184963766850352	5.704661461816234	2.15
C 	30.31859757176264	7.1183594515526085	2.15
C 	31.609712846609472	7.709478176562376	2.15
C 	31.743346651521765	9.123176166298752	2.15
C 	33.03446192636861	9.714294891308517	2.15
C 	33.16809573128089	11.127992881044893	2.15
C 	34.459211006127724	11.719111606054664	2.15
C 	34.59284481104002	13.13280959579104	2.15
C 	35.88396008588686	13.723928320800802	2.15
C 	36.01759389079915	15.137626310537177	2.15
C 	37.30870916564598	15.728745035546948	2.15
C 	37.44234297055827	17.142443025283324	2.15
C 	38.73345824540511	17.733561750293084	2.15
C 	38.8670920503174	19.14725974002946	2.15
C 	40.158207325164234	19.738378465039233	2.15
C 	40.29184113007652	21.152076454775607	2.15
C 	41.582956404923365	21.743195179785378	2.15
C 	41.71659020983566	23.15689316952175	2.15
C 	43.00770548468249	23.748011894531516	2.15
C 	43.141339289594775	25.161709884267893	2.15
C 	44.43245456444162	25.75282860927766	2.15
C 	44.56608836935391	27.166526599014038	2.15
C 	45.85720364420075	27.757645324023805	2.15
C 	45.99083744911304	29.171343313760183	2.15
C 	47.281952723959876	29.762462038769947	2.15
C 	47.41558652887217	31.17616002850632	2.15
C 	48.706701803719	31.76727875351609	2.15
C 	48.840335608631285	33.180976743252465	2.15
C 	50.13145088347813	33.772095468262236	2.15
C 	50.265084688390424	35.185793457998614	2.15
C 	51.55619996323725	35.77691218300838	2.15
C 	51.68983376814954	37.19061017274475	2.15
C 	52.980949042996386	37.78172889775452	2.15
C 	53.11458284790867	39.195426887490896	2.15
C 	54.4056981227555	39.78654561250067	2.15
C 	54.539331927667796	41.200243602237045	2.15
C 	55.83044720251464	41.79136232724681	2.15
C 	55.96408100742693	43.20506031698318	2.15
C 	57.255196282273765	43.79617904199294	2.15
C 	57.38883008718606	45.20987703172932	2.15
C 	58.679945362032896	45.8009957567391	2.15
C 	22.171004507944744	-0.6694468677151358	2.15
C 	23.462119782791582	-0.07832814270536535	2.15
C 	23.59575358770387	1.3353698470310063	2.15
C 	24.88686886255071	1.9264885720407803	2.15
C 	25.020502667463	3.340186561777152	2.15
C 	26.311617942309837	3.9313052867869223	2.15
C 	26.445251747222127	5.345003276523294	2.15
C 	27.73636702206897	5.9361220015330645	2.15
C 	27.870000826981258	7.3498199912694355	2.15
C 	29.16111610182809	7.94093871627921	2.15
C 	29.294749906740382	9.354636706015581	2.15
C 	30.58586518158722	9.945755431025352	2.15
C 	30.719498986499513	11.359453420761723	2.15
C 	32.01061426134635	11.950572145771494	2.15
C 	32.14424806625863	13.364270135507866	2.15
C 	33.43536334110548	13.95538886051764	2.15
C 	33.568997146017765	15.36908685025401	2.15
C 	34.860112420864596	15.960205575263778	2.15
C 	34.99374622577689	17.373903565000152	2.15
C 	36.28486150062373	17.965022290009923	2.15
C 	36.41849530553602	19.378720279746297	2.15
C 	37.70961058038285	19.969839004756064	2.15
C 	37.84324438529514	21.383536994492435	2.15
C 	39.13435966014198	21.97465571950221	2.15
C 	39.267993465054275	23.38835370923858	2.15
C 	40.559108739901106	23.979472434248354	2.15
C 	40.69274254481339	25.393170423984724	2.15
C 	41.98385781966024	25.984289148994492	2.15
C 	42.11749162457253	27.397987138730866	2.15
C 	43.40860689941937	27.989105863740637	2.15
C 	43.542240704331654	29.40280385347701	2.15
C 	44.83335597917849	29.99392257848678	2.15
C 	44.966989784090785	31.407620568223155	2.15
C 	46.258105058937616	31.99873929323292	2.15
C 	46.39173886384991	33.41243728296929	2.15
C 	47.68285413869675	34.00355600797907	2.15
C 	47.81648794360904	35.41725399771544	2.15
C 	49.10760321845587	36.00837272272521	2.15
C 	49.241237023368164	37.42207071246158	2.15
C 	50.532352298215	38.01318943747135	2.15
C 	50.66598610312729	39.426887427207724	2.15
C 	51.957101377974126	40.0180061522175	2.15
C 	52.09073518288642	41.431704141953865	2.15
C 	53.38185045773326	42.02282286696364	2.15
C 	53.51548426264554	43.436520856700014	2.15
C 	54.80659953749238	44.02763958170978	2.15
C 	54.940233342404674	45.441337571446155	2.15
C 	56.23134861725151	46.03245629645592	2.15
C 	19.72240776316336	-0.4379863279983	2.15
C 	21.0135230380102	0.15313239701146877	2.15
C 	21.147156842922488	1.5668303867478421	2.15
C 	22.438272117769326	2.157949111757611	2.15
C 	22.571905922681616	3.5716471014939843	2.15
C 	23.863021197528454	4.162765826503756	2.15
C 	23.996655002440743	5.57646381624013	2.15
C 	25.287770277287585	6.167582541249899	2.15
C 	25.421404082199874	7.581280530986271	2.15
C 	26.712519357046705	8.17239925599604	2.15
C 	26.846153161959	9.586097245732415	2.15
C 	28.137268436805837	10.177215970742186	2.15
C 	28.27090224171813	11.59091396047856	2.15
C 	29.56201751656496	12.182032685488329	2.15
C 	29.69565132147725	13.5957306752247	2.15
C 	30.98676659632409	14.18684940023447	2.15
C 	31.12040040123638	15.600547389970846	2.15
C 	32.41151567608321	16.191666114980617	2.15
C 	32.545149480995505	17.60536410471699	2.15
C 	33.83626475584234	18.196482829726754	2.15
C 	33.969898560754636	19.610180819463128	2.15
C 	35.26101383560147	20.2012995444729	2.15
C 	35.39464764051375	21.614997534209277	2.15
C 	36.6857629153606	22.206116259219037	2.15
C 	36.81939672027289	23.619814248955414	2.15
C 	38.11051199511972	24.210932973965186	2.15
C 	38.24414580003201	25.62463096370156	2.15
C 	39.53526107487885	26.21574968871133	2.15
C 	39.66889487979115	27.629447678447704	2.15
C 	40.96001015463798	28.220566403457468	2.15
C 	41.09364395955026	29.634264393193845	2.15
C 	42.38475923439711	30.225383118203613	2.15
C 	42.5183930393094	31.63908110793999	2.15
C 	43.80950831415624	32.23019983294976	2.15
C 	43.943142119068526	33.643897822686135	2.15
C 	45.234257393915364	34.2350165476959	2.15
C 	45.36789119882766	35.64871453743228	2.15
C 	46.65900647367448	36.23983326244205	2.15
C 	46.792640278586774	37.65353125217842	2.15
C 	48.08375555343362	38.24464997718819	2.15
C 	48.217389358345905	39.658347966924566	2.15
C 	49.508504633192736	40.24946669193433	2.15
C 	49.64213843810503	41.6631646816707	2.15
C 	50.933253712951874	42.25428340668047	2.15
C 	51.06688751786416	43.66798139641685	2.15
C 	52.35800279271099	44.25910012142662	2.15
C 	52.491636597623284	45.672798111163	2.15
C 	53.78275187247013	46.26391683617276	2.15
C 	17.273811018381977	-0.20652578828146587	2.15
C 	18.564926293228815	0.38459293672830286	2.15
C 	18.698560098141105	1.7982909264646763	2.15
C 	19.989675372987943	2.389409651474445	2.15
C 	20.123309177900232	3.8031076412108185	2.15
C 	21.41442445274707	4.394226366220587	2.15
C 	21.54805825765936	5.807924355956961	2.15
C 	22.839173532506198	6.399043080966733	2.15
C 	22.972807337418487	7.812741070703106	2.15
C 	24.263922612265322	8.403859795712874	2.15
C 	24.397556417177615	9.817557785449248	2.15
C 	25.688671692024453	10.408676510459017	2.15
C 	25.822305496936742	11.822374500195389	2.15
C 	27.113420771783577	12.413493225205162	2.15
C 	27.247054576695867	13.827191214941534	2.15
C 	28.53816985154271	14.418309939951305	2.15
C 	28.671803656454998	15.832007929687679	2.15
C 	29.962918931301832	16.423126654697448	2.15
C 	30.09655273621412	17.83682464443382	2.15
C 	31.387668011060963	18.427943369443593	2.15
C 	31.521301815973253	19.841641359179963	2.15
C 	32.812417090820084	20.43276008418973	2.15
C 	32.94605089573238	21.8464580739261	2.15
C 	34.237166170579215	22.437576798935876	2.15
C 	34.37079997549151	23.85127478867225	2.15
C 	35.66191525033834	24.442393513682017	2.15
C 	35.795549055250625	25.856091503418387	2.15
C 	37.08666433009747	26.447210228428162	2.15
C 	37.22029813500976	27.860908218164532	2.15
C 	38.511413409856594	28.452026943174307	2.15
C 	38.64504721476888	29.865724932910677	2.15
C 	39.936162489615725	30.456843657920448	2.15
C 	40.06979629452802	31.870541647656815	2.15
C 	41.36091156937485	32.461660372666586	2.15
C 	41.49454537428714	33.87535836240296	2.15
C 	42.78566064913398	34.46647708741274	2.15
C 	42.91929445404627	35.880175077149104	2.15
C 	44.210409728893104	36.471293802158876	2.15
C 	44.3440435338054	37.884991791895246	2.15
C 	45.635158808652236	38.47611051690502	2.15
C 	45.76879261356452	39.889808506641394	2.15
C 	47.05990788841136	40.48092723165117	2.15
C 	47.19354169332365	41.894625221387535	2.15
C 	48.48465696817049	42.48574394639731	2.15
C 	48.61829077308278	43.89944193613368	2.15
C 	49.909406047929615	44.49056066114345	2.15
C 	50.04303985284191	45.90425865087982	2.15
C 	51.334155127688746	46.495377375889596	2.15
C 	14.825214273600595	0.024934751435368246	2.15
C 	16.116329548447432	0.6160534764451387	2.15
C 	16.24996335335972	2.029751466181512	2.15
C 	17.54107862820656	2.620870191191281	2.15
C 	17.67471243311885	4.034568180927654	2.15
C 	18.965827707965687	4.625686905937423	2.15
C 	19.099461512877976	6.0393848956737965	2.15
C 	20.39057678772481	6.630503620683565	2.15
C 	20.524210592637104	8.044201610419938	2.15
C 	21.81532586748394	8.63532033542971	2.15
C 	21.94895967239623	10.049018325166085	2.15
C 	23.24007494724307	10.640137050175852	2.15
C 	23.373708752155363	12.053835039912226	2.15
C 	24.664824027002194	12.644953764921995	2.15
C 	24.798457831914483	14.058651754658369	2.15
C 	26.089573106761325	14.649770479668138	2.15
C 	26.223206911673614	16.063468469404512	2.15
C 	27.51432218652045	16.654587194414283	2.15
C 	27.647955991432738	18.068285184150657	2.15
C 	28.93907126627958	18.65940390916042	2.15
C 	29.07270507119187	20.073101898896798	2.15
C 	30.363820346038704	20.66422062390657	2.15
C 	30.497454150950993	22.077918613642943	2.15
C 	31.78856942579783	22.669037338652707	2.15
C 	31.922203230710124	24.08273532838908	2.15
C 	33.213318505556956	24.673854053398852	2.15
C 	33.34695231046925	26.08755204313523	2.15
C 	34.63806758531609	26.67867076814499	2.15
C 	34.77170139022838	28.092368757881367	2.15
C 	36.06281666507521	28.683487482891138	2.15
C 	36.1964504699875	30.097185472627512	2.15
C 	37.48756574483434	30.688304197637283	2.15
C 	37.621199549746635	32.10200218737366	2.15
C 	38.91231482459346	32.69312091238342	2.15
C 	39.04594862950575	34.1068189021198	2.15
C 	40.3370639043526	34.69793762712957	2.15
C 	40.47069770926489	36.11163561686594	2.15
C 	41.76181298411172	36.70275434187571	2.15
C 	41.895446789024014	38.11645233161209	2.15
C 	43.18656206387085	38.70757105662185	2.15
C 	43.32019586878314	40.12126904635823	2.15
C 	44.61131114362997	40.712387771368	2.15
C 	44.74494494854226	42.12608576110437	2.15
C 	46.03606022338911	42.71720448611414	2.15
C 	46.16969402830139	44.13090247585052	2.15
C 	47.460809303148224	44.72202120086028	2.15
C 	47.59444310806052	46.13571919059665	2.15
C 	48.88555838290736	46.726837915606424	2.15
C 	12.37661752881921	0.25639529115220255	2.15
C 	13.667732803666048	0.8475140161619729	2.15
C 	13.801366608578338	2.2612120058983463	2.15
C 	15.092481883425176	2.852330730908117	2.15
C 	15.226115688337465	4.26602872064449	2.15
C 	16.517230963184304	4.857147445654259	2.15
C 	16.650864768096593	6.270845435390632	2.15
C 	17.94198004294343	6.861964160400401	2.15
C 	18.07561384785572	8.275662150136775	2.15
C 	19.366729122702555	8.866780875146542	2.15
C 	19.500362927614848	10.280478864882916	2.15
C 	20.791478202461683	10.871597589892689	2.15
C 	20.925112007373976	12.285295579629063	2.15
C 	22.21622728222081	12.87641430463883	2.15
C 	22.3498610871331	14.290112294375202	2.15
C 	23.640976361979938	14.881231019384973	2.15
C 	23.774610166892227	16.294929009121347	2.15
C 	25.065725441739065	16.886047734131118	2.15
C 	25.199359246651355	18.299745723867495	2.15
C 	26.490474521498193	18.89086444887726	2.15
C 	26.624108326410482	20.304562438613633	2.15
C 	27.91522360125732	20.895681163623404	2.15
C 	28.04885740616961	22.309379153359778	2.15
C 	29.339972681016448	22.90049787836955	2.15
C 	29.473606485928737	24.314195868105923	2.15
C 	30.764721760775572	24.905314593115687	2.15
C 	30.898355565687865	26.31901258285206	2.15
C 	32.1894708405347	26.910131307861832	2.15
C 	32.32310464544699	28.32382929759821	2.15
C 	33.61421992029383	28.91494802260797	2.15
C 	33.74785372520612	30.328646012344347	2.15
C 	35.03896900005296	30.919764737354118	2.15
C 	35.172602804965244	32.33346272709049	2.15
C 	36.46371807981208	32.92458145210026	2.15
C 	36.59735188472437	34.33827944183664	2.15
C 	37.88846715957121	34.929398166846404	2.15
C 	38.022100964483506	36.343096156582774	2.15
C 	39.31321623933034	36.934214881592546	2.15
C 	39.44685004424263	38.34791287132892	2.15
C 	40.73796531908947	38.939031596338694	2.15
C 	40.871599124001754	40.352729586075064	2.15
C 	42.16271439884859	40.94384831108483	2.15
C 	42.296348203760886	42.357546300821205	2.15
C 	43.587463478607724	42.94866502583098	2.15
C 	43.72109728352001	44.362363015567354	2.15
C 	45.01221255836685	44.95348174057712	2.15
C 	9.928020784037827	0.48785583086903667	2.15
C 	11.219136058884663	1.0789745558788055	2.15
C 	11.352769863796953	2.4926725456151786	2.15
C 	12.643885138643792	3.0837912706249493	2.15
C 	12.777518943556082	4.497489260361323	2.15
C 	14.068634218402918	5.088607985371093	2.15
C 	14.20226802331521	6.5023059751074666	2.15
C 	15.493383298162046	7.093424700117235	2.15
C 	15.627017103074337	8.507122689853608	2.15
C 	16.91813237792117	9.098241414863377	2.15
C 	17.051766182833465	10.511939404599751	2.15
C 	18.3428814576803	11.103058129609519	2.15
C 	18.47651526259259	12.516756119345892	2.15
C 	19.767630537439427	13.107874844355665	2.15
C 	19.901264342351716	14.521572834092037	2.15
C 	21.192379617198554	15.112691559101807	2.15
C 	21.326013422110844	16.526389548838182	2.15
C 	22.617128696957682	17.11750827384795	2.15
C 	22.75076250186997	18.53120626358432	2.15
C 	24.04187777671681	19.122324988594094	2.15
C 	24.1755115816291	20.536022978330465	2.15
C 	25.466626856475937	21.127141703340236	2.15
C 	25.600260661388226	22.540839693076613	2.15
C 	26.891375936235065	23.13195841808638	2.15
C 	27.025009741147354	24.54565640782275	2.15
C 	28.31612501599419	25.136775132832526	2.15
C 	28.44975882090648	26.550473122568896	2.15
C 	29.740874095753316	27.141591847578663	2.15
C 	29.874507900665606	28.555289837315033	2.15
C 	31.165623175512444	29.146408562324808	2.15
C 	31.299256980424733	30.560106552061182	2.15
C 	32.590372255271575	31.15122527707095	2.15
C 	32.72400606018386	32.56492326680732	2.15
C 	34.0151213350307	33.15604199181709	2.15
C 	34.14875513994299	34.56973998155347	2.15
C 	35.43987041478982	35.16085870656324	2.15
C 	35.573504219702116	36.57455669629961	2.15
C 	36.86461949454895	37.16567542130938	2.15
C 	36.99825329946124	38.57937341104575	2.15
C 	38.289368574308085	39.17049213605552	2.15
C 	38.42300237922037	40.58419012579189	2.15
C 	39.71411765406721	41.17530885080167	2.15
C 	39.8477514589795	42.58900684053804	2.15
C 	41.13886673382634	43.18012556554781	2.15
C 	41.272500538738626	44.59382355528418	2.15
C 	42.56361581358546	45.184942280293946	2.15
C 	7.479424039256442	0.7193163705858708	2.15
C 	8.77053931410328	1.3104350955956405	2.15
C 	8.904173119015569	2.7241330853320136	2.15
C 	10.195288393862405	3.3152518103417825	2.15
C 	10.328922198774697	4.728949800078156	2.15
C 	11.620037473621535	5.320068525087926	2.15
C 	11.753671278533826	6.7337665148243	2.15
C 	13.044786553380662	7.324885239834069	2.15
C 	13.178420358292954	8.738583229570445	2.15
C 	14.46953563313979	9.32970195458021	2.15
C 	14.60316943805208	10.743399944316586	2.15
C 	15.894284712898916	11.334518669326354	2.15
C 	16.02791851781121	12.748216659062729	2.15
C 	17.319033792658043	13.339335384072495	2.15
C 	17.452667597570333	14.75303337380887	2.15
C 	18.74378287241717	15.344152098818642	2.15
C 	18.87741667732946	16.757850088555017	2.15
C 	20.1685319521763	17.348968813564785	2.15
C 	20.302165757088588	18.76266680330116	2.15
C 	21.593281031935426	19.353785528310926	2.15
C 	21.726914836847715	20.7674835180473	2.15
C 	23.018030111694554	21.35860224305707	2.15
C 	23.151663916606843	22.772300232793445	2.15
C 	24.44277919145368	23.363418957803212	2.15
C 	24.57641299636597	24.77711694753959	2.15
C 	25.867528271212805	25.368235672549357	2.15
C 	26.001162076125098	26.78193366228573	2.15
C 	27.292277350971933	27.373052387295502	2.15
C 	27.425911155884226	28.786750377031876	2.15
C 	28.71702643073106	29.37786910204164	2.15
C 	28.85066023564335	30.791567091778013	2.15
C 	30.141775510490188	31.382685816787784	2.15
C 	30.275409315402477	32.79638380652416	2.15
C 	31.566524590249315	33.387502531533926	2.15
C 	31.700158395161605	34.801200521270296	2.15
C 	32.99127367000844	35.39231924628007	2.15
C 	33.12490747492073	36.806017236016444	2.15
C 	34.41602274976757	37.397135961026216	2.15
C 	34.54965655467986	38.81083395076259	2.15
C 	35.840771829526695	39.40195267577236	2.15
C 	35.97440563443899	40.81565066550873	2.15
C 	37.265520909285826	41.4067693905185	2.15
C 	37.39915471419812	42.820467380254875	2.15
C 	38.69026998904496	43.41158610526465	2.15
C 	38.82390379395724	44.82528409500102	2.15
C 	40.11501906880408	45.41640282001078	2.15
C 	5.030827294475058	0.9507769103027051	2.15
C 	6.321942569321896	1.5418956353124746	2.15
C 	6.4555763742341865	2.9555936250488477	2.15
C 	7.746691649081023	3.5467123500586175	2.15
C 	7.880325453993313	4.960410339794991	2.15
C 	9.17144072884015	5.551529064804759	2.15
C 	9.30507453375244	6.965227054541133	2.15
C 	10.596189808599277	7.556345779550903	2.15
C 	10.729823613511568	8.970043769287276	2.15
C 	12.020938888358405	9.561162494297047	2.15
C 	12.154572693270694	10.974860484033421	2.15
C 	13.445687968117532	11.56597920904319	2.15
C 	13.579321773029822	12.979677198779562	2.15
C 	14.870437047876658	13.570795923789332	2.15
C 	15.00407085278895	14.984493913525705	2.15
C 	16.295186127635787	15.575612638535475	2.15
C 	16.428819932548077	16.98931062827185	2.15
C 	17.71993520739491	17.58042935328162	2.15
C 	17.853569012307204	18.994127343017993	2.15
C 	19.144684287154043	19.58524606802776	2.15
C 	19.278318092066332	20.998944057764135	2.15
C 	20.56943336691317	21.590062782773906	2.15
C 	20.70306717182546	23.003760772510276	2.15
C 	21.994182446672298	23.59487949752005	2.15
C 	22.127816251584587	25.00857748725642	2.15
C 	23.41893152643142	25.59969621226619	2.15
C 	23.552565331343715	27.013394202002566	2.15
C 	24.84368060619055	27.604512927012333	2.15
C 	24.977314411102842	29.018210916748707	2.15
C 	26.268429685949677	29.60932964175848	2.15
C 	26.40206349086197	31.023027631494855	2.15
C 	27.693178765708804	31.61414635650462	2.15
C 	27.826812570621094	33.027844346241	2.15
C 	29.117927845467932	33.61896307125077	2.15
C 	29.25156165038022	35.03266106098713	2.15
C 	30.54267692522706	35.6237797859969	2.15
C 	30.67631073013935	37.03747777573327	2.15
C 	31.967426004986187	37.62859650074305	2.15
C 	32.10105980989848	39.04229449047942	2.15
C 	33.39217508474531	39.63341321548919	2.15
C 	33.525808889657604	41.04711120522556	2.15
C 	34.81692416450444	41.63822993023533	2.15
C 	34.95055796941673	43.0519279199717	2.15
C 	36.24167324426357	43.64304664498148	2.15
C 	36.37530704917586	45.05674463471785	2.15
C 	37.6664223240227	45.64786335972762	2.15
C 	2.448596744781384	-0.23146053971683417	2.15
C 	2.582230549693674	1.1822374500195392	2.15
C 	3.8733458245405115	1.7733561750293088	2.15
C 	4.006979629452802	3.1870541647656823	2.15
C 	5.298094904299639	3.7781728897754516	2.15
C 	5.431728709211929	5.191870879511825	2.15
C 	6.722843984058766	5.782989604521595	2.15
C 	6.856477788971056	7.196687594257968	2.15
C 	8.147593063817894	7.787806319267737	2.15
C 	8.281226868730183	9.20150430900411	2.15
C 	9.572342143577021	9.79262303401388	2.15
C 	9.70597594848931	11.206321023750254	2.15
C 	10.997091223336149	11.797439748760025	2.15
C 	11.130725028248438	13.211137738496397	2.15
C 	12.421840303095275	13.802256463506167	2.15
C 	12.555474108007566	15.215954453242539	2.15
C 	13.846589382854402	15.80707317825231	2.15
C 	13.980223187766692	17.22077116798868	2.15
C 	15.27133846261353	17.81188989299845	2.15
C 	15.40497226752582	19.225587882734825	2.15
C 	16.696087542372656	19.816706607744596	2.15
C 	16.82972134728495	21.23040459748097	2.15
C 	18.120836622131787	21.82152332249074	2.15
C 	18.254470427044076	23.23522131222711	2.15
C 	19.545585701890914	23.826340037236882	2.15
C 	19.679219506803204	25.240038026973252	2.15
C 	20.97033478165004	25.831156751983027	2.15
C 	21.10396858656233	27.244854741719397	2.15
C 	22.395083861409166	27.83597346672917	2.15
C 	22.52871766632146	29.249671456465542	2.15
C 	23.819832941168293	29.84079018147531	2.15
C 	23.953466746080583	31.254488171211683	2.15
C 	25.24458202092742	31.845606896221454	2.15
C 	25.37821582583971	33.25930488595783	2.15
C 	26.66933110068655	33.85042361096759	2.15
C 	26.802964905598838	35.264121600703966	2.15
C 	28.094080180445676	35.85524032571374	2.15
C 	28.227713985357965	37.268938315450114	2.15
C 	29.518829260204804	37.86005704045988	2.15
C 	29.652463065117093	39.27375503019625	2.15
C 	30.943578339963928	39.86487375520602	2.15
C 	31.07721214487622	41.2785717449424	2.15
C 	32.36832741972306	41.86969046995217	2.15
C 	32.501961224635345	43.283388459688545	2.15
C 	33.79307649948218	43.87450718469831	2.15
C 	33.926710304394476	45.28820517443468	2.15
C 	35.217825579241314	45.87932389944445	2.15
C 	1.4247490797591273	2.004816714746143	2.15
C 	1.5583828846714176	3.4185147044825164	2.15
C 	2.8494981595182547	4.009633429492286	2.15
C 	2.983131964430545	5.423331419228659	2.15
C 	4.274247239277383	6.014450144238429	2.15
C 	4.407881044189673	7.428148133974802	2.15
C 	5.698996319036509	8.019266858984572	2.15
C 	5.8326301239488	9.432964848720946	2.15
C 	7.123745398795636	10.024083573730714	2.15
C 	7.257379203707926	11.437781563467087	2.15
C 	8.548494478554765	12.028900288476859	2.15
C 	8.682128283467055	13.44259827821323	2.15
C 	9.973243558313891	14.033717003223002	2.15
C 	10.106877363226182	15.447414992959374	2.15
C 	11.397992638073019	16.038533717969145	2.15
C 	11.53162644298531	17.45223170770552	2.15
C 	12.822741717832146	18.043350432715286	2.15
C 	12.956375522744436	19.457048422451656	2.15
C 	14.247490797591272	20.048167147461427	2.15
C 	14.381124602503563	21.461865137197805	2.15
C 	15.6722398773504	22.052983862207572	2.15
C 	15.80587368226269	23.46668185194395	2.15
C 	17.09698895710953	24.057800576953717	2.15
C 	17.23062276202182	25.471498566690087	2.15
C 	18.521738036868655	26.06261729169986	2.15
C 	18.655371841780948	27.476315281436232	2.15
C 	19.946487116627782	28.067434006446003	2.15
C 	20.080120921540075	29.481131996182377	2.15
C 	21.37123619638691	30.072250721192145	2.15
C 	21.5048700012992	31.48594871092852	2.15
C 	22.795985276146038	32.07706743593829	2.15
C 	22.929619081058327	33.49076542567466	2.15
C 	24.220734355905165	34.08188415068443	2.15
C 	24.354368160817454	35.49558214042081	2.15
C 	25.645483435664293	36.08670086543057	2.15
C 	25.779117240576582	37.50039885516695	2.15
C 	27.07023251542342	38.09151758017672	2.15
C 	27.20386632033571	39.50521556991309	2.15
C 	28.494981595182544	40.096334294922855	2.15
C 	28.628615400094837	41.51003228465923	2.15
C 	29.919730674941672	42.101151009669	2.15
C 	30.053364479853965	43.51484899940537	2.15
C 	31.3444797547008	44.105967724415144	2.15
C 	31.478113559613092	45.51966571415152	2.15
C 	32.76922883445993	46.110784439161286	2.15
C 	13.223643132569016	22.284444401924404	2.15
C 	13.357276937481307	23.69814239166078	2.15
C 	14.648392212328144	24.28926111667055	2.15
C 	14.782026017240435	25.702959106406926	2.15
C 	16.07314129208727	26.294077831416693	2.15
C 	16.206775096999564	27.707775821153067	2.15
C 	17.4978903718464	28.298894546162835	2.15
C 	17.631524176758692	29.71259253589921	2.15
C 	18.922639451605527	30.30371126090898	2.15
C 	19.056273256517816	31.71740925064535	2.15
C 	20.347388531364654	32.308527975655124	2.15
C 	20.481022336276943	33.722225965391495	2.15
C 	21.77213761112378	34.313344690401266	2.15
C 	21.90577141603607	35.727042680137636	2.15
C 	23.19688669088291	36.318161405147414	2.15
C 	23.3305204957952	37.731859394883784	2.15
C 	24.621635770642037	38.32297811989355	2.15
C 	24.755269575554326	39.73667610962992	2.15
C 	26.046384850401164	40.3277948346397	2.15
C 	26.180018655313454	41.74149282437607	2.15
C 	27.47113393016029	42.33261154938584	2.15
C 	27.60476773507258	43.7463095391222	2.15
C 	28.895883009919416	44.33742826413198	2.15
C 	29.029516814831705	45.75112625386835	2.15
C 	30.320632089678544	46.34224497887813	2.15
C 	25.022537185378905	42.56407208910267	2.15
C 	25.156170990291198	43.97777007883904	2.15
C 	26.447286265138032	44.56888880384881	2.15
C 	26.580920070050322	45.982586793585185	2.15
C 	27.87203534489716	46.573705518594956	2.15
H 	51.85248879854105	-0.2910419165253747	2.15
H 	54.13467143224918	0.7538228720482192	2.15
H 	55.55942051200832	2.758639586794378	2.15
H 	56.98416959176743	4.763456301540514	2.15
H 	58.408918671526564	6.7682730162866545	2.15
H 	59.83366775128569	8.773089731032798	2.15
H 	61.25841683104483	10.777906445778955	2.15
H 	62.683165910803936	12.782723160525082	2.15
H 	64.10791499056307	14.787539875271232	2.15
H 	65.5326640703222	16.792356590017377	2.15
H 	66.95741315008134	18.79717330476352	2.15
H 	67.1936250165108	21.296033835917257	2.15
H 	47.979142974000524	-2.064398091554693	2.15
H 	50.26132560770867	-1.0195333029810878	2.15
H 	67.3583145648182	23.038267273972625	2.15
H 	68.78306364457731	25.043083988718784	2.15
H 	70.20781272433648	27.047900703464933	2.15
H 	71.63256180409559	29.05271741821105	2.15
H 	73.05731088385471	31.05753413295721	2.15
H 	74.48205996361384	33.06235084770335	2.15
H 	75.90680904337293	35.06716756244946	2.15
H 	76.14302090980242	37.56602809360323	2.15
H 	45.53054622921913	-1.8329375518378497	2.15
H 	75.11917324478017	39.802305348066206	2.15
H 	43.08194948443776	-1.6014770121210247	2.15
H 	74.09532557975793	42.038582602529175	2.15
H 	40.63335273965636	-1.3700164724041815	2.15
H 	73.07147791473567	44.274859856992165	2.15
H 	38.18475599487499	-1.1385559326873564	2.15
H 	72.04763024971341	46.51113711145513	2.15
H 	35.73615925009359	-0.9070953929705168	2.15
H 	67.7194768487266	46.920268065461656	2.15
H 	70.00165948243473	47.965132854035254	2.15
H 	33.28756250531222	-0.6756348532536811	2.15
H 	66.12831365789424	46.19177667900595	2.15
H 	30.838965760530844	-0.44417431353685366	2.15
H 	63.679716913112856	46.42323721872277	2.15
H 	28.39036901574945	-0.2127137738200151	2.15
H 	61.23112016833148	46.65469775843961	2.15
H 	24.517023191208946	-1.9860699488493236	2.15
H 	26.79920582491709	-0.9412051602757144	2.15
H 	58.782523423550074	46.88615829815645	2.15
H 	22.068426446427562	-1.754609409132493	2.15
H 	56.3339266787687	47.11761883787327	2.15
H 	19.61982970164618	-1.5231488694156572	2.15
H 	53.88532993398732	47.349079377590115	2.15
H 	17.171232956864795	-1.291688329698823	2.15
H 	51.43673318920594	47.58053991730695	2.15
H 	14.722636212083415	-1.0602277899819894	2.15
H 	46.70595381071639	46.767135668450166	2.15
H 	48.988136444424555	47.81200045702378	2.15
H 	12.274039467302028	-0.8287672502651546	2.15
H 	45.11479061988403	46.03864428199447	2.15
H 	9.825442722520647	-0.5973067105483207	2.15
H 	42.66619387510263	46.27010482171131	2.15
H 	7.376845977739261	-0.3658461708314865	2.15
H 	40.217597130321266	46.501565361428135	2.15
H 	4.928249232957877	-0.13438563111465207	2.15
H 	37.76900038553988	46.73302590114498	2.15
H 	35.3204036407585	46.964486440861805	2.15
H 	0.4336817208978224	1.5510706511823058	2.15
H 	0.6698935873272933	4.049931182336036	2.15
H 	2.09464266708642	6.054747897082178	2.15
H 	3.5193917468455482	8.059564611828321	2.15
H 	4.944140826604677	10.064381326574468	2.15
H 	6.368889906363801	12.069198041320606	2.15
H 	7.7936389861229305	14.07401475606675	2.15
H 	9.218388065882056	16.07883147081289	2.15
H 	10.643137145641187	18.08364818555904	2.15
H 	12.06788622540031	20.088464900305173	2.15
H 	32.871806895977116	47.19594698057864	2.15
H 	12.232575773707714	21.830698338360563	2.15
H 	12.468787640137187	24.329558869514305	2.15
H 	13.893536719896312	26.334375584260446	2.15
H 	15.318285799655444	28.33919229900659	2.15
H 	16.74303487941457	30.34400901375273	2.15
H 	18.167783959173686	32.348825728498866	2.15
H 	19.592533038932817	34.35364244324501	2.15
H 	21.017282118691945	36.358459157991156	2.15
H 	22.442031198451076	38.363275872737304	2.15
H 	23.8667802782102	40.36809258748344	2.15
H 	30.42321015119572	47.42740752029549	2.15
H 	24.031469826517597	42.11032602553884	2.15
H 	24.26768169294708	44.60918655669257	2.15
H 	25.692430772706203	46.61400327143871	2.15
H 	27.974613406414342	47.65886806001231	2.15
