2316

C 	0.0	0.0	0.0
C 	1.2297560733739028	0.7099999999999999	0.0
C 	2.4595121467478056	-2.3647750424515833e-16	0.0
C 	3.689268220121708	0.7099999999999995	0.0
C 	4.919024293495611	-4.729550084903167e-16	0.0
C 	6.148780366869514	0.7099999999999993	0.0
C 	7.378536440243416	-7.09432512735475e-16	0.0
C 	8.60829251361732	0.7099999999999991	0.0
C 	9.838048586991222	-9.459100169806333e-16	0.0
C 	11.067804660365125	0.7099999999999989	0.0
C 	12.297560733739026	-1.1823875212257916e-15	0.0
C 	13.527316807112928	0.7099999999999986	0.0
C 	14.757072880486833	-1.41886502547095e-15	0.0
C 	15.986828953860735	0.7099999999999984	0.0
C 	17.21658502723464	-7.671641100159832e-16	0.0
C 	18.44634110060854	0.7099999999999982	0.0
C 	19.676097173982445	-1.8918200339612667e-15	0.0
C 	20.905853247356347	0.7099999999999989	0.0
C 	22.135609320730246	-2.128297538206425e-15	0.0
C 	23.36536539410415	0.7099999999999967	0.0
C 	24.59512146747805	-2.364775042451583e-15	0.0
C 	25.824877540851954	0.7099999999999983	0.0
C 	27.05463361422586	-8.248957072964913e-16	0.0
C 	28.284389687599763	0.7099999999999999	0.0
C 	29.514145760973665	-2.8377300509419e-15	0.0
C 	30.743901834347565	0.7099999999999961	0.0
C 	31.97365790772147	-3.0742075551870582e-15	0.0
C 	33.20341398109537	0.7099999999999976	0.0
C 	34.43317005446928	-1.5343282200319664e-15	0.0
C 	35.66292612784318	0.7099999999999992	0.0
C 	36.892682201217085	-1.7708057242771246e-15	0.0
C 	38.122438274590984	0.7099999999999972	0.0
C 	39.35219434796489	-3.783640067922533e-15	0.0
C 	40.58195042133879	0.7099999999999969	0.0
C 	41.811706494712695	-4.67403893367191e-16	0.0
C 	43.0414625680866	0.7100000000000002	0.0
C 	44.27121864146049	-4.25659507641285e-15	0.0
C 	45.5009747148344	0.7099999999999964	0.0
C 	46.730730788208305	-9.403589018575075e-16	0.0
C 	47.96048686158221	0.7099999999999997	0.0
C 	49.1902429349561	-4.729550084903166e-15	0.0
C 	50.41999900833001	0.709999999999996	0.0
C 	51.64975508170391	-1.413313910347824e-15	0.0
C 	52.879511155077815	0.7099999999999993	0.0
C 	54.10926722845172	-1.6497914145929826e-15	0.0
C 	55.33902330182562	0.7099999999999991	0.0
C 	56.56877937519952	-5.438982597638641e-15	0.0
C 	57.798535448573425	0.7099999999999953	0.0
C 	59.02829152194733	-5.6754601018838e-15	0.0
C 	60.25804759532124	0.709999999999995	0.0
C 	1.2297560733739028	2.1299999999999994	0.0
C 	2.4595121467478056	2.8399999999999994	0.0
C 	3.689268220121708	2.1299999999999994	0.0
C 	4.919024293495611	2.8399999999999994	0.0
C 	6.148780366869514	2.129999999999999	0.0
C 	7.378536440243416	2.839999999999999	0.0
C 	8.60829251361732	2.1299999999999986	0.0
C 	9.838048586991222	2.8399999999999985	0.0
C 	11.067804660365123	2.129999999999998	0.0
C 	12.297560733739028	2.839999999999999	0.0
C 	13.527316807112928	2.1299999999999977	0.0
C 	14.757072880486833	2.839999999999998	0.0
C 	15.986828953860735	2.129999999999998	0.0
C 	17.216585027234636	2.839999999999997	0.0
C 	18.446341100608542	2.129999999999998	0.0
C 	19.676097173982445	2.8399999999999985	0.0
C 	20.905853247356344	2.1299999999999977	0.0
C 	22.13560932073025	2.8399999999999985	0.0
C 	23.36536539410415	2.129999999999997	0.0
C 	24.595121467478055	2.839999999999997	0.0
C 	25.824877540851954	2.1299999999999963	0.0
C 	27.05463361422586	2.839999999999997	0.0
C 	28.284389687599763	2.129999999999998	0.0
C 	29.514145760973665	2.8399999999999985	0.0
C 	30.743901834347568	2.129999999999996	0.0
C 	31.97365790772147	2.8399999999999967	0.0
C 	33.20341398109537	2.129999999999996	0.0
C 	34.43317005446928	2.8399999999999963	0.0
C 	35.66292612784318	2.1299999999999972	0.0
C 	36.89268220121708	2.8399999999999963	0.0
C 	38.122438274590984	2.129999999999997	0.0
C 	39.35219434796489	2.8399999999999976	0.0
C 	40.58195042133879	2.1299999999999986	0.0
C 	41.81170649471269	2.839999999999996	0.0
C 	43.0414625680866	2.129999999999998	0.0
C 	44.2712186414605	2.8399999999999954	0.0
C 	45.5009747148344	2.129999999999998	0.0
C 	46.7307307882083	2.8399999999999954	0.0
C 	47.96048686158221	2.1299999999999977	0.0
C 	49.19024293495611	2.839999999999995	0.0
C 	50.41999900833001	2.1299999999999977	0.0
C 	51.64975508170391	2.8399999999999945	0.0
C 	52.879511155077815	2.1299999999999972	0.0
C 	54.10926722845171	2.8399999999999945	0.0
C 	55.33902330182563	2.130000000000001	0.0
C 	56.56877937519952	2.8399999999999976	0.0
C 	57.798535448573425	2.129999999999997	0.0
C 	59.028291521947324	2.839999999999994	0.0
C 	60.25804759532124	2.129999999999997	0.0
C 	61.487803668695136	2.8399999999999936	0.0
C 	2.4595121467478056	4.259999999999999	0.0
C 	3.689268220121708	4.969999999999999	0.0
C 	4.919024293495611	4.259999999999999	0.0
C 	6.148780366869514	4.969999999999999	0.0
C 	7.378536440243416	4.259999999999999	0.0
C 	8.60829251361732	4.969999999999999	0.0
C 	9.83804858699122	4.259999999999998	0.0
C 	11.067804660365125	4.969999999999999	0.0
C 	12.297560733739028	4.259999999999998	0.0
C 	13.52731680711293	4.969999999999998	0.0
C 	14.757072880486831	4.259999999999998	0.0
C 	15.986828953860735	4.969999999999998	0.0
C 	17.21658502723464	4.259999999999997	0.0
C 	18.446341100608542	4.969999999999998	0.0
C 	19.676097173982445	4.259999999999999	0.0
C 	20.905853247356347	4.969999999999997	0.0
C 	22.135609320730246	4.259999999999996	0.0
C 	23.365365394104153	4.969999999999997	0.0
C 	24.595121467478055	4.259999999999998	0.0
C 	25.824877540851958	4.969999999999997	0.0
C 	27.054633614225857	4.259999999999995	0.0
C 	28.28438968759976	4.969999999999996	0.0
C 	29.514145760973665	4.259999999999997	0.0
C 	30.743901834347568	4.969999999999997	0.0
C 	31.97365790772147	4.259999999999996	0.0
C 	33.20341398109537	4.969999999999995	0.0
C 	34.43317005446927	4.2599999999999945	0.0
C 	35.66292612784318	4.969999999999995	0.0
C 	36.892682201217085	4.259999999999996	0.0
C 	38.122438274590984	4.969999999999997	0.0
C 	39.35219434796489	4.259999999999997	0.0
C 	40.58195042133879	4.969999999999994	0.0
C 	41.81170649471269	4.259999999999995	0.0
C 	43.041462568086594	4.969999999999996	0.0
C 	44.2712186414605	4.259999999999997	0.0
C 	45.500974714834406	4.969999999999998	0.0
C 	46.7307307882083	4.259999999999994	0.0
C 	47.960486861582204	4.9699999999999935	0.0
C 	49.19024293495611	4.259999999999996	0.0
C 	50.41999900833001	4.969999999999997	0.0
C 	51.64975508170391	4.259999999999993	0.0
C 	52.879511155077815	4.9699999999999935	0.0
C 	54.10926722845171	4.259999999999996	0.0
C 	55.33902330182562	4.969999999999997	0.0
C 	56.568779375199526	4.259999999999996	0.0
C 	57.798535448573425	4.969999999999996	0.0
C 	59.028291521947324	4.259999999999995	0.0
C 	60.25804759532123	4.969999999999996	0.0
C 	61.487803668695136	4.259999999999992	0.0
C 	62.717559742069035	4.969999999999993	0.0
C 	3.6892682201217086	6.389999999999999	0.0
C 	4.919024293495611	7.099999999999999	0.0
C 	6.148780366869514	6.389999999999999	0.0
C 	7.378536440243416	7.099999999999999	0.0
C 	8.608292513617318	6.389999999999998	0.0
C 	9.838048586991222	7.099999999999999	0.0
C 	11.067804660365125	6.389999999999998	0.0
C 	12.297560733739028	7.099999999999998	0.0
C 	13.52731680711293	6.389999999999999	0.0
C 	14.757072880486833	7.099999999999998	0.0
C 	15.986828953860735	6.389999999999998	0.0
C 	17.216585027234636	7.099999999999997	0.0
C 	18.44634110060854	6.389999999999997	0.0
C 	19.676097173982445	7.099999999999998	0.0
C 	20.905853247356347	6.389999999999998	0.0
C 	22.13560932073025	7.099999999999997	0.0
C 	23.365365394104153	6.389999999999998	0.0
C 	24.59512146747805	7.099999999999997	0.0
C 	25.824877540851958	6.389999999999998	0.0
C 	27.054633614225857	7.099999999999997	0.0
C 	28.28438968759976	6.389999999999999	0.0
C 	29.514145760973662	7.099999999999997	0.0
C 	30.743901834347568	6.389999999999999	0.0
C 	31.97365790772147	7.099999999999998	0.0
C 	33.20341398109537	6.389999999999995	0.0
C 	34.43317005446928	7.099999999999994	0.0
C 	35.66292612784318	6.389999999999995	0.0
C 	36.892682201217085	7.099999999999996	0.0
C 	38.122438274590984	6.389999999999996	0.0
C 	39.35219434796489	7.099999999999997	0.0
C 	40.58195042133879	6.389999999999994	0.0
C 	41.811706494712695	7.099999999999995	0.0
C 	43.041462568086594	6.389999999999996	0.0
C 	44.2712186414605	7.099999999999997	0.0
C 	45.500974714834406	6.389999999999998	0.0
C 	46.730730788208305	7.099999999999998	0.0
C 	47.960486861582204	6.389999999999995	0.0
C 	49.19024293495611	7.099999999999996	0.0
C 	50.41999900833001	6.389999999999995	0.0
C 	51.649755081703915	7.099999999999996	0.0
C 	52.879511155077815	6.389999999999995	0.0
C 	54.10926722845172	7.099999999999996	0.0
C 	55.33902330182562	6.389999999999995	0.0
C 	56.568779375199526	7.099999999999995	0.0
C 	57.79853544857343	6.389999999999998	0.0
C 	59.02829152194733	7.099999999999999	0.0
C 	60.25804759532123	6.389999999999994	0.0
C 	61.487803668695136	7.099999999999995	0.0
C 	62.71755974206904	6.389999999999994	0.0
C 	63.94731581544294	7.099999999999995	0.0
C 	4.919024293495611	8.519999999999998	0.0
C 	6.148780366869514	9.229999999999999	0.0
C 	7.378536440243416	8.519999999999998	0.0
C 	8.60829251361732	9.229999999999999	0.0
C 	9.838048586991222	8.519999999999998	0.0
C 	11.067804660365125	9.229999999999999	0.0
C 	12.297560733739028	8.519999999999998	0.0
C 	13.52731680711293	9.229999999999997	0.0
C 	14.757072880486833	8.519999999999998	0.0
C 	15.986828953860737	9.229999999999999	0.0
C 	17.216585027234636	8.519999999999998	0.0
C 	18.44634110060854	9.229999999999997	0.0
C 	19.67609717398244	8.519999999999996	0.0
C 	20.905853247356347	9.229999999999997	0.0
C 	22.13560932073025	8.519999999999998	0.0
C 	23.365365394104153	9.229999999999999	0.0
C 	24.595121467478055	8.519999999999996	0.0
C 	25.824877540851954	9.229999999999995	0.0
C 	27.05463361422586	8.519999999999996	0.0
C 	28.284389687599763	9.229999999999997	0.0
C 	29.514145760973662	8.519999999999996	0.0
C 	30.743901834347565	9.229999999999995	0.0
C 	31.97365790772147	8.52	0.0
C 	33.20341398109537	9.229999999999997	0.0
C 	34.43317005446928	8.519999999999994	0.0
C 	35.66292612784318	9.229999999999995	0.0
C 	36.89268220121708	8.519999999999992	0.0
C 	38.122438274590984	9.229999999999993	0.0
C 	39.35219434796489	8.519999999999998	0.0
C 	40.58195042133879	9.229999999999995	0.0
C 	41.811706494712695	8.519999999999994	0.0
C 	43.0414625680866	9.229999999999995	0.0
C 	44.27121864146049	8.519999999999992	0.0
C 	45.5009747148344	9.229999999999993	0.0
C 	46.730730788208305	8.519999999999998	0.0
C 	47.960486861582204	9.229999999999995	0.0
C 	49.19024293495611	8.519999999999996	0.0
C 	50.41999900833001	9.229999999999993	0.0
C 	51.64975508170391	8.519999999999994	0.0
C 	52.879511155077815	9.229999999999995	0.0
C 	54.10926722845171	8.51999999999999	0.0
C 	55.33902330182562	9.229999999999992	0.0
C 	56.568779375199526	8.519999999999998	0.0
C 	57.798535448573425	9.229999999999995	0.0
C 	59.02829152194733	8.519999999999994	0.0
C 	60.25804759532123	9.229999999999993	0.0
C 	61.48780366869513	8.519999999999992	0.0
C 	62.717559742069035	9.229999999999993	0.0
C 	63.94731581544294	8.519999999999992	0.0
C 	65.17707188881684	9.22999999999999	0.0
C 	6.148780366869514	10.649999999999997	0.0
C 	7.378536440243416	11.359999999999998	0.0
C 	8.608292513617318	10.649999999999997	0.0
C 	9.838048586991222	11.359999999999998	0.0
C 	11.067804660365125	10.649999999999997	0.0
C 	12.297560733739028	11.359999999999996	0.0
C 	13.52731680711293	10.649999999999997	0.0
C 	14.757072880486831	11.359999999999996	0.0
C 	15.986828953860735	10.649999999999997	0.0
C 	17.216585027234636	11.359999999999996	0.0
C 	18.44634110060854	10.649999999999997	0.0
C 	19.676097173982445	11.359999999999998	0.0
C 	20.905853247356347	10.649999999999997	0.0
C 	22.13560932073025	11.359999999999996	0.0
C 	23.365365394104153	10.649999999999997	0.0
C 	24.595121467478055	11.359999999999996	0.0
C 	25.824877540851958	10.649999999999997	0.0
C 	27.05463361422586	11.359999999999996	0.0
C 	28.284389687599763	10.649999999999995	0.0
C 	29.514145760973662	11.359999999999994	0.0
C 	30.743901834347565	10.649999999999995	0.0
C 	31.97365790772147	11.359999999999996	0.0
C 	33.20341398109537	10.649999999999997	0.0
C 	34.43317005446928	11.359999999999998	0.0
C 	35.66292612784318	10.649999999999991	0.0
C 	36.89268220121708	11.359999999999992	0.0
C 	38.122438274590984	10.649999999999993	0.0
C 	39.35219434796489	11.359999999999994	0.0
C 	40.58195042133879	10.649999999999993	0.0
C 	41.811706494712695	11.359999999999994	0.0
C 	43.041462568086594	10.649999999999991	0.0
C 	44.2712186414605	11.359999999999992	0.0
C 	45.5009747148344	10.649999999999993	0.0
C 	46.730730788208305	11.359999999999994	0.0
C 	47.960486861582204	10.649999999999995	0.0
C 	49.19024293495611	11.359999999999996	0.0
C 	50.41999900833001	10.649999999999993	0.0
C 	51.649755081703915	11.359999999999994	0.0
C 	52.879511155077815	10.649999999999995	0.0
C 	54.10926722845172	11.359999999999996	0.0
C 	55.33902330182562	10.649999999999993	0.0
C 	56.568779375199526	11.359999999999994	0.0
C 	57.798535448573425	10.649999999999993	0.0
C 	59.02829152194733	11.359999999999992	0.0
C 	60.25804759532124	10.649999999999995	0.0
C 	61.487803668695136	11.359999999999996	0.0
C 	62.717559742069035	10.649999999999991	0.0
C 	63.94731581544294	11.359999999999992	0.0
C 	65.17707188881684	10.649999999999991	0.0
C 	66.40682796219075	11.359999999999992	0.0
C 	7.378536440243417	12.779999999999998	0.0
C 	8.60829251361732	13.489999999999998	0.0
C 	9.838048586991222	12.78	0.0
C 	11.067804660365125	13.489999999999997	0.0
C 	12.297560733739028	12.779999999999998	0.0
C 	13.527316807112932	13.489999999999998	0.0
C 	14.757072880486833	12.779999999999998	0.0
C 	15.986828953860737	13.489999999999997	0.0
C 	17.216585027234636	12.779999999999996	0.0
C 	18.446341100608542	13.489999999999997	0.0
C 	19.676097173982445	12.779999999999998	0.0
C 	20.905853247356347	13.489999999999997	0.0
C 	22.13560932073025	12.779999999999996	0.0
C 	23.36536539410415	13.489999999999995	0.0
C 	24.595121467478055	12.779999999999996	0.0
C 	25.824877540851958	13.489999999999997	0.0
C 	27.05463361422586	12.779999999999998	0.0
C 	28.284389687599763	13.489999999999997	0.0
C 	29.514145760973662	12.779999999999996	0.0
C 	30.743901834347568	13.489999999999997	0.0
C 	31.97365790772147	12.779999999999996	0.0
C 	33.20341398109537	13.489999999999997	0.0
C 	34.43317005446928	12.779999999999998	0.0
C 	35.66292612784318	13.489999999999995	0.0
C 	36.89268220121708	12.779999999999994	0.0
C 	38.122438274590984	13.489999999999995	0.0
C 	39.35219434796489	12.779999999999996	0.0
C 	40.581950421338796	13.489999999999997	0.0
C 	41.811706494712695	12.779999999999996	0.0
C 	43.041462568086594	13.489999999999993	0.0
C 	44.2712186414605	12.779999999999994	0.0
C 	45.5009747148344	13.489999999999995	0.0
C 	46.730730788208305	12.779999999999996	0.0
C 	47.96048686158221	13.489999999999997	0.0
C 	49.19024293495611	12.779999999999998	0.0
C 	50.41999900833001	13.489999999999995	0.0
C 	51.649755081703915	12.779999999999996	0.0
C 	52.879511155077815	13.489999999999993	0.0
C 	54.10926722845172	12.779999999999998	0.0
C 	55.33902330182563	13.489999999999998	0.0
C 	56.56877937519952	12.779999999999998	0.0
C 	57.798535448573425	13.489999999999997	0.0
C 	59.02829152194733	12.779999999999994	0.0
C 	60.25804759532123	13.489999999999991	0.0
C 	61.487803668695136	12.779999999999998	0.0
C 	62.71755974206904	13.489999999999998	0.0
C 	63.94731581544294	12.779999999999994	0.0
C 	65.17707188881684	13.489999999999995	0.0
C 	66.40682796219075	12.77999999999999	0.0
C 	67.63658403556465	13.489999999999988	0.0
C 	8.60829251361732	14.909999999999998	0.0
C 	9.838048586991222	15.619999999999996	0.0
C 	11.067804660365125	14.909999999999997	0.0
C 	12.297560733739026	15.619999999999996	0.0
C 	13.527316807112934	14.909999999999998	0.0
C 	14.757072880486831	15.619999999999996	0.0
C 	15.986828953860737	14.909999999999998	0.0
C 	17.21658502723464	15.619999999999997	0.0
C 	18.446341100608542	14.909999999999997	0.0
C 	19.676097173982445	15.619999999999996	0.0
C 	20.905853247356347	14.909999999999997	0.0
C 	22.135609320730246	15.619999999999996	0.0
C 	23.365365394104153	14.909999999999995	0.0
C 	24.595121467478055	15.619999999999996	0.0
C 	25.824877540851958	14.909999999999997	0.0
C 	27.05463361422586	15.619999999999996	0.0
C 	28.284389687599763	14.909999999999997	0.0
C 	29.514145760973665	15.619999999999996	0.0
C 	30.743901834347568	14.909999999999997	0.0
C 	31.973657907721474	15.619999999999997	0.0
C 	33.203413981095366	14.909999999999993	0.0
C 	34.43317005446927	15.619999999999994	0.0
C 	35.662926127843185	14.909999999999998	0.0
C 	36.892682201217085	15.619999999999996	0.0
C 	38.122438274590984	14.909999999999995	0.0
C 	39.35219434796489	15.619999999999996	0.0
C 	40.58195042133879	14.909999999999993	0.0
C 	41.811706494712695	15.619999999999994	0.0
C 	43.0414625680866	14.909999999999998	0.0
C 	44.2712186414605	15.619999999999996	0.0
C 	45.5009747148344	14.909999999999995	0.0
C 	46.730730788208305	15.619999999999996	0.0
C 	47.960486861582204	14.909999999999993	0.0
C 	49.19024293495611	15.619999999999994	0.0
C 	50.41999900833002	14.909999999999998	0.0
C 	51.649755081703915	15.619999999999996	0.0
C 	52.87951115507782	14.909999999999997	0.0
C 	54.10926722845171	15.619999999999994	0.0
C 	55.33902330182562	14.909999999999995	0.0
C 	56.568779375199526	15.619999999999994	0.0
C 	57.798535448573425	14.909999999999991	0.0
C 	59.028291521947324	15.619999999999992	0.0
C 	60.25804759532124	14.909999999999998	0.0
C 	61.487803668695136	15.619999999999996	0.0
C 	62.717559742069035	14.909999999999993	0.0
C 	63.94731581544294	15.619999999999994	0.0
C 	65.17707188881684	14.909999999999993	0.0
C 	66.40682796219075	15.619999999999994	0.0
C 	67.63658403556465	14.909999999999997	0.0
C 	68.86634010893854	15.61999999999999	0.0
C 	9.838048586991222	17.039999999999996	0.0
C 	11.067804660365127	17.749999999999996	0.0
C 	12.297560733739028	17.039999999999996	0.0
C 	13.527316807112932	17.749999999999996	0.0
C 	14.757072880486833	17.039999999999996	0.0
C 	15.986828953860735	17.749999999999996	0.0
C 	17.21658502723464	17.039999999999996	0.0
C 	18.446341100608546	17.749999999999996	0.0
C 	19.676097173982445	17.039999999999996	0.0
C 	20.905853247356347	17.749999999999996	0.0
C 	22.13560932073025	17.039999999999996	0.0
C 	23.365365394104153	17.749999999999996	0.0
C 	24.595121467478055	17.039999999999996	0.0
C 	25.82487754085196	17.749999999999996	0.0
C 	27.05463361422586	17.039999999999996	0.0
C 	28.28438968759977	17.75	0.0
C 	29.514145760973665	17.039999999999996	0.0
C 	30.74390183434757	17.749999999999996	0.0
C 	31.973657907721467	17.039999999999992	0.0
C 	33.20341398109537	17.749999999999993	0.0
C 	34.43317005446927	17.039999999999996	0.0
C 	35.66292612784318	17.749999999999996	0.0
C 	36.892682201217085	17.039999999999996	0.0
C 	38.122438274590984	17.749999999999996	0.0
C 	39.35219434796488	17.039999999999992	0.0
C 	40.58195042133879	17.749999999999993	0.0
C 	41.811706494712695	17.039999999999992	0.0
C 	43.041462568086594	17.749999999999993	0.0
C 	44.2712186414605	17.039999999999996	0.0
C 	45.500974714834406	17.749999999999996	0.0
C 	46.7307307882083	17.039999999999992	0.0
C 	47.960486861582204	17.749999999999993	0.0
C 	49.19024293495611	17.039999999999992	0.0
C 	50.41999900833002	17.749999999999993	0.0
C 	51.649755081703915	17.039999999999996	0.0
C 	52.87951115507782	17.749999999999996	0.0
C 	54.10926722845172	17.039999999999992	0.0
C 	55.33902330182562	17.749999999999993	0.0
C 	56.568779375199526	17.039999999999996	0.0
C 	57.79853544857343	17.749999999999996	0.0
C 	59.028291521947324	17.039999999999992	0.0
C 	60.25804759532123	17.749999999999993	0.0
C 	61.487803668695136	17.039999999999996	0.0
C 	62.71755974206904	17.749999999999996	0.0
C 	63.94731581544294	17.04	0.0
C 	65.17707188881684	17.749999999999993	0.0
C 	66.40682796219075	17.039999999999996	0.0
C 	67.63658403556464	17.74999999999999	0.0
C 	68.86634010893856	17.03999999999999	0.0
C 	70.09609618231246	17.74999999999999	0.0
C 	11.067804660365125	19.169999999999995	0.0
C 	12.297560733739026	19.879999999999995	0.0
C 	13.52731680711293	19.169999999999995	0.0
C 	14.757072880486831	19.879999999999995	0.0
C 	15.986828953860737	19.169999999999998	0.0
C 	17.216585027234636	19.879999999999992	0.0
C 	18.446341100608542	19.169999999999995	0.0
C 	19.676097173982445	19.879999999999995	0.0
C 	20.905853247356347	19.169999999999995	0.0
C 	22.135609320730246	19.879999999999995	0.0
C 	23.365365394104153	19.169999999999995	0.0
C 	24.59512146747805	19.879999999999995	0.0
C 	25.824877540851958	19.169999999999995	0.0
C 	27.05463361422586	19.879999999999995	0.0
C 	28.284389687599763	19.169999999999995	0.0
C 	29.51414576097367	19.879999999999995	0.0
C 	30.743901834347565	19.16999999999999	0.0
C 	31.97365790772147	19.879999999999992	0.0
C 	33.20341398109537	19.169999999999995	0.0
C 	34.43317005446927	19.879999999999992	0.0
C 	35.66292612784318	19.169999999999995	0.0
C 	36.89268220121708	19.879999999999992	0.0
C 	38.122438274590984	19.169999999999995	0.0
C 	39.35219434796488	19.879999999999992	0.0
C 	40.58195042133879	19.16999999999999	0.0
C 	41.81170649471269	19.87999999999999	0.0
C 	43.0414625680866	19.169999999999995	0.0
C 	44.27121864146049	19.879999999999992	0.0
C 	45.5009747148344	19.16999999999999	0.0
C 	46.730730788208305	19.879999999999992	0.0
C 	47.960486861582204	19.169999999999995	0.0
C 	49.1902429349561	19.879999999999992	0.0
C 	50.41999900833002	19.169999999999995	0.0
C 	51.649755081703915	19.879999999999992	0.0
C 	52.879511155077815	19.16999999999999	0.0
C 	54.10926722845172	19.879999999999992	0.0
C 	55.33902330182562	19.16999999999999	0.0
C 	56.56877937519952	19.879999999999992	0.0
C 	57.79853544857343	19.169999999999995	0.0
C 	59.02829152194733	19.879999999999992	0.0
C 	60.25804759532123	19.169999999999995	0.0
C 	61.48780366869513	19.879999999999992	0.0
C 	62.717559742069035	19.16999999999999	0.0
C 	63.94731581544294	19.879999999999992	0.0
C 	65.17707188881684	19.169999999999995	0.0
C 	66.40682796219075	19.87999999999999	0.0
C 	67.63658403556465	19.169999999999995	0.0
C 	68.86634010893854	19.87999999999999	0.0
C 	70.09609618231245	19.16999999999999	0.0
C 	71.32585225568636	19.879999999999992	0.0
C 	12.297560733739028	21.299999999999994	0.0
C 	13.527316807112932	22.009999999999994	0.0
C 	14.757072880486831	21.299999999999994	0.0
C 	15.986828953860735	22.009999999999994	0.0
C 	17.216585027234636	21.299999999999994	0.0
C 	18.44634110060854	22.009999999999994	0.0
C 	19.676097173982445	21.299999999999994	0.0
C 	20.905853247356347	22.009999999999994	0.0
C 	22.13560932073025	21.299999999999994	0.0
C 	23.365365394104153	22.009999999999994	0.0
C 	24.595121467478055	21.299999999999994	0.0
C 	25.824877540851958	22.009999999999994	0.0
C 	27.05463361422586	21.299999999999994	0.0
C 	28.284389687599766	22.009999999999994	0.0
C 	29.514145760973662	21.29999999999999	0.0
C 	30.743901834347568	22.00999999999999	0.0
C 	31.97365790772147	21.299999999999994	0.0
C 	33.20341398109537	22.009999999999994	0.0
C 	34.43317005446928	21.299999999999994	0.0
C 	35.662926127843185	22.009999999999994	0.0
C 	36.89268220121708	21.299999999999994	0.0
C 	38.122438274590984	22.009999999999994	0.0
C 	39.35219434796489	21.299999999999994	0.0
C 	40.58195042133879	22.009999999999994	0.0
C 	41.811706494712695	21.299999999999994	0.0
C 	43.0414625680866	22.009999999999994	0.0
C 	44.2712186414605	21.29999999999999	0.0
C 	45.5009747148344	22.00999999999999	0.0
C 	46.730730788208305	21.299999999999994	0.0
C 	47.96048686158221	22.009999999999994	0.0
C 	49.19024293495611	21.299999999999994	0.0
C 	50.41999900833002	22.009999999999994	0.0
C 	51.649755081703915	21.299999999999994	0.0
C 	52.879511155077815	22.00999999999999	0.0
C 	54.10926722845172	21.299999999999994	0.0
C 	55.33902330182563	22.009999999999994	0.0
C 	56.568779375199526	21.29999999999999	0.0
C 	57.798535448573425	22.00999999999999	0.0
C 	59.02829152194733	21.299999999999994	0.0
C 	60.25804759532124	22.009999999999994	0.0
C 	61.48780366869513	21.29999999999999	0.0
C 	62.717559742069035	22.00999999999999	0.0
C 	63.94731581544294	21.299999999999994	0.0
C 	65.17707188881684	22.009999999999987	0.0
C 	66.40682796219075	21.299999999999994	0.0
C 	67.63658403556465	22.009999999999994	0.0
C 	68.86634010893854	21.29999999999999	0.0
C 	70.09609618231245	22.00999999999999	0.0
C 	71.32585225568636	21.299999999999983	0.0
C 	72.55560832906026	22.00999999999999	0.0
C 	13.527316807112932	23.429999999999996	0.0
C 	14.757072880486836	24.139999999999997	0.0
C 	15.986828953860737	23.429999999999996	0.0
C 	17.216585027234643	24.139999999999997	0.0
C 	18.446341100608542	23.429999999999996	0.0
C 	19.676097173982445	24.139999999999997	0.0
C 	20.90585324735635	23.429999999999996	0.0
C 	22.135609320730254	24.139999999999997	0.0
C 	23.365365394104156	23.429999999999993	0.0
C 	24.595121467478062	24.139999999999997	0.0
C 	25.824877540851958	23.429999999999993	0.0
C 	27.054633614225864	24.139999999999993	0.0
C 	28.284389687599766	23.429999999999996	0.0
C 	29.514145760973673	24.139999999999997	0.0
C 	30.743901834347575	23.429999999999996	0.0
C 	31.973657907721478	24.139999999999997	0.0
C 	33.20341398109537	23.429999999999993	0.0
C 	34.43317005446928	24.139999999999993	0.0
C 	35.66292612784318	23.429999999999993	0.0
C 	36.892682201217085	24.139999999999993	0.0
C 	38.122438274590984	23.429999999999993	0.0
C 	39.35219434796489	24.139999999999993	0.0
C 	40.58195042133879	23.429999999999996	0.0
C 	41.811706494712695	24.139999999999993	0.0
C 	43.041462568086594	23.42999999999999	0.0
C 	44.2712186414605	24.13999999999999	0.0
C 	45.5009747148344	23.429999999999993	0.0
C 	46.730730788208305	24.139999999999993	0.0
C 	47.96048686158221	23.429999999999993	0.0
C 	49.19024293495611	24.139999999999993	0.0
C 	50.41999900833001	23.429999999999993	0.0
C 	51.649755081703915	24.13999999999999	0.0
C 	52.87951115507782	23.429999999999993	0.0
C 	54.10926722845172	24.139999999999993	0.0
C 	55.33902330182563	23.429999999999993	0.0
C 	56.56877937519953	24.139999999999993	0.0
C 	57.798535448573425	23.429999999999993	0.0
C 	59.02829152194733	24.139999999999993	0.0
C 	60.25804759532124	23.429999999999993	0.0
C 	61.487803668695136	24.13999999999999	0.0
C 	62.71755974206904	23.429999999999993	0.0
C 	63.947315815442934	24.139999999999986	0.0
C 	65.17707188881684	23.429999999999993	0.0
C 	66.40682796219075	24.139999999999993	0.0
C 	67.63658403556464	23.42999999999999	0.0
C 	68.86634010893856	24.139999999999997	0.0
C 	70.09609618231245	23.42999999999999	0.0
C 	71.32585225568636	24.139999999999997	0.0
C 	72.55560832906026	23.42999999999999	0.0
C 	73.78536440243417	24.13999999999999	0.0
C 	14.757072880486835	25.559999999999995	0.0
C 	15.986828953860735	26.269999999999996	0.0
C 	17.21658502723464	25.559999999999995	0.0
C 	18.44634110060854	26.269999999999996	0.0
C 	19.676097173982445	25.56	0.0
C 	20.905853247356344	26.269999999999996	0.0
C 	22.13560932073025	25.56	0.0
C 	23.365365394104153	26.269999999999996	0.0
C 	24.595121467478055	25.559999999999995	0.0
C 	25.824877540851958	26.269999999999996	0.0
C 	27.054633614225857	25.559999999999995	0.0
C 	28.28438968759976	26.269999999999996	0.0
C 	29.514145760973665	25.559999999999995	0.0
C 	30.743901834347568	26.269999999999996	0.0
C 	31.973657907721474	25.559999999999995	0.0
C 	33.20341398109538	26.269999999999996	0.0
C 	34.43317005446927	25.55999999999999	0.0
C 	35.66292612784318	26.269999999999992	0.0
C 	36.892682201217085	25.559999999999995	0.0
C 	38.12243827459098	26.269999999999992	0.0
C 	39.35219434796489	25.559999999999995	0.0
C 	40.58195042133879	26.269999999999992	0.0
C 	41.81170649471269	25.55999999999999	0.0
C 	43.041462568086594	26.269999999999992	0.0
C 	44.2712186414605	25.55999999999999	0.0
C 	45.5009747148344	26.26999999999999	0.0
C 	46.730730788208305	25.559999999999995	0.0
C 	47.960486861582204	26.269999999999992	0.0
C 	49.19024293495611	25.55999999999999	0.0
C 	50.41999900833001	26.269999999999992	0.0
C 	51.649755081703915	25.559999999999995	0.0
C 	52.879511155077815	26.269999999999992	0.0
C 	54.10926722845172	25.559999999999995	0.0
C 	55.33902330182562	26.269999999999992	0.0
C 	56.568779375199526	25.55999999999999	0.0
C 	57.79853544857343	26.269999999999992	0.0
C 	59.028291521947324	25.55999999999999	0.0
C 	60.25804759532123	26.269999999999992	0.0
C 	61.487803668695136	25.559999999999995	0.0
C 	62.717559742069035	26.26999999999999	0.0
C 	63.94731581544294	25.55999999999999	0.0
C 	65.17707188881683	26.269999999999985	0.0
C 	66.40682796219075	25.55999999999999	0.0
C 	67.63658403556465	26.269999999999992	0.0
C 	68.86634010893856	25.559999999999995	0.0
C 	70.09609618231246	26.269999999999996	0.0
C 	71.32585225568636	25.559999999999995	0.0
C 	72.55560832906026	26.269999999999996	0.0
C 	73.78536440243415	25.559999999999988	0.0
C 	75.01512047580806	26.26999999999999	0.0
C 	15.986828953860735	27.689999999999994	0.0
C 	17.21658502723464	28.399999999999995	0.0
C 	18.446341100608542	27.689999999999994	0.0
C 	19.676097173982445	28.399999999999995	0.0
C 	20.905853247356344	27.689999999999994	0.0
C 	22.13560932073025	28.399999999999995	0.0
C 	23.365365394104153	27.689999999999994	0.0
C 	24.59512146747806	28.399999999999995	0.0
C 	25.824877540851954	27.689999999999994	0.0
C 	27.054633614225857	28.399999999999995	0.0
C 	28.284389687599763	27.689999999999994	0.0
C 	29.514145760973665	28.399999999999995	0.0
C 	30.74390183434757	27.689999999999994	0.0
C 	31.973657907721474	28.399999999999995	0.0
C 	33.20341398109537	27.68999999999999	0.0
C 	34.43317005446928	28.39999999999999	0.0
C 	35.66292612784318	27.689999999999994	0.0
C 	36.892682201217085	28.399999999999995	0.0
C 	38.122438274590984	27.689999999999994	0.0
C 	39.35219434796489	28.399999999999995	0.0
C 	40.58195042133879	27.689999999999994	0.0
C 	41.811706494712695	28.399999999999995	0.0
C 	43.041462568086594	27.689999999999994	0.0
C 	44.2712186414605	28.399999999999995	0.0
C 	45.500974714834406	27.689999999999994	0.0
C 	46.730730788208305	28.399999999999995	0.0
C 	47.960486861582204	27.68999999999999	0.0
C 	49.19024293495611	28.39999999999999	0.0
C 	50.41999900833002	27.689999999999994	0.0
C 	51.649755081703915	28.399999999999995	0.0
C 	52.87951115507782	27.689999999999994	0.0
C 	54.10926722845173	28.399999999999995	0.0
C 	55.33902330182562	27.68999999999999	0.0
C 	56.568779375199526	28.39999999999999	0.0
C 	57.79853544857343	27.689999999999994	0.0
C 	59.02829152194733	28.39999999999999	0.0
C 	60.25804759532124	27.689999999999994	0.0
C 	61.48780366869513	28.399999999999988	0.0
C 	62.717559742069035	27.689999999999994	0.0
C 	63.94731581544294	28.399999999999995	0.0
C 	65.17707188881684	27.68999999999999	0.0
C 	66.40682796219075	28.39999999999999	0.0
C 	67.63658403556464	27.689999999999987	0.0
C 	68.86634010893856	28.399999999999995	0.0
C 	70.09609618231245	27.689999999999994	0.0
C 	71.32585225568636	28.399999999999995	0.0
C 	72.55560832906026	27.68999999999999	0.0
C 	73.78536440243415	28.39999999999999	0.0
C 	75.01512047580808	27.689999999999994	0.0
C 	76.24487654918197	28.399999999999984	0.0
C 	17.21658502723464	29.819999999999997	0.0
C 	18.446341100608546	30.529999999999998	0.0
C 	19.676097173982445	29.819999999999997	0.0
C 	20.905853247356355	30.529999999999998	0.0
C 	22.13560932073025	29.819999999999993	0.0
C 	23.365365394104156	30.529999999999994	0.0
C 	24.59512146747806	29.819999999999997	0.0
C 	25.82487754085196	30.529999999999998	0.0
C 	27.054633614225867	29.819999999999997	0.0
C 	28.28438968759977	30.529999999999998	0.0
C 	29.514145760973665	29.819999999999997	0.0
C 	30.74390183434757	30.529999999999998	0.0
C 	31.973657907721474	29.819999999999997	0.0
C 	33.20341398109538	30.529999999999998	0.0
C 	34.43317005446928	29.819999999999997	0.0
C 	35.662926127843185	30.529999999999998	0.0
C 	36.892682201217085	29.819999999999993	0.0
C 	38.12243827459099	30.529999999999994	0.0
C 	39.35219434796488	29.819999999999993	0.0
C 	40.58195042133879	30.529999999999994	0.0
C 	41.811706494712695	29.819999999999993	0.0
C 	43.0414625680866	30.529999999999994	0.0
C 	44.2712186414605	29.819999999999993	0.0
C 	45.500974714834406	30.529999999999994	0.0
C 	46.730730788208305	29.81999999999999	0.0
C 	47.960486861582204	30.52999999999999	0.0
C 	49.19024293495611	29.819999999999993	0.0
C 	50.41999900833002	30.529999999999994	0.0
C 	51.649755081703915	29.819999999999993	0.0
C 	52.87951115507782	30.529999999999994	0.0
C 	54.10926722845172	29.819999999999993	0.0
C 	55.33902330182563	30.52999999999999	0.0
C 	56.568779375199526	29.819999999999993	0.0
C 	57.798535448573425	30.52999999999999	0.0
C 	59.02829152194734	29.819999999999993	0.0
C 	60.25804759532124	30.529999999999994	0.0
C 	61.487803668695136	29.819999999999993	0.0
C 	62.71755974206904	30.529999999999994	0.0
C 	63.947315815442934	29.81999999999999	0.0
C 	65.17707188881685	30.529999999999998	0.0
C 	66.40682796219073	29.819999999999986	0.0
C 	67.63658403556465	30.529999999999994	0.0
C 	68.86634010893856	29.819999999999993	0.0
C 	70.09609618231245	30.529999999999994	0.0
C 	71.32585225568637	29.819999999999997	0.0
C 	72.55560832906026	30.52999999999999	0.0
C 	73.78536440243417	29.819999999999997	0.0
C 	75.01512047580806	30.529999999999987	0.0
C 	76.24487654918197	29.81999999999999	0.0
C 	77.47463262255587	30.52999999999999	0.0
C 	18.446341100608542	31.949999999999996	0.0
C 	19.676097173982445	32.65999999999999	0.0
C 	20.905853247356347	31.949999999999992	0.0
C 	22.135609320730254	32.66	0.0
C 	23.365365394104156	31.949999999999996	0.0
C 	24.595121467478055	32.65999999999999	0.0
C 	25.824877540851958	31.949999999999992	0.0
C 	27.05463361422586	32.66	0.0
C 	28.284389687599766	31.949999999999996	0.0
C 	29.51414576097367	32.66	0.0
C 	30.743901834347568	31.949999999999992	0.0
C 	31.97365790772147	32.66	0.0
C 	33.20341398109537	31.949999999999992	0.0
C 	34.43317005446928	32.66	0.0
C 	35.66292612784318	31.949999999999996	0.0
C 	36.892682201217085	32.66	0.0
C 	38.122438274590984	31.949999999999992	0.0
C 	39.35219434796489	32.65999999999999	0.0
C 	40.58195042133879	31.949999999999992	0.0
C 	41.81170649471269	32.65999999999999	0.0
C 	43.0414625680866	31.949999999999996	0.0
C 	44.2712186414605	32.65999999999999	0.0
C 	45.5009747148344	31.949999999999992	0.0
C 	46.730730788208305	32.65999999999999	0.0
C 	47.96048686158221	31.949999999999992	0.0
C 	49.1902429349561	32.65999999999999	0.0
C 	50.41999900833002	31.949999999999992	0.0
C 	51.649755081703915	32.65999999999999	0.0
C 	52.879511155077815	31.949999999999992	0.0
C 	54.10926722845172	32.65999999999999	0.0
C 	55.33902330182563	31.949999999999992	0.0
C 	56.568779375199526	32.65999999999999	0.0
C 	57.79853544857343	31.949999999999992	0.0
C 	59.028291521947324	32.65999999999999	0.0
C 	60.25804759532124	31.949999999999992	0.0
C 	61.487803668695136	32.65999999999999	0.0
C 	62.717559742069035	31.94999999999999	0.0
C 	63.94731581544294	32.65999999999999	0.0
C 	65.17707188881685	31.949999999999992	0.0
C 	66.40682796219076	32.66	0.0
C 	67.63658403556465	31.949999999999992	0.0
C 	68.86634010893856	32.65999999999999	0.0
C 	70.09609618231245	31.94999999999999	0.0
C 	71.32585225568636	32.65999999999999	0.0
C 	72.55560832906026	31.949999999999996	0.0
C 	73.78536440243415	32.65999999999999	0.0
C 	75.01512047580806	31.949999999999992	0.0
C 	76.24487654918195	32.65999999999998	0.0
C 	77.47463262255587	31.949999999999985	0.0
C 	78.70438869592978	32.65999999999999	0.0
C 	19.676097173982445	34.07999999999999	0.0
C 	20.90585324735635	34.78999999999999	0.0
C 	22.135609320730254	34.07999999999999	0.0
C 	23.365365394104156	34.78999999999999	0.0
C 	24.595121467478055	34.07999999999999	0.0
C 	25.824877540851958	34.78999999999999	0.0
C 	27.054633614225864	34.07999999999999	0.0
C 	28.284389687599766	34.78999999999999	0.0
C 	29.514145760973665	34.07999999999999	0.0
C 	30.743901834347568	34.78999999999999	0.0
C 	31.97365790772147	34.07999999999999	0.0
C 	33.20341398109537	34.78999999999999	0.0
C 	34.43317005446928	34.07999999999999	0.0
C 	35.662926127843185	34.78999999999999	0.0
C 	36.89268220121708	34.07999999999999	0.0
C 	38.122438274590984	34.78999999999999	0.0
C 	39.35219434796489	34.07999999999999	0.0
C 	40.581950421338796	34.78999999999999	0.0
C 	41.811706494712695	34.07999999999999	0.0
C 	43.0414625680866	34.78999999999999	0.0
C 	44.2712186414605	34.07999999999999	0.0
C 	45.5009747148344	34.78999999999999	0.0
C 	46.730730788208305	34.07999999999999	0.0
C 	47.96048686158221	34.78999999999999	0.0
C 	49.19024293495611	34.07999999999999	0.0
C 	50.41999900833002	34.78999999999999	0.0
C 	51.649755081703915	34.07999999999999	0.0
C 	52.87951115507782	34.78999999999999	0.0
C 	54.10926722845172	34.07999999999999	0.0
C 	55.33902330182562	34.78999999999999	0.0
C 	56.56877937519953	34.07999999999999	0.0
C 	57.79853544857343	34.78999999999999	0.0
C 	59.02829152194733	34.07999999999999	0.0
C 	60.25804759532124	34.78999999999999	0.0
C 	61.487803668695136	34.07999999999999	0.0
C 	62.71755974206905	34.79	0.0
C 	63.947315815442934	34.079999999999984	0.0
C 	65.17707188881685	34.78999999999999	0.0
C 	66.40682796219075	34.07999999999999	0.0
C 	67.63658403556465	34.78999999999999	0.0
C 	68.86634010893854	34.07999999999999	0.0
C 	70.09609618231245	34.78999999999999	0.0
C 	71.32585225568636	34.07999999999999	0.0
C 	72.55560832906025	34.789999999999985	0.0
C 	73.78536440243417	34.07999999999999	0.0
C 	75.01512047580808	34.78999999999999	0.0
C 	76.24487654918197	34.07999999999999	0.0
C 	77.47463262255587	34.78999999999999	0.0
C 	78.70438869592977	34.079999999999984	0.0
C 	79.93414476930369	34.78999999999999	0.0
C 	20.90585324735635	36.209999999999994	0.0
C 	22.135609320730254	36.919999999999995	0.0
C 	23.36536539410416	36.209999999999994	0.0
C 	24.595121467478062	36.919999999999995	0.0
C 	25.82487754085196	36.209999999999994	0.0
C 	27.054633614225864	36.919999999999995	0.0
C 	28.284389687599766	36.209999999999994	0.0
C 	29.514145760973673	36.919999999999995	0.0
C 	30.743901834347575	36.209999999999994	0.0
C 	31.973657907721478	36.919999999999995	0.0
C 	33.20341398109537	36.209999999999994	0.0
C 	34.43317005446928	36.919999999999995	0.0
C 	35.662926127843185	36.209999999999994	0.0
C 	36.89268220121709	36.919999999999995	0.0
C 	38.12243827459099	36.209999999999994	0.0
C 	39.3521943479649	36.919999999999995	0.0
C 	40.581950421338796	36.209999999999994	0.0
C 	41.811706494712695	36.919999999999995	0.0
C 	43.041462568086594	36.209999999999994	0.0
C 	44.2712186414605	36.919999999999995	0.0
C 	45.500974714834406	36.209999999999994	0.0
C 	46.730730788208305	36.919999999999995	0.0
C 	47.96048686158221	36.209999999999994	0.0
C 	49.19024293495612	36.919999999999995	0.0
C 	50.41999900833002	36.20999999999999	0.0
C 	51.649755081703915	36.91999999999999	0.0
C 	52.87951115507782	36.209999999999994	0.0
C 	54.10926722845172	36.91999999999999	0.0
C 	55.33902330182563	36.209999999999994	0.0
C 	56.56877937519953	36.919999999999995	0.0
C 	57.79853544857343	36.20999999999999	0.0
C 	59.02829152194733	36.91999999999999	0.0
C 	60.25804759532123	36.20999999999999	0.0
C 	61.48780366869515	36.919999999999995	0.0
C 	62.71755974206904	36.209999999999994	0.0
C 	63.94731581544295	36.919999999999995	0.0
C 	65.17707188881684	36.209999999999994	0.0
C 	66.40682796219075	36.919999999999995	0.0
C 	67.63658403556467	36.209999999999994	0.0
C 	68.86634010893856	36.91999999999999	0.0
C 	70.09609618231246	36.209999999999994	0.0
C 	71.32585225568636	36.91999999999999	0.0
C 	72.55560832906026	36.209999999999994	0.0
C 	73.78536440243417	36.919999999999995	0.0
C 	75.01512047580806	36.20999999999999	0.0
C 	76.24487654918198	36.919999999999995	0.0
C 	77.47463262255586	36.20999999999999	0.0
C 	78.70438869592978	36.919999999999995	0.0
C 	79.93414476930369	36.20999999999999	0.0
C 	81.16390084267759	36.91999999999999	0.0
C 	22.13560932073025	38.33999999999999	0.0
C 	23.365365394104153	39.04999999999999	0.0
C 	24.59512146747806	38.33999999999999	0.0
C 	25.82487754085196	39.04999999999999	0.0
C 	27.05463361422586	38.33999999999999	0.0
C 	28.284389687599763	39.04999999999999	0.0
C 	29.514145760973665	38.33999999999999	0.0
C 	30.74390183434757	39.04999999999999	0.0
C 	31.973657907721474	38.339999999999996	0.0
C 	33.20341398109538	39.04999999999999	0.0
C 	34.43317005446927	38.33999999999999	0.0
C 	35.66292612784318	39.04999999999999	0.0
C 	36.892682201217085	38.33999999999999	0.0
C 	38.12243827459099	39.04999999999999	0.0
C 	39.35219434796489	38.33999999999999	0.0
C 	40.581950421338796	39.04999999999999	0.0
C 	41.811706494712695	38.33999999999999	0.0
C 	43.0414625680866	39.04999999999999	0.0
C 	44.27121864146049	38.33999999999999	0.0
C 	45.5009747148344	39.04999999999999	0.0
C 	46.730730788208305	38.33999999999999	0.0
C 	47.960486861582204	39.04999999999999	0.0
C 	49.19024293495611	38.33999999999999	0.0
C 	50.41999900833002	39.04999999999999	0.0
C 	51.649755081703915	38.33999999999999	0.0
C 	52.879511155077815	39.04999999999999	0.0
C 	54.10926722845173	38.33999999999999	0.0
C 	55.33902330182562	39.04999999999998	0.0
C 	56.568779375199526	38.33999999999999	0.0
C 	57.79853544857343	39.04999999999999	0.0
C 	59.02829152194733	38.33999999999999	0.0
C 	60.25804759532123	39.04999999999999	0.0
C 	61.48780366869513	38.33999999999998	0.0
C 	62.71755974206905	39.04999999999999	0.0
C 	63.94731581544294	38.33999999999999	0.0
C 	65.17707188881685	39.04999999999999	0.0
C 	66.40682796219075	38.33999999999999	0.0
C 	67.63658403556465	39.04999999999999	0.0
C 	68.86634010893856	38.33999999999999	0.0
C 	70.09609618231245	39.04999999999998	0.0
C 	71.32585225568636	38.33999999999999	0.0
C 	72.55560832906025	39.04999999999998	0.0
C 	73.78536440243415	38.33999999999999	0.0
C 	75.01512047580806	39.04999999999999	0.0
C 	76.24487654918197	38.33999999999999	0.0
C 	77.47463262255587	39.05	0.0
C 	78.70438869592977	38.33999999999998	0.0
C 	79.93414476930369	39.04999999999999	0.0
C 	81.16390084267758	38.33999999999998	0.0
C 	82.39365691605148	39.04999999999998	0.0
C 	23.365365394104156	40.46999999999999	0.0
C 	24.59512146747806	41.17999999999999	0.0
C 	25.82487754085196	40.46999999999999	0.0
C 	27.054633614225867	41.17999999999999	0.0
C 	28.284389687599763	40.46999999999999	0.0
C 	29.51414576097367	41.17999999999999	0.0
C 	30.74390183434757	40.46999999999999	0.0
C 	31.973657907721474	41.17999999999999	0.0
C 	33.20341398109537	40.46999999999999	0.0
C 	34.43317005446928	41.17999999999999	0.0
C 	35.66292612784318	40.46999999999999	0.0
C 	36.892682201217085	41.17999999999999	0.0
C 	38.12243827459099	40.46999999999999	0.0
C 	39.3521943479649	41.17999999999999	0.0
C 	40.58195042133879	40.46999999999999	0.0
C 	41.811706494712695	41.17999999999999	0.0
C 	43.0414625680866	40.46999999999999	0.0
C 	44.2712186414605	41.17999999999999	0.0
C 	45.500974714834406	40.46999999999999	0.0
C 	46.73073078820831	41.17999999999999	0.0
C 	47.960486861582204	40.46999999999999	0.0
C 	49.19024293495611	41.17999999999999	0.0
C 	50.41999900833002	40.46999999999999	0.0
C 	51.649755081703915	41.179999999999986	0.0
C 	52.87951115507782	40.46999999999999	0.0
C 	54.10926722845173	41.17999999999999	0.0
C 	55.33902330182563	40.46999999999999	0.0
C 	56.568779375199526	41.17999999999999	0.0
C 	57.798535448573425	40.469999999999985	0.0
C 	59.028291521947345	41.17999999999999	0.0
C 	60.25804759532124	40.46999999999999	0.0
C 	61.48780366869514	41.17999999999999	0.0
C 	62.71755974206904	40.46999999999999	0.0
C 	63.94731581544295	41.17999999999999	0.0
C 	65.17707188881685	40.46999999999999	0.0
C 	66.40682796219075	41.179999999999986	0.0
C 	67.63658403556465	40.46999999999999	0.0
C 	68.86634010893854	41.179999999999986	0.0
C 	70.09609618231246	40.46999999999999	0.0
C 	71.32585225568636	41.17999999999999	0.0
C 	72.55560832906026	40.469999999999985	0.0
C 	73.78536440243417	41.179999999999986	0.0
C 	75.01512047580806	40.469999999999985	0.0
C 	76.24487654918198	41.17999999999999	0.0
C 	77.47463262255587	40.46999999999999	0.0
C 	78.70438869592978	41.17999999999999	0.0
C 	79.93414476930367	40.469999999999985	0.0
C 	81.16390084267758	41.179999999999986	0.0
C 	82.3936569160515	40.46999999999999	0.0
C 	83.62341298942539	41.179999999999986	0.0
C 	24.595121467478055	42.59999999999999	0.0
C 	25.82487754085196	43.30999999999999	0.0
C 	27.05463361422586	42.59999999999999	0.0
C 	28.284389687599766	43.30999999999999	0.0
C 	29.514145760973662	42.59999999999999	0.0
C 	30.743901834347568	43.30999999999999	0.0
C 	31.97365790772147	42.59999999999999	0.0
C 	33.20341398109537	43.30999999999999	0.0
C 	34.43317005446927	42.59999999999999	0.0
C 	35.66292612784318	43.30999999999999	0.0
C 	36.89268220121708	42.59999999999999	0.0
C 	38.122438274590984	43.30999999999999	0.0
C 	39.35219434796489	42.59999999999999	0.0
C 	40.581950421338796	43.30999999999999	0.0
C 	41.81170649471269	42.59999999999999	0.0
C 	43.041462568086594	43.30999999999999	0.0
C 	44.2712186414605	42.59999999999999	0.0
C 	45.5009747148344	43.30999999999999	0.0
C 	46.730730788208305	42.59999999999999	0.0
C 	47.96048686158221	43.30999999999999	0.0
C 	49.19024293495611	42.59999999999999	0.0
C 	50.41999900833001	43.30999999999999	0.0
C 	51.64975508170392	42.599999999999994	0.0
C 	52.879511155077815	43.30999999999999	0.0
C 	54.10926722845172	42.59999999999999	0.0
C 	55.33902330182563	43.30999999999999	0.0
C 	56.568779375199526	42.59999999999999	0.0
C 	57.798535448573425	43.30999999999999	0.0
C 	59.028291521947324	42.59999999999998	0.0
C 	60.258047595321244	43.30999999999999	0.0
C 	61.487803668695136	42.59999999999999	0.0
C 	62.71755974206904	43.30999999999999	0.0
C 	63.94731581544294	42.59999999999999	0.0
C 	65.17707188881684	43.30999999999999	0.0
C 	66.40682796219076	42.599999999999994	0.0
C 	67.63658403556465	43.30999999999999	0.0
C 	68.86634010893856	42.59999999999999	0.0
C 	70.09609618231245	43.30999999999998	0.0
C 	71.32585225568636	42.59999999999999	0.0
C 	72.55560832906026	43.30999999999999	0.0
C 	73.78536440243415	42.59999999999999	0.0
C 	75.01512047580806	43.30999999999999	0.0
C 	76.24487654918197	42.59999999999998	0.0
C 	77.47463262255587	43.30999999999999	0.0
C 	78.70438869592978	42.59999999999999	0.0
C 	79.93414476930367	43.30999999999999	0.0
C 	81.16390084267758	42.59999999999999	0.0
C 	82.39365691605148	43.30999999999999	0.0
C 	83.62341298942539	42.59999999999999	0.0
C 	84.85316906279928	43.30999999999998	0.0
C 	25.82487754085196	44.72999999999999	0.0
C 	27.054633614225864	45.43999999999999	0.0
C 	28.284389687599766	44.72999999999999	0.0
C 	29.514145760973673	45.43999999999999	0.0
C 	30.743901834347568	44.72999999999999	0.0
C 	31.97365790772147	45.43999999999999	0.0
C 	33.20341398109537	44.72999999999999	0.0
C 	34.43317005446928	45.43999999999999	0.0
C 	35.662926127843185	44.72999999999999	0.0
C 	36.892682201217085	45.43999999999999	0.0
C 	38.122438274590984	44.72999999999999	0.0
C 	39.35219434796489	45.43999999999999	0.0
C 	40.581950421338796	44.72999999999999	0.0
C 	41.811706494712695	45.43999999999999	0.0
C 	43.0414625680866	44.72999999999999	0.0
C 	44.27121864146051	45.43999999999999	0.0
C 	45.500974714834406	44.72999999999999	0.0
C 	46.730730788208305	45.43999999999999	0.0
C 	47.960486861582204	44.72999999999999	0.0
C 	49.19024293495611	45.43999999999998	0.0
C 	50.41999900833002	44.72999999999999	0.0
C 	51.64975508170391	45.43999999999998	0.0
C 	52.87951115507782	44.72999999999999	0.0
C 	54.10926722845172	45.43999999999999	0.0
C 	55.33902330182562	44.72999999999998	0.0
C 	56.568779375199526	45.43999999999998	0.0
C 	57.798535448573425	44.72999999999998	0.0
C 	59.02829152194734	45.43999999999999	0.0
C 	60.25804759532124	44.72999999999999	0.0
C 	61.48780366869514	45.43999999999999	0.0
C 	62.717559742069035	44.72999999999998	0.0
C 	63.94731581544294	45.43999999999998	0.0
C 	65.17707188881685	44.72999999999999	0.0
C 	66.40682796219075	45.43999999999998	0.0
C 	67.63658403556465	44.72999999999999	0.0
C 	68.86634010893856	45.43999999999999	0.0
C 	70.09609618231245	44.72999999999999	0.0
C 	71.32585225568636	45.43999999999998	0.0
C 	72.55560832906026	44.72999999999998	0.0
C 	73.78536440243417	45.43999999999999	0.0
C 	75.01512047580806	44.72999999999998	0.0
C 	76.24487654918198	45.43999999999999	0.0
C 	77.47463262255587	44.72999999999999	0.0
C 	78.70438869592978	45.43999999999999	0.0
C 	79.93414476930369	44.72999999999999	0.0
C 	81.16390084267758	45.43999999999998	0.0
C 	82.39365691605148	44.72999999999999	0.0
C 	83.62341298942538	45.43999999999998	0.0
C 	84.8531690627993	44.72999999999998	0.0
C 	86.08292513617319	45.43999999999998	0.0
C 	27.054633614225864	46.85999999999999	0.0
C 	28.28438968759977	47.56999999999999	0.0
C 	29.514145760973673	46.85999999999999	0.0
C 	30.74390183434758	47.56999999999999	0.0
C 	31.973657907721474	46.85999999999999	0.0
C 	33.20341398109538	47.56999999999999	0.0
C 	34.43317005446928	46.85999999999999	0.0
C 	35.662926127843185	47.56999999999999	0.0
C 	36.892682201217085	46.85999999999999	0.0
C 	38.122438274590984	47.56999999999999	0.0
C 	39.35219434796489	46.85999999999999	0.0
C 	40.581950421338796	47.56999999999999	0.0
C 	41.8117064947127	46.85999999999999	0.0
C 	43.0414625680866	47.56999999999999	0.0
C 	44.2712186414605	46.85999999999999	0.0
C 	45.500974714834406	47.56999999999999	0.0
C 	46.73073078820831	46.859999999999985	0.0
C 	47.960486861582204	47.569999999999986	0.0
C 	49.19024293495612	46.85999999999999	0.0
C 	50.41999900833002	47.56999999999999	0.0
C 	51.649755081703915	46.859999999999985	0.0
C 	52.87951115507782	47.569999999999986	0.0
C 	54.10926722845172	46.859999999999985	0.0
C 	55.339023301825634	47.56999999999999	0.0
C 	56.56877937519953	46.85999999999999	0.0
C 	57.79853544857344	47.56999999999999	0.0
C 	59.02829152194733	46.859999999999985	0.0
C 	60.25804759532124	47.569999999999986	0.0
C 	61.48780366869515	46.85999999999999	0.0
C 	62.71755974206904	47.569999999999986	0.0
C 	63.94731581544295	46.85999999999999	0.0
C 	65.17707188881685	47.56999999999999	0.0
C 	66.40682796219075	46.859999999999985	0.0
C 	67.63658403556465	47.569999999999986	0.0
C 	68.86634010893856	46.859999999999985	0.0
C 	70.09609618231246	47.56999999999999	0.0
C 	71.32585225568636	46.859999999999985	0.0
C 	72.55560832906028	47.56999999999999	0.0
C 	73.78536440243417	46.859999999999985	0.0
C 	75.01512047580808	47.569999999999986	0.0
C 	76.24487654918197	46.859999999999985	0.0
C 	77.47463262255587	47.569999999999986	0.0
C 	78.70438869592978	46.85999999999999	0.0
C 	79.93414476930367	47.569999999999986	0.0
C 	81.16390084267758	46.85999999999999	0.0
C 	82.39365691605148	47.56999999999999	0.0
C 	83.62341298942539	46.859999999999985	0.0
C 	84.8531690627993	47.569999999999986	0.0
C 	86.08292513617319	46.85999999999998	0.0
C 	87.31268120954711	47.569999999999986	0.0
C 	28.284389687599763	48.98999999999999	0.0
C 	29.51414576097367	49.69999999999999	0.0
C 	30.74390183434757	48.98999999999999	0.0
C 	31.973657907721478	49.69999999999999	0.0
C 	33.20341398109537	48.98999999999999	0.0
C 	34.43317005446928	49.69999999999999	0.0
C 	35.66292612784318	48.98999999999999	0.0
C 	36.892682201217085	49.69999999999999	0.0
C 	38.122438274590984	48.98999999999999	0.0
C 	39.35219434796488	49.69999999999999	0.0
C 	40.58195042133879	48.98999999999999	0.0
C 	41.811706494712695	49.69999999999999	0.0
C 	43.041462568086594	48.98999999999999	0.0
C 	44.2712186414605	49.69999999999999	0.0
C 	45.5009747148344	48.98999999999999	0.0
C 	46.730730788208305	49.69999999999998	0.0
C 	47.96048686158221	48.98999999999999	0.0
C 	49.1902429349561	49.69999999999998	0.0
C 	50.41999900833002	48.98999999999999	0.0
C 	51.64975508170392	49.69999999999999	0.0
C 	52.879511155077815	48.98999999999999	0.0
C 	54.10926722845172	49.69999999999999	0.0
C 	55.33902330182562	48.98999999999998	0.0
C 	56.56877937519953	49.69999999999999	0.0
C 	57.79853544857343	48.98999999999999	0.0
C 	59.02829152194734	49.69999999999999	0.0
C 	60.25804759532124	48.98999999999999	0.0
C 	61.487803668695136	49.69999999999999	0.0
C 	62.71755974206905	48.98999999999999	0.0
C 	63.94731581544294	49.69999999999998	0.0
C 	65.17707188881685	48.98999999999999	0.0
C 	66.40682796219075	49.69999999999999	0.0
C 	67.63658403556465	48.98999999999999	0.0
C 	68.86634010893856	49.69999999999999	0.0
C 	70.09609618231245	48.98999999999998	0.0
C 	71.32585225568637	49.69999999999999	0.0
C 	72.55560832906025	48.98999999999998	0.0
C 	73.78536440243417	49.69999999999999	0.0
C 	75.01512047580806	48.98999999999999	0.0
C 	76.24487654918197	49.69999999999999	0.0
C 	77.47463262255587	48.98999999999998	0.0
C 	78.70438869592978	49.69999999999998	0.0
C 	79.93414476930369	48.98999999999999	0.0
C 	81.16390084267758	49.69999999999998	0.0
C 	82.39365691605148	48.98999999999999	0.0
C 	83.62341298942539	49.69999999999999	0.0
C 	84.85316906279928	48.98999999999998	0.0
C 	86.08292513617319	49.69999999999998	0.0
C 	87.3126812095471	48.98999999999998	0.0
C 	88.542437282921	49.69999999999999	0.0
C 	29.51414576097367	51.11999999999999	0.0
C 	30.74390183434757	51.82999999999999	0.0
C 	31.973657907721474	51.11999999999999	0.0
C 	33.20341398109538	51.82999999999999	0.0
C 	34.43317005446928	51.11999999999999	0.0
C 	35.66292612784318	51.82999999999999	0.0
C 	36.892682201217085	51.11999999999999	0.0
C 	38.12243827459099	51.82999999999999	0.0
C 	39.35219434796489	51.12	0.0
C 	40.581950421338796	51.83	0.0
C 	41.811706494712695	51.11999999999999	0.0
C 	43.041462568086594	51.82999999999999	0.0
C 	44.2712186414605	51.12	0.0
C 	45.5009747148344	51.82999999999999	0.0
C 	46.73073078820831	51.11999999999999	0.0
C 	47.96048686158221	51.82999999999999	0.0
C 	49.19024293495611	51.11999999999999	0.0
C 	50.41999900833002	51.82999999999999	0.0
C 	51.649755081703915	51.11999999999998	0.0
C 	52.879511155077815	51.829999999999984	0.0
C 	54.10926722845171	51.11999999999999	0.0
C 	55.33902330182563	51.83	0.0
C 	56.568779375199526	51.11999999999999	0.0
C 	57.79853544857343	51.82999999999999	0.0
C 	59.02829152194733	51.11999999999999	0.0
C 	60.25804759532124	51.82999999999999	0.0
C 	61.48780366869514	51.11999999999999	0.0
C 	62.717559742069035	51.829999999999984	0.0
C 	63.94731581544295	51.11999999999999	0.0
C 	65.17707188881685	51.82999999999999	0.0
C 	66.40682796219075	51.11999999999999	0.0
C 	67.63658403556465	51.82999999999999	0.0
C 	68.86634010893854	51.11999999999998	0.0
C 	70.09609618231246	51.82999999999999	0.0
C 	71.32585225568636	51.11999999999999	0.0
C 	72.55560832906026	51.82999999999999	0.0
C 	73.78536440243417	51.11999999999999	0.0
C 	75.01512047580806	51.82999999999999	0.0
C 	76.24487654918198	51.11999999999999	0.0
C 	77.47463262255587	51.829999999999984	0.0
C 	78.70438869592978	51.11999999999999	0.0
C 	79.93414476930367	51.829999999999984	0.0
C 	81.16390084267758	51.11999999999999	0.0
C 	82.39365691605148	51.82999999999999	0.0
C 	83.62341298942538	51.11999999999998	0.0
C 	84.8531690627993	51.82999999999999	0.0
C 	86.08292513617319	51.11999999999998	0.0
C 	87.3126812095471	51.82999999999999	0.0
C 	88.542437282921	51.11999999999998	0.0
C 	89.7721933562949	51.829999999999984	0.0
C 	52.593684422876684	0.6365208770006442	2.15
C 	53.92973511479169	1.1175287237489568	2.15
C 	54.1811954460455	2.515086487065282	2.15
C 	55.517246137960505	2.9960943338135966	2.15
C 	55.768706469214315	4.393652097129921	2.15
C 	57.104757161129314	4.874659943878231	2.15
C 	57.35621749238312	6.272217707194557	2.15
C 	58.692268184298115	6.753225553942871	2.15
C 	58.943728515551925	8.150783317259195	2.15
C 	48.585532347131696	-0.8065026632442938	2.15
C 	49.921583039046695	-0.32549481649597933	2.15
C 	50.173043370300505	1.072062946820346	2.15
C 	51.50909406221549	1.5530707935686552	2.15
C 	51.7605543934693	2.9506285568849804	2.15
C 	53.096605085384304	3.431636403633295	2.15
C 	53.348065416638114	4.82919416694962	2.15
C 	54.68411610855312	5.310202013697933	2.15
C 	54.93557643980693	6.707759777014258	2.15
C 	56.27162713172193	7.1887676237625655	2.15
C 	56.52308746297574	8.58632538707889	2.15
C 	57.85913815489073	9.067333233827206	2.15
C 	58.11059848614454	10.464890997143533	2.15
C 	59.446649178059545	10.945898843891847	2.15
C 	59.698109509313355	12.343456607208172	2.15
C 	61.03416020122835	12.824464453956478	2.15
C 	61.28562053248216	14.222022217272805	2.15
C 	62.62167122439716	14.70303006402112	2.15
C 	62.87313155565097	16.100587827337446	2.15
C 	64.20918224756596	16.58159567408576	2.15
C 	64.46064257881977	17.979153437402086	2.15
C 	46.164891294555495	-0.37096059342460413	2.15
C 	47.5009419864705	0.11004725332371024	2.15
C 	47.752402317724304	1.5076050166400357	2.15
C 	49.08845300963931	1.98861286338835	2.15
C 	49.33991334089312	3.386170626704675	2.15
C 	50.67596403280812	3.8671784734529826	2.15
C 	50.92742436406193	5.264736236769308	2.15
C 	52.263475055976926	5.745744083517622	2.15
C 	52.51493538723073	7.143301846833948	2.15
C 	53.85098607914573	7.624309693582264	2.15
C 	54.10244641039954	9.021867456898589	2.15
C 	55.43849710231454	9.502875303646894	2.15
C 	55.68995743356835	10.90043306696322	2.15
C 	57.02600812548335	11.381440913711536	2.15
C 	57.277468456737154	12.778998677027861	2.15
C 	58.61351914865216	13.260006523776175	2.15
C 	58.86497947990597	14.657564287092502	2.15
C 	60.20103017182097	15.138572133840809	2.15
C 	60.45249050307478	16.536129897157135	2.15
C 	61.78854119498978	17.017137743905447	2.15
C 	62.040001526243586	18.414695507221772	2.15
C 	63.37605221815858	18.895703353970088	2.15
C 	63.62751254941239	20.293261117286413	2.15
C 	64.96356324132739	20.77426896403472	2.15
C 	65.2150235725812	22.171826727351046	2.15
C 	66.55107426449621	22.65283457409935	2.15
C 	66.80253459575002	24.05039233741568	2.15
C 	68.13858528766501	24.531400184164	2.15
C 	68.39004561891882	25.928957947480324	2.15
C 	69.72609631083382	26.409965794228633	2.15
C 	69.97755664208763	27.807523557544958	2.15
C 	43.74425024197931	0.06458147639509854	2.15
C 	45.08030093389431	0.5455893231434068	2.15
C 	45.33176126514811	1.9431470864597322	2.15
C 	46.66781195706311	2.4241549332080465	2.15
C 	46.91927228831692	3.8217126965243717	2.15
C 	48.255322980231924	4.302720543272686	2.15
C 	48.506783311485734	5.700278306589011	2.15
C 	49.84283400340074	6.181286153337319	2.15
C 	50.09429433465454	7.5788439166536445	2.15
C 	51.43034502656955	8.059851763401959	2.15
C 	51.68180535782336	9.457409526718283	2.15
C 	53.01785604973835	9.938417373466597	2.15
C 	53.26931638099216	11.335975136782924	2.15
C 	54.60536707290716	11.816982983531233	2.15
C 	54.85682740416096	13.214540746847558	2.15
C 	56.192878096075965	13.69554859359587	2.15
C 	56.444338427329775	15.093106356912196	2.15
C 	57.78038911924478	15.57411420366051	2.15
C 	58.03184945049859	16.971671966976835	2.15
C 	59.36790014241358	17.452679813725144	2.15
C 	59.619360473667385	18.85023757704147	2.15
C 	60.95541116558239	19.331245423789785	2.15
C 	61.2068714968362	20.72880318710611	2.15
C 	62.542922188751206	21.209811033854425	2.15
C 	62.794382520005016	22.60736879717075	2.15
C 	64.13043321192	23.088376643919055	2.15
C 	64.38189354317382	24.485934407235384	2.15
C 	65.71794423508882	24.96694225398369	2.15
C 	65.96940456634263	26.364500017300013	2.15
C 	67.30545525825762	26.845507864048336	2.15
C 	67.55691558951143	28.243065627364665	2.15
C 	68.89296628142644	28.72407347411297	2.15
C 	69.14442661268025	30.121631237429295	2.15
C 	70.48047730459525	30.6026390841776	2.15
C 	70.73193763584906	32.000196847493925	2.15
C 	72.06798832776407	32.48120469424225	2.15
C 	72.31944865901788	33.87876245755857	2.15
C 	73.65549935093286	34.359770304306885	2.15
C 	73.90695968218667	35.757328067623206	2.15
C 	75.24301037410167	36.23833591437152	2.15
C 	75.49447070535548	37.63589367768784	2.15
C 	41.323609189403115	0.5001235462147882	2.15
C 	42.65965988131812	0.981131392963106	2.15
C 	42.91112021257192	2.3786891562794277	2.15
C 	44.24717090448692	2.8596970030277387	2.15
C 	44.49863123574073	4.257254766344061	2.15
C 	45.83468192765573	4.738262613092379	2.15
C 	46.08614225890954	6.135820376408701	2.15
C 	47.42219295082454	6.616828223157019	2.15
C 	47.67365328207834	8.014385986473341	2.15
C 	49.009703973993346	8.495393833221652	2.15
C 	49.261164305247156	9.892951596537973	2.15
C 	50.59721499716216	10.37395944328629	2.15
C 	50.84867532841597	11.771517206602613	2.15
C 	52.18472602033098	12.252525053350931	2.15
C 	52.43618635158478	13.650082816667252	2.15
C 	53.77223704349977	14.131090663415563	2.15
C 	54.02369737475358	15.528648426731886	2.15
C 	55.35974806666858	16.009656273480203	2.15
C 	55.61120839792239	17.40721403679653	2.15
C 	56.947259089837395	17.888221883544844	2.15
C 	57.1987194210912	19.285779646861165	2.15
C 	58.534770113006196	19.766787493609478	2.15
C 	58.786230444260006	21.1643452569258	2.15
C 	60.12228113617501	21.64535310367412	2.15
C 	60.37374146742882	23.04291086699044	2.15
C 	61.70979215934382	23.52391871373875	2.15
C 	61.96125249059763	24.92147647705508	2.15
C 	63.29730318251263	25.402484323803385	2.15
C 	63.54876351376644	26.80004208711971	2.15
C 	64.88481420568144	27.28104993386802	2.15
C 	65.13627453693525	28.678607697184344	2.15
C 	66.47232522885024	29.159615543932667	2.15
C 	66.72378556010405	30.55717330724899	2.15
C 	68.05983625201905	31.038181153997296	2.15
C 	68.31129658327286	32.43573891731362	2.15
C 	69.64734727518785	32.916746764061934	2.15
C 	69.89880760644166	34.314304527378255	2.15
C 	71.23485829835667	34.795312374126574	2.15
C 	71.48631862961048	36.1928701374429	2.15
C 	72.82236932152547	36.673877984191215	2.15
C 	73.07382965277928	38.071435747507536	2.15
C 	74.4098803446943	38.55244359425584	2.15
C 	74.66134067594811	39.95000135757217	2.15
C 	37.31545711365811	-0.9428999940301489	2.15
C 	38.65150780557312	-0.46189214728183453	2.15
C 	38.90296813682693	0.9356656160344907	2.15
C 	40.239018828741926	1.416673462782799	2.15
C 	40.49047915999573	2.8142312260991242	2.15
C 	41.82652985191073	3.2952390728474388	2.15
C 	42.07799018316454	4.692796836163764	2.15
C 	43.41404087507954	5.173804682912071	2.15
C 	43.66550120633335	6.571362446228397	2.15
C 	45.00155189824835	7.052370292976711	2.15
C 	45.253012229502154	8.449928056293036	2.15
C 	46.58906292141715	8.930935903041352	2.15
C 	46.84052325267096	10.328493666357677	2.15
C 	48.17657394458596	10.809501513105984	2.15
C 	48.42803427583977	12.20705927642231	2.15
C 	49.764084967754776	12.688067123170624	2.15
C 	50.01554529900858	14.085624886486949	2.15
C 	51.351595990923585	14.566632733235263	2.15
C 	51.603056322177395	15.96419049655159	2.15
C 	52.9391070140924	16.445198343299896	2.15
C 	53.19056734534621	17.84275610661622	2.15
C 	54.526618037261194	18.323763953364537	2.15
C 	54.778078368515	19.721321716680862	2.15
C 	56.11412906043	20.202329563429178	2.15
C 	56.36558939168381	21.599887326745502	2.15
C 	57.70164008359882	22.080895173493808	2.15
C 	57.95310041485263	23.478452936810132	2.15
C 	59.28915110676763	23.95946078355845	2.15
C 	59.54061143802144	25.357018546874773	2.15
C 	60.87666212993643	25.83802639362309	2.15
C 	61.12812246119024	27.235584156939414	2.15
C 	62.46417315310524	27.716592003687722	2.15
C 	62.71563348435905	29.114149767004047	2.15
C 	64.05168417627405	29.595157613752356	2.15
C 	64.30314450752786	30.99271537706868	2.15
C 	65.63919519944287	31.473723223817	2.15
C 	65.89065553069668	32.871280987133325	2.15
C 	67.22670622261168	33.35228883388163	2.15
C 	67.47816655386548	34.74984659719796	2.15
C 	68.81421724578047	35.23085444394627	2.15
C 	69.06567757703428	36.62841220726259	2.15
C 	70.40172826894928	37.10942005401091	2.15
C 	70.6531886002031	38.50697781732724	2.15
C 	71.9892392921181	38.987985664075545	2.15
C 	72.24069962337191	40.38554342739187	2.15
C 	73.57675031528692	40.86655127414018	2.15
C 	73.82821064654073	42.26410903745651	2.15
C 	34.894816061081926	-0.5073579242104489	2.15
C 	36.23086675299692	-0.026350077462137078	2.15
C 	36.48232708425073	1.3712076858541882	2.15
C 	37.81837777616573	1.8522155326025016	2.15
C 	38.06983810741954	3.249773295918827	2.15
C 	39.40588879933454	3.7307811426671345	2.15
C 	39.65734913058835	5.12833890598346	2.15
C 	40.99339982250335	5.609346752731775	2.15
C 	41.24486015375716	7.0069045160481	2.15
C 	42.58091084567216	7.487912362796408	2.15
C 	42.83237117692596	8.885470126112732	2.15
C 	44.168421868840966	9.366477972861047	2.15
C 	44.419882200094776	10.764035736177373	2.15
C 	45.755932892009774	11.245043582925687	2.15
C 	46.007393223263584	12.642601346242012	2.15
C 	47.34344391517858	13.12360919299032	2.15
C 	47.594904246432385	14.521166956306645	2.15
C 	48.93095493834739	15.00217480305496	2.15
C 	49.1824152696012	16.399732566371284	2.15
C 	50.5184659615162	16.8807404131196	2.15
C 	50.76992629277001	18.278298176435925	2.15
C 	52.105976984685014	18.759306023184234	2.15
C 	52.35743731593882	20.15686378650056	2.15
C 	53.693488007853816	20.63787163324887	2.15
C 	53.944948339107626	22.0354293965652	2.15
C 	55.280999031022624	22.51643724331351	2.15
C 	55.532459362276434	23.913995006629836	2.15
C 	56.86851005419143	24.395002853378145	2.15
C 	57.11997038544524	25.792560616694473	2.15
C 	58.45602107736024	26.273568463442786	2.15
C 	58.70748140861405	27.67112622675911	2.15
C 	60.04353210052905	28.152134073507426	2.15
C 	60.29499243178286	29.54969183682375	2.15
C 	61.631043123697864	30.03069968357206	2.15
C 	61.882503454951674	31.428257446888384	2.15
C 	63.21855414686667	31.90926529363669	2.15
C 	63.47001447812048	33.306823056953014	2.15
C 	64.80606517003548	33.78783090370134	2.15
C 	65.05752550128929	35.18538866701766	2.15
C 	66.39357619320428	35.66639651376597	2.15
C 	66.64503652445809	37.063954277082296	2.15
C 	67.9810872163731	37.5449621238306	2.15
C 	68.23254754762691	38.94251988714693	2.15
C 	69.56859823954191	39.42352773389525	2.15
C 	69.82005857079572	40.82108549721158	2.15
C 	71.15610926271071	41.30209334395988	2.15
C 	71.40756959396452	42.69965110727621	2.15
C 	72.74362028587953	43.180658954024516	2.15
C 	72.99508061713334	44.578216717340844	2.15
C 	32.47417500850573	-0.07181585439075666	2.15
C 	33.81022570042074	0.4091919923575577	2.15
C 	34.06168603167455	1.8067497556738796	2.15
C 	35.397736723589546	2.287757602422195	2.15
C 	35.64919705484335	3.6853153657385165	2.15
C 	36.98524774675834	4.1663232124868355	2.15
C 	37.23670807801215	5.5638809758031575	2.15
C 	38.572758769927155	6.044888822551467	2.15
C 	38.824219101180965	7.442446585867789	2.15
C 	40.16026979309597	7.923454432616107	2.15
C 	40.41173012434977	9.321012195932429	2.15
C 	41.74778081626477	9.80202004268074	2.15
C 	41.99924114751858	11.199577805997063	2.15
C 	43.33529183943358	11.68058565274538	2.15
C 	43.58675217068739	13.078143416061701	2.15
C 	44.922802862602396	13.559151262810019	2.15
C 	45.1742631938562	14.956709026126342	2.15
C 	46.5103138857712	15.437716872874653	2.15
C 	46.76177421702501	16.835274636190974	2.15
C 	48.09782490894001	17.31628248293929	2.15
C 	48.34928524019382	18.713840246255614	2.15
C 	49.68533593210882	19.194848093003934	2.15
C 	49.93679626336262	20.592405856320255	2.15
C 	51.27284695527762	21.073413703068564	2.15
C 	51.52430728653143	22.47097146638489	2.15
C 	52.86035797844644	22.951979313133204	2.15
C 	53.11181830970025	24.349537076449526	2.15
C 	54.44786900161525	24.83054492319784	2.15
C 	54.69932933286906	26.228102686514166	2.15
C 	56.03538002478404	26.709110533262475	2.15
C 	56.28684035603785	28.1066682965788	2.15
C 	57.622891047952855	28.587676143327123	2.15
C 	57.874351379206665	29.98523390664344	2.15
C 	59.21040207112167	30.466241753391753	2.15
C 	59.46186240237548	31.863799516708077	2.15
C 	60.79791309429048	32.34480736345638	2.15
C 	61.04937342554429	33.74236512677271	2.15
C 	62.385424117459294	34.223372973521016	2.15
C 	62.636884448713104	35.620930736837344	2.15
C 	63.972935140628095	36.101938583585664	2.15
C 	64.2243954718819	37.49949634690199	2.15
C 	65.56044616379691	37.9805041936503	2.15
C 	65.81190649505072	39.378061956966626	2.15
C 	67.14795718696571	39.85906980371493	2.15
C 	67.39941751821952	41.25662756703126	2.15
C 	68.73546821013453	41.73763541377958	2.15
C 	68.98692854138834	43.1351931770959	2.15
C 	70.32297923330333	43.61620102384421	2.15
C 	70.57443956455714	45.01375878716054	2.15
C 	71.91049025647213	45.494766633908846	2.15
C 	30.053533955929538	0.3637262154289399	2.15
C 	31.389584647844536	0.8447340621772551	2.15
C 	31.641044979098346	2.2422918254935804	2.15
C 	32.97709567101335	2.7232996722418905	2.15
C 	33.228556002267155	4.120857435558216	2.15
C 	34.56460669418215	4.601865282306528	2.15
C 	34.81606702543596	5.999423045622853	2.15
C 	36.15211771735097	6.480430892371167	2.15
C 	36.40357804860478	7.877988655687492	2.15
C 	37.73962874051977	8.3589965024358	2.15
C 	37.99108907177357	9.756554265752126	2.15
C 	39.32713976368858	10.23756211250044	2.15
C 	39.57860009494239	11.635119875816764	2.15
C 	40.914650786857386	12.116127722565073	2.15
C 	41.166111118111196	13.513685485881398	2.15
C 	42.5021618100262	13.994693332629712	2.15
C 	42.753622141280005	15.392251095946039	2.15
C 	44.089672833195	15.873258942694353	2.15
C 	44.34113316444881	17.270816706010677	2.15
C 	45.67718385636382	17.751824552758986	2.15
C 	45.92864418761763	19.14938231607531	2.15
C 	47.26469487953263	19.630390162823623	2.15
C 	47.51615521078643	21.02794792613995	2.15
C 	48.85220590270143	21.508955772888264	2.15
C 	49.10366623395524	22.906513536204592	2.15
C 	50.43971692587024	23.387521382952897	2.15
C 	50.69117725712405	24.785079146269222	2.15
C 	52.02722794903905	25.266086993017538	2.15
C 	52.27868828029286	26.663644756333863	2.15
C 	53.61473897220786	27.14465260308218	2.15
C 	53.86619930346167	28.542210366398503	2.15
C 	55.20224999537667	29.02321821314681	2.15
C 	55.45371032663048	30.420775976463137	2.15
C 	56.78976101854548	30.90178382321145	2.15
C 	57.04122134979929	32.299341586527774	2.15
C 	58.37727204171428	32.78034943327609	2.15
C 	58.62873237296809	34.177907196592415	2.15
C 	59.96478306488309	34.65891504334072	2.15
C 	60.2162433961369	36.05647280665705	2.15
C 	61.55229408805191	36.53748065340535	2.15
C 	61.80375441930571	37.93503841672168	2.15
C 	63.13980511122071	38.41604626347	2.15
C 	63.39126544247452	39.81360402678633	2.15
C 	64.72731613438953	40.294611873534635	2.15
C 	64.97877646564334	41.69216963685096	2.15
C 	66.31482715755833	42.17317748359927	2.15
C 	66.56628748881214	43.570735246915596	2.15
C 	67.90233818072714	44.051743093663916	2.15
C 	68.15379851198095	45.449300856980244	2.15
C 	69.48984920389594	45.93030870372855	2.15
C 	27.632892903353348	0.799268285248639	2.15
C 	28.968943595268346	1.280276131996951	2.15
C 	29.220403926522156	2.677833895313276	2.15
C 	30.556454618437158	3.1588417420615906	2.15
C 	30.807914949690964	4.556399505377915	2.15
C 	32.14396564160596	5.037407352126228	2.15
C 	32.39542597285977	6.4349651154425525	2.15
C 	33.731476664774775	6.915972962190863	2.15
C 	33.982936996028585	8.313530725507189	2.15
C 	35.31898768794358	8.794538572255503	2.15
C 	35.57044801919739	10.19209633557183	2.15
C 	36.90649871111239	10.673104182320136	2.15
C 	37.1579590423662	12.070661945636461	2.15
C 	38.49400973428119	12.551669792384777	2.15
C 	38.745470065535	13.949227555701102	2.15
C 	40.08152075745001	14.430235402449409	2.15
C 	40.33298108870381	15.827793165765733	2.15
C 	41.66903178061881	16.30880101251405	2.15
C 	41.92049211187262	17.706358775830374	2.15
C 	43.256542803787625	18.18736662257869	2.15
C 	43.508003135041434	19.584924385895015	2.15
C 	44.84405382695643	20.06593223264332	2.15
C 	45.095514158210236	21.463489995959648	2.15
C 	46.43156485012524	21.94449784270796	2.15
C 	46.68302518137905	23.342055606024285	2.15
C 	48.01907587329405	23.8230634527726	2.15
C 	48.27053620454786	25.220621216088926	2.15
C 	49.60658689646286	25.701629062837235	2.15
C 	49.85804722771667	27.09918682615356	2.15
C 	51.19409791963166	27.580194672901875	2.15
C 	51.44555825088547	28.9777524362182	2.15
C 	52.781608942800474	29.458760282966512	2.15
C 	53.033069274054284	30.85631804628284	2.15
C 	54.36911996596928	31.337325893031146	2.15
C 	54.62058029722309	32.73488365634747	2.15
C 	55.95663098913809	33.21589150309578	2.15
C 	56.2080913203919	34.61344926641211	2.15
C 	57.54414201230689	35.09445711316043	2.15
C 	57.7956023435607	36.49201487647675	2.15
C 	59.13165303547571	36.97302272322506	2.15
C 	59.38311336672952	38.370580486541385	2.15
C 	60.719164058644516	38.85158833328969	2.15
C 	60.970624389898326	40.24914609660602	2.15
C 	62.306675081813324	40.73015394335434	2.15
C 	62.558135413067134	42.12771170667067	2.15
C 	63.89418610498214	42.60871955341897	2.15
C 	64.14564643623595	44.0062773167353	2.15
C 	65.48169712815094	44.487285163483605	2.15
C 	65.73315745940475	45.884842926799934	2.15
C 	67.06920815131976	46.36585077354825	2.15
C 	23.624740827608345	-0.6437552549963075	2.15
C 	24.960791519523347	-0.16274740824798967	2.15
C 	25.212251850777154	1.2348103550683323	2.15
C 	26.548302542692152	1.7158182018166475	2.15
C 	26.799762873945962	3.113375965132969	2.15
C 	28.135813565860964	3.5943838118812828	2.15
C 	28.387273897114774	4.991941575197605	2.15
C 	29.723324589029772	5.472949421945923	2.15
C 	29.97478492028358	6.8705071852622455	2.15
C 	31.31083561219858	7.35151503201056	2.15
C 	31.56229594345239	8.749072795326882	2.15
C 	32.89834663536739	9.230080642075196	2.15
C 	33.14980696662119	10.627638405391519	2.15
C 	34.4858576585362	11.108646252139835	2.15
C 	34.73731798979001	12.506204015456158	2.15
C 	36.073368681705006	12.987211862204468	2.15
C 	36.324829012958816	14.384769625520791	2.15
C 	37.66087970487382	14.865777472269109	2.15
C 	37.912340036127624	16.26333523558543	2.15
C 	39.248390728042615	16.744343082333742	2.15
C 	39.499851059296425	18.141900845650063	2.15
C 	40.83590175121143	18.62290869239838	2.15
C 	41.08736208246524	20.020466455714704	2.15
C 	42.42341277438024	20.50147430246302	2.15
C 	42.67487310563404	21.899032065779345	2.15
C 	44.01092379754905	22.380039912527653	2.15
C 	44.26238412880286	23.777597675843975	2.15
C 	45.59843482071786	24.258605522592294	2.15
C 	45.84989515197167	25.656163285908615	2.15
C 	47.18594584388667	26.13717113265693	2.15
C 	47.43740617514048	27.534728895973256	2.15
C 	48.77345686705547	28.01573674272156	2.15
C 	49.02491719830928	29.41329450603789	2.15
C 	50.36096789022428	29.89430235278621	2.15
C 	50.61242822147809	31.29186011610253	2.15
C 	51.948478913393096	31.772867962850842	2.15
C 	52.199939244646906	33.17042572616717	2.15
C 	53.5359899365619	33.65143357291547	2.15
C 	53.78745026781571	35.0489913362318	2.15
C 	55.12350095973071	35.52999918298012	2.15
C 	55.37496129098452	36.92755694629644	2.15
C 	56.71101198289952	37.408564793044754	2.15
C 	56.96247231415333	38.80612255636108	2.15
C 	58.29852300606832	39.28713040310939	2.15
C 	58.54998333732213	40.684688166425715	2.15
C 	59.88603402923714	41.16569601317402	2.15
C 	60.13749436049095	42.56325377649035	2.15
C 	61.473545052405946	43.04426162323867	2.15
C 	61.725005383659756	44.44181938655499	2.15
C 	63.061056075574754	44.9228272333033	2.15
C 	63.312516406828564	46.32038499661962	2.15
C 	64.64856709874356	46.801392843367935	2.15
C 	21.204099775032155	-0.20821318517660967	2.15
C 	22.540150466947154	0.2727946615717034	2.15
C 	22.79161079820096	1.670352424888027	2.15
C 	24.127661490115962	2.151360271636343	2.15
C 	24.379121821369772	3.5489180349526666	2.15
C 	25.715172513284774	4.029925881700979	2.15
C 	25.966632844538584	5.427483645017303	2.15
C 	27.30268353645358	5.908491491765616	2.15
C 	27.554143867707385	7.30604925508194	2.15
C 	28.89019455962239	7.787057101830255	2.15
C 	29.1416548908762	9.184614865146578	2.15
C 	30.477705582791195	9.665622711894892	2.15
C 	30.729165914045005	11.063180475211214	2.15
C 	32.06521660596	11.544188321959528	2.15
C 	32.31667693721381	12.941746085275854	2.15
C 	33.65272762912881	13.422753932024168	2.15
C 	33.90418796038262	14.820311695340495	2.15
C 	35.24023865229763	15.3013195420888	2.15
C 	35.49169898355143	16.698877305405126	2.15
C 	36.82774967546643	17.179885152153442	2.15
C 	37.07921000672024	18.577442915469767	2.15
C 	38.415260698635244	19.058450762218072	2.15
C 	38.666721029889054	20.4560085255344	2.15
C 	40.002771721804045	20.937016372282713	2.15
C 	40.25423205305785	22.33457413559904	2.15
C 	41.59028274497285	22.815581982347354	2.15
C 	41.84174307622666	24.21313974566368	2.15
C 	43.17779376814166	24.694147592411987	2.15
C 	43.42925409939547	26.091705355728312	2.15
C 	44.76530479131048	26.572713202476628	2.15
C 	45.01676512256429	27.970270965792952	2.15
C 	46.352815814479285	28.451278812541265	2.15
C 	46.604276145733095	29.84883657585759	2.15
C 	47.940326837648094	30.3298444226059	2.15
C 	48.191787168901904	31.727402185922223	2.15
C 	49.527837860816895	32.20841003267054	2.15
C 	49.779298192070705	33.605967795986864	2.15
C 	51.1153488839857	34.086975642735176	2.15
C 	51.36680921523951	35.484533406051504	2.15
C 	52.70285990715451	35.96554125279981	2.15
C 	52.95432023840832	37.36309901611614	2.15
C 	54.29037093032333	37.84410686286445	2.15
C 	54.54183126157714	39.24166462618078	2.15
C 	55.87788195349213	39.72267247292909	2.15
C 	56.12934228474594	41.12023023624542	2.15
C 	57.465392976660944	41.601238082993724	2.15
C 	57.716853307914754	42.99879584631005	2.15
C 	59.05290399982975	43.47980369305836	2.15
C 	59.304364331083555	44.87736145637468	2.15
C 	60.64041502299856	45.358369303123006	2.15
C 	18.78345872245596	0.22732888464308645	2.15
C 	20.119509414370963	0.7083367313913995	2.15
C 	20.37096974562477	2.105894494707723	2.15
C 	21.70702043753977	2.5869023414560357	2.15
C 	21.958480768793578	3.984460104772359	2.15
C 	23.294531460708576	4.465467951520676	2.15
C 	23.545991791962386	5.863025714837	2.15
C 	24.882042483877388	6.344033561585312	2.15
C 	25.133502815131195	7.741591324901636	2.15
C 	26.4695535070462	8.222599171649948	2.15
C 	26.721013838300006	9.620156934966271	2.15
C 	28.057064530215	10.101164781714589	2.15
C 	28.30852486146881	11.49872254503091	2.15
C 	29.644575553383817	11.979730391779224	2.15
C 	29.896035884637623	13.377288155095549	2.15
C 	31.23208657655262	13.858296001843861	2.15
C 	31.483546907806428	15.255853765160182	2.15
C 	32.81959759972143	15.7368616119085	2.15
C 	33.071057930975236	17.134419375224823	2.15
C 	34.407108622890235	17.615427221973135	2.15
C 	34.658568954144044	19.012984985289457	2.15
C 	35.99461964605905	19.493992832037772	2.15
C 	36.24607997731286	20.891550595354094	2.15
C 	37.58213066922786	21.372558442102406	2.15
C 	37.83359100048166	22.770116205418727	2.15
C 	39.16964169239667	23.251124052167047	2.15
C 	39.42110202365048	24.648681815483368	2.15
C 	40.75715271556547	25.129689662231687	2.15
C 	41.00861304681928	26.52724742554801	2.15
C 	42.34466373873428	27.00825527229632	2.15
C 	42.596124069988086	28.405813035612642	2.15
C 	43.93217476190309	28.886820882360954	2.15
C 	44.1836350931569	30.28437864567728	2.15
C 	45.5196857850719	30.765386492425602	2.15
C 	45.77114611632571	32.16294425574192	2.15
C 	47.107196808240715	32.64395210249023	2.15
C 	47.35865713949452	34.04150986580655	2.15
C 	48.69470783140952	34.522517712554865	2.15
C 	48.94616816266333	35.920075475871194	2.15
C 	50.282218854578325	36.40108332261951	2.15
C 	50.533679185832135	37.798641085935834	2.15
C 	51.86972987774713	38.27964893268415	2.15
C 	52.121190209000936	39.67720669600047	2.15
C 	53.45724090091594	40.15821454274878	2.15
C 	53.70870123216975	41.55577230606511	2.15
C 	55.04475192408475	42.03678015281343	2.15
C 	55.29621225533856	43.43433791612975	2.15
C 	56.632262947253565	43.91534576287806	2.15
C 	56.88372327850737	45.312903526194376	2.15
C 	58.219773970422374	45.793911372942695	2.15
C 	16.36281766987977	0.6628709544627843	2.15
C 	17.698868361794773	1.1438788012110974	2.15
C 	17.95032869304858	2.541436564527421	2.15
C 	19.286379384963578	3.0224444112757336	2.15
C 	19.537839716217388	4.4200021745920575	2.15
C 	20.873890408132386	4.90101002134037	2.15
C 	21.125350739386196	6.298567784656694	2.15
C 	22.461401431301198	6.7795756314050095	2.15
C 	22.712861762555004	8.177133394721334	2.15
C 	24.048912454470006	8.658141241469645	2.15
C 	24.300372785723816	10.05569900478597	2.15
C 	25.63642347763881	10.536706851534282	2.15
C 	25.88788380889262	11.934264614850607	2.15
C 	27.223934500807626	12.41527246159892	2.15
C 	27.475394832061433	13.812830224915245	2.15
C 	28.811445523976428	14.293838071663561	2.15
C 	29.062905855230238	15.691395834979883	2.15
C 	30.39895654714524	16.17240368172819	2.15
C 	30.65041687839905	17.56996144504452	2.15
C 	31.986467570314048	18.050969291792832	2.15
C 	32.23792790156786	19.44852705510916	2.15
C 	33.573978593482856	19.929534901857465	2.15
C 	33.825438924736666	21.32709266517379	2.15
C 	35.161489616651664	21.808100511922106	2.15
C 	35.41294994790547	23.20565827523843	2.15
C 	36.74900063982047	23.68666612198674	2.15
C 	37.00046097107428	25.084223885303064	2.15
C 	38.33651166298928	25.56523173205138	2.15
C 	38.58797199424309	26.962789495367705	2.15
C 	39.9240226861581	27.443797342116017	2.15
C 	40.175483017411906	28.841355105432346	2.15
C 	41.51153370932689	29.32236295218065	2.15
C 	41.7629940405807	30.71992071549698	2.15
C 	43.099044732495706	31.20092856224529	2.15
C 	43.350505063749516	32.598486325561616	2.15
C 	44.68655575566452	33.07949417230993	2.15
C 	44.93801608691833	34.47705193562626	2.15
C 	46.27406677883332	34.95805978237456	2.15
C 	46.52552711008713	36.35561754569089	2.15
C 	47.86157780200213	36.8366253924392	2.15
C 	48.11303813325594	38.23418315575553	2.15
C 	49.449088825170946	38.71519100250384	2.15
C 	49.700549156424756	40.11274876582017	2.15
C 	51.03659984833974	40.59375661256848	2.15
C 	51.28806017959355	41.991314375884805	2.15
C 	52.624110871508556	42.47232222263312	2.15
C 	52.875571202762366	43.869879985949446	2.15
C 	54.211621894677364	44.35088783269776	2.15
C 	54.463082225931174	45.74844559601408	2.15
C 	55.79913291784617	46.22945344276239	2.15
C 	12.354665594134769	-0.7801525857821575	2.15
C 	13.69071628604977	-0.29914473903384314	2.15
C 	13.942176617303579	1.0984130242824803	2.15
C 	15.278227309218579	1.5794208710307953	2.15
C 	15.529687640472387	2.9769786343471187	2.15
C 	16.865738332387387	3.4579864810954315	2.15
C 	17.117198663641197	4.855544244411755	2.15
C 	18.453249355556196	5.336552091160068	2.15
C 	18.704709686810006	6.734109854476392	2.15
C 	20.040760378725004	7.215117701224704	2.15
C 	20.29222070997881	8.612675464541027	2.15
C 	21.628271401893812	9.093683311289345	2.15
C 	21.879731733147622	10.491241074605668	2.15
C 	23.21578242506262	10.97224892135398	2.15
C 	23.46724275631643	12.369806684670303	2.15
C 	24.80329344823143	12.850814531418617	2.15
C 	25.054753779485235	14.248372294734942	2.15
C 	26.390804471400237	14.729380141483256	2.15
C 	26.642264802654047	16.126937904799583	2.15
C 	27.978315494569046	16.60794575154789	2.15
C 	28.229775825822855	18.005503514864216	2.15
C 	29.565826517737854	18.48651136161253	2.15
C 	29.81728684899166	19.884069124928857	2.15
C 	31.153337540906662	20.36507697167717	2.15
C 	31.404797872160472	21.762634734993494	2.15
C 	32.74084856407547	22.243642581741803	2.15
C 	32.99230889532928	23.641200345058127	2.15
C 	34.32835958724428	24.122208191806443	2.15
C 	34.57981991849809	25.519765955122768	2.15
C 	35.91587061041309	26.000773801871077	2.15
C 	36.1673309416669	27.3983315651874	2.15
C 	37.503381633581895	27.879339411935714	2.15
C 	37.754841964835705	29.276897175252042	2.15
C 	39.090892656750704	29.757905022000354	2.15
C 	39.342352988004514	31.15546278531668	2.15
C 	40.67840367991952	31.636470632064988	2.15
C 	40.92986401117333	33.03402839538131	2.15
C 	42.26591470308833	33.515036242129625	2.15
C 	42.51737503434214	34.91259400544595	2.15
C 	43.85342572625713	35.393601852194266	2.15
C 	44.10488605751094	36.791159615510594	2.15
C 	45.440936749425944	37.2721674622589	2.15
C 	45.692397080679754	38.66972522557523	2.15
C 	47.02844777259475	39.15073307232354	2.15
C 	47.27990810384856	40.54829083563987	2.15
C 	48.61595879576356	41.02929868238818	2.15
C 	48.86741912701737	42.4268564457045	2.15
C 	50.20346981893237	42.907864292452814	2.15
C 	50.45493015018618	44.305422055769135	2.15
C 	51.79098084210118	44.786429902517455	2.15
C 	52.04244117335499	46.183987665833776	2.15
C 	53.378491865269986	46.664995512582095	2.15
C 	9.934024541558577	-0.3446105159624611	2.15
C 	11.270075233473577	0.1363973307858517	2.15
C 	11.521535564727385	1.5339550941021753	2.15
C 	12.857586256642387	2.0149629408504897	2.15
C 	13.109046587896195	3.412520704166813	2.15
C 	14.445097279811195	3.8935285509151276	2.15
C 	14.696557611065003	5.2910863142314515	2.15
C 	16.03260830298	5.772094160979764	2.15
C 	16.28406863423381	7.169651924296088	2.15
C 	17.620119326148814	7.6506597710444	2.15
C 	17.87157965740262	9.048217534360724	2.15
C 	19.207630349317622	9.529225381109036	2.15
C 	19.45909068057143	10.926783144425361	2.15
C 	20.795141372486427	11.407790991173677	2.15
C 	21.046601703740237	12.805348754489998	2.15
C 	22.38265239565524	13.286356601238314	2.15
C 	22.634112726909045	14.683914364554639	2.15
C 	23.970163418824047	15.16492221130295	2.15
C 	24.221623750077853	16.562479974619272	2.15
C 	25.55767444199285	17.043487821367588	2.15
C 	25.80913477324666	18.441045584683913	2.15
C 	27.145185465161664	18.922053431432225	2.15
C 	27.39664579641547	20.31961119474855	2.15
C 	28.732696488330472	20.800619041496862	2.15
C 	28.984156819584282	22.198176804813183	2.15
C 	30.32020751149928	22.679184651561503	2.15
C 	30.571667842753087	24.076742414877824	2.15
C 	31.90771853466809	24.557750261626136	2.15
C 	32.159178865921895	25.955308024942457	2.15
C 	33.4952295578369	26.436315871690773	2.15
C 	33.7466898890907	27.833873635007098	2.15
C 	35.0827405810057	28.31488148175541	2.15
C 	35.33420091225951	29.712439245071728	2.15
C 	36.67025160417451	30.193447091820044	2.15
C 	36.92171193542832	31.59100485513637	2.15
C 	38.257762627343325	32.07201270188469	2.15
C 	38.50922295859713	33.46957046520101	2.15
C 	39.845273650512134	33.95057831194932	2.15
C 	40.09673398176594	35.34813607526564	2.15
C 	41.43278467368094	35.829143922013955	2.15
C 	41.68424500493475	37.22670168533028	2.15
C 	43.02029569684975	37.7077095320786	2.15
C 	43.27175602810356	39.105267295394924	2.15
C 	44.60780672001856	39.586275142143236	2.15
C 	44.85926705127236	40.98383290545956	2.15
C 	46.19531774318736	41.46484075220787	2.15
C 	46.44677807444117	42.8623985155242	2.15
C 	47.782828766356175	43.34340636227252	2.15
C 	48.034289097609985	44.74096412558883	2.15
C 	49.370339789524984	45.22197197233715	2.15
C 	7.5133834889823845	0.09093155385723498	2.15
C 	8.849434180897386	0.5719394006055487	2.15
C 	9.100894512151195	1.9694971639218724	2.15
C 	10.436945204066193	2.450505010670185	2.15
C 	10.688405535320001	3.8480627739865088	2.15
C 	12.024456227235003	4.329070620734822	2.15
C 	12.275916558488811	5.726628384051146	2.15
C 	13.611967250403813	6.20763623079946	2.15
C 	13.863427581657621	7.605193994115786	2.15
C 	15.19947827357262	8.086201840864096	2.15
C 	15.45093860482643	9.483759604180422	2.15
C 	16.786989296741428	9.964767450928733	2.15
C 	17.038449627995238	11.36232521424506	2.15
C 	18.374500319910236	11.84333306099337	2.15
C 	18.625960651164046	13.240890824309695	2.15
C 	19.96201134307905	13.721898671058009	2.15
C 	20.213471674332855	15.119456434374335	2.15
C 	21.549522366247853	15.600464281122646	2.15
C 	21.800982697501663	16.998022044438972	2.15
C 	23.13703338941666	17.47902989118728	2.15
C 	23.38849372067047	18.87658765450361	2.15
C 	24.724544412585473	19.35759550125192	2.15
C 	24.97600474383928	20.755153264568246	2.15
C 	26.312055435754278	21.23616111131656	2.15
C 	26.563515767008088	22.633718874632883	2.15
C 	27.899566458923086	23.114726721381196	2.15
C 	28.151026790176896	24.51228448469752	2.15
C 	29.487077482091898	24.993292331445833	2.15
C 	29.738537813345705	26.39085009476216	2.15
C 	31.074588505260703	26.871857941510466	2.15
C 	31.326048836514513	28.269415704826795	2.15
C 	32.662099528429515	28.750423551575107	2.15
C 	32.913559859683325	30.14798131489143	2.15
C 	34.24961055159832	30.62898916163974	2.15
C 	34.50107088285213	32.026546924956065	2.15
C 	35.837121574767124	32.50755477170438	2.15
C 	36.088581906020934	33.905112535020706	2.15
C 	37.42463259793594	34.38612038176902	2.15
C 	37.67609292918975	35.78367814508535	2.15
C 	39.01214362110475	36.26468599183365	2.15
C 	39.26360395235856	37.66224375514998	2.15
C 	40.59965464427356	38.14325160189829	2.15
C 	40.85111497552737	39.54080936521462	2.15
C 	42.18716566744237	40.02181721196293	2.15
C 	42.43862599869618	41.41937497527926	2.15
C 	43.77467669061117	41.90038282202757	2.15
C 	44.02613702186498	43.29794058534389	2.15
C 	45.36218771377998	43.77894843209221	2.15
C 	45.61364804503379	45.17650619540853	2.15
C 	46.9496987369488	45.65751404215685	2.15
C 	5.092742436406192	0.5264736236769312	2.15
C 	6.428793128321193	1.0074814704252448	2.15
C 	6.6802534595750025	2.4050392337415682	2.15
C 	8.01630415149	2.886047080489882	2.15
C 	8.267764482743809	4.283604843806206	2.15
C 	9.603815174658811	4.764612690554518	2.15
C 	9.85527550591262	6.162170453870842	2.15
C 	11.19132619782762	6.643178300619157	2.15
C 	11.442786529081427	8.04073606393548	2.15
C 	12.778837220996426	8.521743910683794	2.15
C 	13.030297552250236	9.919301674000119	2.15
C 	14.366348244165236	10.400309520748431	2.15
C 	14.617808575419044	11.797867284064754	2.15
C 	15.953859267334044	12.278875130813068	2.15
C 	16.205319598587852	13.676432894129391	2.15
C 	17.54137029050285	14.157440740877705	2.15
C 	17.79283062175666	15.554998504194028	2.15
C 	19.128881313671663	16.036006350942344	2.15
C 	19.38034164492547	17.43356411425867	2.15
C 	20.71639233684047	17.914571961006978	2.15
C 	20.96785266809428	19.312129724323302	2.15
C 	22.30390336000928	19.793137571071618	2.15
C 	22.555363691263086	21.19069533438794	2.15
C 	23.891414383178088	21.67170318113626	2.15
C 	24.142874714431898	23.06926094445258	2.15
C 	25.478925406346896	23.550268791200892	2.15
C 	25.730385737600706	24.947826554517217	2.15
C 	27.066436429515704	25.42883440126553	2.15
C 	27.31789676076951	26.826392164581854	2.15
C 	28.653947452684513	27.30740001133017	2.15
C 	28.905407783938323	28.704957774646495	2.15
C 	30.24145847585332	29.185965621394804	2.15
C 	30.49291880710713	30.58352338471113	2.15
C 	31.82896949902213	31.064531231459444	2.15
C 	32.08042983027594	32.46208899477576	2.15
C 	33.41648052219094	32.943096841524074	2.15
C 	33.66794085344475	34.340654604840395	2.15
C 	35.003991545359746	34.821662451588715	2.15
C 	35.255451876613556	36.21922021490504	2.15
C 	36.591502568528554	36.700228061653355	2.15
C 	36.842962899782364	38.09778582496968	2.15
C 	38.17901359169736	38.57879367171799	2.15
C 	38.43047392295117	39.97635143503431	2.15
C 	39.76652461486618	40.45735928178263	2.15
C 	40.01798494611999	41.85491704509895	2.15
C 	41.354035638034986	42.33592489184727	2.15
C 	41.605495969288796	43.733482655163584	2.15
C 	42.941546661203795	44.214490501911904	2.15
C 	43.193006992457605	45.61204826522822	2.15
C 	44.529057684372596	46.093056111976544	2.15
C 	2.420641052576192	-0.4355420698196962	2.15
C 	2.6721013838300003	0.9620156934966274	2.15
C 	4.008152075745	1.443023540244941	2.15
C 	4.2596124069988095	2.840581303561265	2.15
C 	5.59566309891381	3.3215891503095785	2.15
C 	5.847123430167618	4.719146913625902	2.15
C 	7.183174122082618	5.2001547603742155	2.15
C 	7.434634453336426	6.597712523690539	2.15
C 	8.770685145251425	7.078720370438853	2.15
C 	9.022145476505234	8.476278133755175	2.15
C 	10.358196168420235	8.957285980503489	2.15
C 	10.609656499674045	10.354843743819815	2.15
C 	11.945707191589044	10.83585159056813	2.15
C 	12.197167522842852	12.23340935388445	2.15
C 	13.533218214757852	12.714417200632765	2.15
C 	13.78467854601166	14.111974963949088	2.15
C 	15.12072923792666	14.592982810697402	2.15
C 	15.372189569180469	15.990540574013723	2.15
C 	16.70824026109547	16.471548420762037	2.15
C 	16.959700592349275	17.869106184078362	2.15
C 	18.295751284264277	18.350114030826678	2.15
C 	18.547211615518084	19.747671794143	2.15
C 	19.88326230743309	20.228679640891315	2.15
C 	20.134722638686895	21.626237404207636	2.15
C 	21.470773330601897	22.107245250955952	2.15
C 	21.722233661855707	23.504803014272273	2.15
C 	23.058284353770706	23.98581086102059	2.15
C 	23.309744685024512	25.383368624336914	2.15
C 	24.645795376939514	25.864376471085226	2.15
C 	24.89725570819332	27.261934234401547	2.15
C 	26.233306400108322	27.742942081149863	2.15
C 	26.484766731362132	29.140499844466184	2.15
C 	27.820817423277127	29.6215076912145	2.15
C 	28.072277754530937	31.019065454530825	2.15
C 	29.40832844644594	31.500073301279134	2.15
C 	29.659788777699745	32.89763106459546	2.15
C 	30.995839469614747	33.37863891134377	2.15
C 	31.247299800868557	34.7761966746601	2.15
C 	32.58335049278355	35.257204521408404	2.15
C 	32.83481082403736	36.65476228472473	2.15
C 	34.17086151595236	37.135770131473045	2.15
C 	34.42232184720617	38.53332789478937	2.15
C 	35.758372539121176	39.014335741537685	2.15
C 	36.00983287037498	40.411893504854014	2.15
C 	37.34588356228998	40.89290135160232	2.15
C 	37.59734389354379	42.29045911491864	2.15
C 	38.93339458545879	42.77146696166696	2.15
C 	39.1848549167126	44.16902472498328	2.15
C 	40.5209056086276	44.6500325717316	2.15
C 	40.77236593988141	46.04759033504792	2.15
C 	42.108416631796416	46.52859818179623	2.15
C 	1.5875110231688085	1.8785656100646373	2.15
C 	1.838971354422617	3.276123373380961	2.15
C 	3.175022046337617	3.7571312201292746	2.15
C 	3.4264823775914257	5.154688983445598	2.15
C 	4.762533069506426	5.635696830193912	2.15
C 	5.013993400760234	7.033254593510235	2.15
C 	6.350044092675234	7.514262440258549	2.15
C 	6.601504423929043	8.911820203574873	2.15
C 	7.937555115844043	9.392828050323185	2.15
C 	8.189015447097852	10.790385813639508	2.15
C 	9.525066139012852	11.271393660387824	2.15
C 	9.77652647026666	12.668951423704147	2.15
C 	11.112577162181662	13.149959270452461	2.15
C 	11.36403749343547	14.547517033768784	2.15
C 	12.700088185350468	15.028524880517098	2.15
C 	12.951548516604278	16.426082643833425	2.15
C 	14.287599208519277	16.907090490581734	2.15
C 	14.539059539773085	18.304648253898055	2.15
C 	15.875110231688087	18.78565610064637	2.15
C 	16.126570562941893	20.183213863962695	2.15
C 	17.462621254856895	20.66422171071101	2.15
C 	17.7140815861107	22.061779474027336	2.15
C 	19.050132278025703	22.54278732077565	2.15
C 	19.301592609279513	23.94034508409197	2.15
C 	20.63764330119451	24.421352930840282	2.15
C 	20.88910363244832	25.818910694156607	2.15
C 	22.225154324363324	26.299918540904923	2.15
C 	22.47661465561713	27.697476304221247	2.15
C 	23.81266534753213	28.17848415096956	2.15
C 	24.06412567878594	29.57604191428588	2.15
C 	25.400176370700937	30.057049761034197	2.15
C 	25.651636701954747	31.45460752435052	2.15
C 	26.98768739386975	31.935615371098837	2.15
C 	27.23914772512356	33.33317313441516	2.15
C 	28.575198417038553	33.81418098116347	2.15
C 	28.826658748292363	35.211738744479796	2.15
C 	30.16270944020736	35.69274659122811	2.15
C 	30.41416977146117	37.090304354544436	2.15
C 	31.750220463376174	37.57131220129274	2.15
C 	32.00168079462998	38.96886996460907	2.15
C 	33.33773148654498	39.44987781135738	2.15
C 	33.589191817798785	40.84743557467371	2.15
C 	34.92524250971379	41.32844342142202	2.15
C 	35.1767028409676	42.726001184738344	2.15
C 	36.5127535328826	43.207009031486656	2.15
C 	36.76421386413641	44.60456679480298	2.15
C 	38.10026455605141	45.0855746415513	2.15
C 	7.10442508643666	11.706935730207517	2.15
C 	7.355885417690468	13.104493493523844	2.15
C 	8.69193610960547	13.585501340272158	2.15
C 	8.943396440859278	14.983059103588479	2.15
C 	10.279447132774276	15.464066950336795	2.15
C 	10.530907464028086	16.861624713653118	2.15
C 	11.866958155943086	17.34263256040143	2.15
C 	12.118418487196895	18.740190323717755	2.15
C 	13.454469179111895	19.221198170466067	2.15
C 	13.705929510365703	20.618755933782392	2.15
C 	15.041980202280701	21.099763780530704	2.15
C 	15.29344053353451	22.49732154384703	2.15
C 	16.629491225449513	22.97832939059534	2.15
C 	16.88095155670332	24.37588715391167	2.15
C 	18.21700224861832	24.85689500065998	2.15
C 	18.468462579872128	26.254452763976303	2.15
C 	19.80451327178713	26.735460610724616	2.15
C 	20.055973603040936	28.13301837404094	2.15
C 	21.392024294955938	28.614026220789256	2.15
C 	21.643484626209748	30.011583984105577	2.15
C 	22.979535318124746	30.492591830853893	2.15
C 	23.230995649378556	31.890149594170218	2.15
C 	24.567046341293555	32.37115744091853	2.15
C 	24.81850667254736	33.76871520423485	2.15
C 	26.154557364462363	34.24972305098317	2.15
C 	26.406017695716173	35.64728081429949	2.15
C 	27.74206838763117	36.128288661047804	2.15
C 	27.99352871888498	37.525846424364126	2.15
C 	29.32957941079998	38.006854271112445	2.15
C 	29.581039742053786	39.404412034428766	2.15
C 	30.917090433968788	39.88541988117708	2.15
C 	31.168550765222594	41.28297764449339	2.15
C 	32.504601457137596	41.76398549124172	2.15
C 	32.756061788391406	43.16154325455803	2.15
C 	34.092112480306405	43.64255110130636	2.15
C 	34.343572811560215	45.040108864622674	2.15
C 	35.67962350347521	45.52111671137099	2.15
C 	12.621339149704513	21.535305850350404	2.15
C 	12.872799480958319	22.932863613666726	2.15
C 	14.20885017287332	23.413871460415034	2.15
C 	14.460310504127127	24.811429223731363	2.15
C 	15.796361196042128	25.292437070479675	2.15
C 	16.047821527295934	26.689994833796	2.15
C 	17.38387221921094	27.171002680544316	2.15
C 	17.635332550464746	28.568560443860637	2.15
C 	18.971383242379744	29.04956829060895	2.15
C 	19.222843573633554	30.447126053925274	2.15
C 	20.558894265548552	30.92813390067359	2.15
C 	20.810354596802362	32.325691663989915	2.15
C 	22.146405288717364	32.80669951073823	2.15
C 	22.39786561997117	34.20425727405455	2.15
C 	23.733916311886173	34.68526512080286	2.15
C 	23.985376643139983	36.08282288411919	2.15
C 	25.321427335054977	36.5638307308675	2.15
C 	25.572887666308787	37.96138849418383	2.15
C 	26.90893835822379	38.442396340932135	2.15
C 	27.160398689477596	39.839954104248456	2.15
C 	28.496449381392598	40.320961950996775	2.15
C 	28.747909712646408	41.718519714313096	2.15
C 	30.083960404561402	42.19952756106141	2.15
C 	30.335420735815212	43.59708532437773	2.15
C 	31.671471427730214	44.07809317112605	2.15
C 	31.92293175898402	45.47565093444237	2.15
C 	33.258982450899026	45.95665878119068	2.15
C 	19.72576423614117	33.24224158055792	2.15
C 	19.97722456739498	34.63979934387425	2.15
C 	21.31327525930998	35.12080719062256	2.15
C 	21.56473559056379	36.518364953938885	2.15
C 	22.900786282478787	36.9993728006872	2.15
C 	23.152246613732597	38.39693056400352	2.15
C 	24.4882973056476	38.87793841075184	2.15
C 	24.73975763690141	40.27549617406816	2.15
C 	26.075808328816404	40.75650402081647	2.15
C 	26.327268660070214	42.15406178413279	2.15
C 	27.663319351985216	42.63506963088111	2.15
C 	27.914779683239022	44.03262739419743	2.15
C 	29.250830375154024	44.513635240945746	2.15
C 	29.50229070640783	45.91119300426207	2.15
C 	30.83834139832283	46.39220085101038	2.15
C 	25.242678299409025	43.07061170070081	2.15
C 	25.49413863066283	44.46816946401712	2.15
C 	26.83018932257783	44.949177310765435	2.15
C 	27.081649653831636	46.346735074081764	2.15
C 	28.41770034574664	46.82774292083007	2.15
H 	52.400662055928336	-0.43625233568582933	2.15
H 	54.76227278600345	0.4139798441298509	2.15
H 	56.349783809172266	2.2925454541944914	2.15
H 	57.937294832341074	4.171111064259123	2.15
H 	59.524805855509875	6.0496766743237655	2.15
H 	59.96928855371203	8.520007650326562	2.15
H 	48.39250998018336	-1.879275875930769	2.15
H 	50.754120710258455	-1.0290436961150846	2.15
H 	60.279186849271305	10.242349964272742	2.15
H 	61.866697872440106	12.120915574337364	2.15
H 	63.45420889560892	13.999481184402013	2.15
H 	65.04171991877772	15.878046794466652	2.15
H 	65.48620261697988	18.348377770469458	2.15
H 	45.97186892760714	-1.4437338061110758	2.15
H 	65.79610091253915	20.070720084415616	2.15
H 	67.38361193570796	21.949285694480242	2.15
H 	68.97112295887676	23.827851304544886	2.15
H 	70.55863398204558	25.706416914609527	2.15
H 	71.00311668024774	28.176747890612322	2.15
H 	43.55122787503096	-1.0081917362913748	2.15
H 	71.31301497580701	29.89909020455849	2.15
H 	72.90052599897584	31.777655814623156	2.15
H 	74.48803702214461	33.65622142468777	2.15
H 	76.07554804531343	35.53478703475241	2.15
H 	76.52003074351559	38.005118010755204	2.15
H 	41.13058682245477	-0.5726496664716854	2.15
H 	75.68690071410822	40.319225690639534	2.15
H 	37.122434746709764	-2.0156732067166225	2.15
H 	39.48404547678488	-1.1654410269009399	2.15
H 	74.85377068470083	42.63333337052388	2.15
H 	34.70179369413358	-1.5801311368969224	2.15
H 	74.02064065529345	44.94744105040821	2.15
H 	32.281152641557384	-1.1445890670772303	2.15
H 	72.10351262342046	46.567539846595324	2.15
H 	29.86051158898119	-0.7090469972575336	2.15
H 	69.68287157084427	47.00308191641503	2.15
H 	27.439870536405007	-0.2735049274378354	2.15
H 	67.2622305182681	47.438623986234724	2.15
H 	23.43171846066	-1.716528467682781	2.15
H 	25.79332919073511	-0.8662962878670919	2.15
H 	62.47997873561681	47.023933876238736	2.15
H 	64.84158946569191	47.874166056054406	2.15
H 	21.011077408083807	-1.280986397863083	2.15
H 	60.8334373899469	46.431142515809476	2.15
H 	18.590436355507613	-0.8454443280433871	2.15
H 	58.41279633737073	46.866684585629166	2.15
H 	16.169795302931423	-0.4099022582236892	2.15
H 	55.99215528479451	47.30222665544887	2.15
H 	12.161643227186422	-1.8529257984686311	2.15
H 	14.523253957261533	-1.0026936186529476	2.15
H 	51.20990350214322	46.887536545452875	2.15
H 	53.57151423221833	47.737768725268566	2.15
H 	9.74100217461023	-1.4173837286489348	2.15
H 	49.56336215647332	46.29474518502363	2.15
H 	7.320361122034037	-0.9818416588292386	2.15
H 	47.14272110389715	46.73028725484332	2.15
H 	4.899720069457845	-0.5462995890095423	2.15
H 	44.72208005132093	47.16582932466302	2.15
H 	39.93982826866965	46.75113921466703	2.15
H 	42.301438998744764	47.6013713944827	2.15
H 	0.5619509850087028	1.5093412769972696	2.15
H 	1.0064336832108567	3.979672253000067	2.15
H 	2.5939447063796655	5.858237863064704	2.15
H 	4.181455729548474	7.736803473129341	2.15
H 	5.768966752717285	9.61536908319398	2.15
H 	38.29328692299974	46.158347854237775	2.15
H 	6.078865048276555	11.337711397140149	2.15
H 	6.523347746478708	13.80804237314295	2.15
H 	8.110858769647518	15.686607983207585	2.15
H 	9.698369792816328	17.565173593272224	2.15
H 	11.285880815985138	19.443739203336865	2.15
H 	35.872645870423554	46.593889924057464	2.15
H 	11.595779111544408	21.166081517283036	2.15
H 	12.04026180974656	23.636412493285835	2.15
H 	13.627772832915369	25.514978103350472	2.15
H 	15.21528385608417	27.393543713415102	2.15
H 	16.802794879252986	29.272109323479743	2.15
H 	18.390305902421794	31.15067493354438	2.15
H 	33.452004817847374	47.029431993877154	2.15
H 	18.700204197981066	32.87301724749056	2.15
H 	19.14468689618323	35.343348223493365	2.15
H 	20.732197919352032	37.221913833558	2.15
H 	22.319708942520833	39.100479443622625	2.15
H 	23.90721996568965	40.979045053687265	2.15
H 	31.03136376527117	47.46497406369686	2.15
H 	24.217118261248917	42.70138736763345	2.15
H 	24.661600959451068	45.17171834363622	2.15
H 	26.249111982619876	47.05028395370087	2.15
H 	28.61072271269499	47.90051613351654	2.15
