2346

C 	0.0	0.0	0.0
C 	1.2297560733739028	0.7099999999999999	0.0
C 	2.4595121467478056	-2.3647750424515833e-16	0.0
C 	3.689268220121708	0.7099999999999995	0.0
C 	4.919024293495611	-4.729550084903167e-16	0.0
C 	6.148780366869514	0.7099999999999993	0.0
C 	7.378536440243416	-7.09432512735475e-16	0.0
C 	8.60829251361732	0.7099999999999991	0.0
C 	9.838048586991222	-9.459100169806333e-16	0.0
C 	11.067804660365125	0.7099999999999989	0.0
C 	12.297560733739026	-1.1823875212257916e-15	0.0
C 	13.527316807112928	0.7099999999999986	0.0
C 	14.757072880486833	-1.41886502547095e-15	0.0
C 	15.986828953860735	0.7099999999999984	0.0
C 	17.21658502723464	-7.671641100159832e-16	0.0
C 	18.44634110060854	0.7099999999999982	0.0
C 	19.676097173982445	-1.8918200339612667e-15	0.0
C 	20.905853247356347	0.7099999999999989	0.0
C 	22.135609320730246	-2.128297538206425e-15	0.0
C 	23.36536539410415	0.7099999999999967	0.0
C 	24.59512146747805	-2.364775042451583e-15	0.0
C 	25.824877540851954	0.7099999999999983	0.0
C 	27.05463361422586	-8.248957072964913e-16	0.0
C 	28.284389687599763	0.7099999999999999	0.0
C 	29.514145760973665	-2.8377300509419e-15	0.0
C 	30.743901834347565	0.7099999999999961	0.0
C 	31.97365790772147	-3.0742075551870582e-15	0.0
C 	33.20341398109537	0.7099999999999976	0.0
C 	34.43317005446928	-1.5343282200319664e-15	0.0
C 	35.66292612784318	0.7099999999999992	0.0
C 	36.892682201217085	-1.7708057242771246e-15	0.0
C 	38.122438274590984	0.7099999999999972	0.0
C 	39.35219434796489	-3.783640067922533e-15	0.0
C 	40.58195042133879	0.7099999999999969	0.0
C 	41.811706494712695	-4.67403893367191e-16	0.0
C 	43.0414625680866	0.7100000000000002	0.0
C 	44.27121864146049	-4.25659507641285e-15	0.0
C 	45.5009747148344	0.7099999999999964	0.0
C 	46.730730788208305	-9.403589018575075e-16	0.0
C 	47.96048686158221	0.7099999999999997	0.0
C 	49.1902429349561	-4.729550084903166e-15	0.0
C 	50.41999900833001	0.709999999999996	0.0
C 	51.64975508170391	-1.413313910347824e-15	0.0
C 	52.879511155077815	0.7099999999999993	0.0
C 	54.10926722845172	-1.6497914145929826e-15	0.0
C 	55.33902330182562	0.7099999999999991	0.0
C 	56.56877937519952	-5.438982597638641e-15	0.0
C 	57.798535448573425	0.7099999999999953	0.0
C 	59.02829152194733	-5.6754601018838e-15	0.0
C 	60.25804759532124	0.709999999999995	0.0
C 	1.2297560733739028	2.1299999999999994	0.0
C 	2.4595121467478056	2.8399999999999994	0.0
C 	3.689268220121708	2.1299999999999994	0.0
C 	4.919024293495611	2.8399999999999994	0.0
C 	6.148780366869514	2.129999999999999	0.0
C 	7.378536440243416	2.839999999999999	0.0
C 	8.60829251361732	2.1299999999999986	0.0
C 	9.838048586991222	2.8399999999999985	0.0
C 	11.067804660365123	2.129999999999998	0.0
C 	12.297560733739028	2.839999999999999	0.0
C 	13.527316807112928	2.1299999999999977	0.0
C 	14.757072880486833	2.839999999999998	0.0
C 	15.986828953860735	2.129999999999998	0.0
C 	17.216585027234636	2.839999999999997	0.0
C 	18.446341100608542	2.129999999999998	0.0
C 	19.676097173982445	2.8399999999999985	0.0
C 	20.905853247356344	2.1299999999999977	0.0
C 	22.13560932073025	2.8399999999999985	0.0
C 	23.36536539410415	2.129999999999997	0.0
C 	24.595121467478055	2.839999999999997	0.0
C 	25.824877540851954	2.1299999999999963	0.0
C 	27.05463361422586	2.839999999999997	0.0
C 	28.284389687599763	2.129999999999998	0.0
C 	29.514145760973665	2.8399999999999985	0.0
C 	30.743901834347568	2.129999999999996	0.0
C 	31.97365790772147	2.8399999999999967	0.0
C 	33.20341398109537	2.129999999999996	0.0
C 	34.43317005446928	2.8399999999999963	0.0
C 	35.66292612784318	2.1299999999999972	0.0
C 	36.89268220121708	2.8399999999999963	0.0
C 	38.122438274590984	2.129999999999997	0.0
C 	39.35219434796489	2.8399999999999976	0.0
C 	40.58195042133879	2.1299999999999986	0.0
C 	41.81170649471269	2.839999999999996	0.0
C 	43.0414625680866	2.129999999999998	0.0
C 	44.2712186414605	2.8399999999999954	0.0
C 	45.5009747148344	2.129999999999998	0.0
C 	46.7307307882083	2.8399999999999954	0.0
C 	47.96048686158221	2.1299999999999977	0.0
C 	49.19024293495611	2.839999999999995	0.0
C 	50.41999900833001	2.1299999999999977	0.0
C 	51.64975508170391	2.8399999999999945	0.0
C 	52.879511155077815	2.1299999999999972	0.0
C 	54.10926722845171	2.8399999999999945	0.0
C 	55.33902330182563	2.130000000000001	0.0
C 	56.56877937519952	2.8399999999999976	0.0
C 	57.798535448573425	2.129999999999997	0.0
C 	59.028291521947324	2.839999999999994	0.0
C 	60.25804759532124	2.129999999999997	0.0
C 	61.487803668695136	2.8399999999999936	0.0
C 	2.4595121467478056	4.259999999999999	0.0
C 	3.689268220121708	4.969999999999999	0.0
C 	4.919024293495611	4.259999999999999	0.0
C 	6.148780366869514	4.969999999999999	0.0
C 	7.378536440243416	4.259999999999999	0.0
C 	8.60829251361732	4.969999999999999	0.0
C 	9.83804858699122	4.259999999999998	0.0
C 	11.067804660365125	4.969999999999999	0.0
C 	12.297560733739028	4.259999999999998	0.0
C 	13.52731680711293	4.969999999999998	0.0
C 	14.757072880486831	4.259999999999998	0.0
C 	15.986828953860735	4.969999999999998	0.0
C 	17.21658502723464	4.259999999999997	0.0
C 	18.446341100608542	4.969999999999998	0.0
C 	19.676097173982445	4.259999999999999	0.0
C 	20.905853247356347	4.969999999999997	0.0
C 	22.135609320730246	4.259999999999996	0.0
C 	23.365365394104153	4.969999999999997	0.0
C 	24.595121467478055	4.259999999999998	0.0
C 	25.824877540851958	4.969999999999997	0.0
C 	27.054633614225857	4.259999999999995	0.0
C 	28.28438968759976	4.969999999999996	0.0
C 	29.514145760973665	4.259999999999997	0.0
C 	30.743901834347568	4.969999999999997	0.0
C 	31.97365790772147	4.259999999999996	0.0
C 	33.20341398109537	4.969999999999995	0.0
C 	34.43317005446927	4.2599999999999945	0.0
C 	35.66292612784318	4.969999999999995	0.0
C 	36.892682201217085	4.259999999999996	0.0
C 	38.122438274590984	4.969999999999997	0.0
C 	39.35219434796489	4.259999999999997	0.0
C 	40.58195042133879	4.969999999999994	0.0
C 	41.81170649471269	4.259999999999995	0.0
C 	43.041462568086594	4.969999999999996	0.0
C 	44.2712186414605	4.259999999999997	0.0
C 	45.500974714834406	4.969999999999998	0.0
C 	46.7307307882083	4.259999999999994	0.0
C 	47.960486861582204	4.9699999999999935	0.0
C 	49.19024293495611	4.259999999999996	0.0
C 	50.41999900833001	4.969999999999997	0.0
C 	51.64975508170391	4.259999999999993	0.0
C 	52.879511155077815	4.9699999999999935	0.0
C 	54.10926722845171	4.259999999999996	0.0
C 	55.33902330182562	4.969999999999997	0.0
C 	56.568779375199526	4.259999999999996	0.0
C 	57.798535448573425	4.969999999999996	0.0
C 	59.028291521947324	4.259999999999995	0.0
C 	60.25804759532123	4.969999999999996	0.0
C 	61.487803668695136	4.259999999999992	0.0
C 	62.717559742069035	4.969999999999993	0.0
C 	3.6892682201217086	6.389999999999999	0.0
C 	4.919024293495611	7.099999999999999	0.0
C 	6.148780366869514	6.389999999999999	0.0
C 	7.378536440243416	7.099999999999999	0.0
C 	8.608292513617318	6.389999999999998	0.0
C 	9.838048586991222	7.099999999999999	0.0
C 	11.067804660365125	6.389999999999998	0.0
C 	12.297560733739028	7.099999999999998	0.0
C 	13.52731680711293	6.389999999999999	0.0
C 	14.757072880486833	7.099999999999998	0.0
C 	15.986828953860735	6.389999999999998	0.0
C 	17.216585027234636	7.099999999999997	0.0
C 	18.44634110060854	6.389999999999997	0.0
C 	19.676097173982445	7.099999999999998	0.0
C 	20.905853247356347	6.389999999999998	0.0
C 	22.13560932073025	7.099999999999997	0.0
C 	23.365365394104153	6.389999999999998	0.0
C 	24.59512146747805	7.099999999999997	0.0
C 	25.824877540851958	6.389999999999998	0.0
C 	27.054633614225857	7.099999999999997	0.0
C 	28.28438968759976	6.389999999999999	0.0
C 	29.514145760973662	7.099999999999997	0.0
C 	30.743901834347568	6.389999999999999	0.0
C 	31.97365790772147	7.099999999999998	0.0
C 	33.20341398109537	6.389999999999995	0.0
C 	34.43317005446928	7.099999999999994	0.0
C 	35.66292612784318	6.389999999999995	0.0
C 	36.892682201217085	7.099999999999996	0.0
C 	38.122438274590984	6.389999999999996	0.0
C 	39.35219434796489	7.099999999999997	0.0
C 	40.58195042133879	6.389999999999994	0.0
C 	41.811706494712695	7.099999999999995	0.0
C 	43.041462568086594	6.389999999999996	0.0
C 	44.2712186414605	7.099999999999997	0.0
C 	45.500974714834406	6.389999999999998	0.0
C 	46.730730788208305	7.099999999999998	0.0
C 	47.960486861582204	6.389999999999995	0.0
C 	49.19024293495611	7.099999999999996	0.0
C 	50.41999900833001	6.389999999999995	0.0
C 	51.649755081703915	7.099999999999996	0.0
C 	52.879511155077815	6.389999999999995	0.0
C 	54.10926722845172	7.099999999999996	0.0
C 	55.33902330182562	6.389999999999995	0.0
C 	56.568779375199526	7.099999999999995	0.0
C 	57.79853544857343	6.389999999999998	0.0
C 	59.02829152194733	7.099999999999999	0.0
C 	60.25804759532123	6.389999999999994	0.0
C 	61.487803668695136	7.099999999999995	0.0
C 	62.71755974206904	6.389999999999994	0.0
C 	63.94731581544294	7.099999999999995	0.0
C 	4.919024293495611	8.519999999999998	0.0
C 	6.148780366869514	9.229999999999999	0.0
C 	7.378536440243416	8.519999999999998	0.0
C 	8.60829251361732	9.229999999999999	0.0
C 	9.838048586991222	8.519999999999998	0.0
C 	11.067804660365125	9.229999999999999	0.0
C 	12.297560733739028	8.519999999999998	0.0
C 	13.52731680711293	9.229999999999997	0.0
C 	14.757072880486833	8.519999999999998	0.0
C 	15.986828953860737	9.229999999999999	0.0
C 	17.216585027234636	8.519999999999998	0.0
C 	18.44634110060854	9.229999999999997	0.0
C 	19.67609717398244	8.519999999999996	0.0
C 	20.905853247356347	9.229999999999997	0.0
C 	22.13560932073025	8.519999999999998	0.0
C 	23.365365394104153	9.229999999999999	0.0
C 	24.595121467478055	8.519999999999996	0.0
C 	25.824877540851954	9.229999999999995	0.0
C 	27.05463361422586	8.519999999999996	0.0
C 	28.284389687599763	9.229999999999997	0.0
C 	29.514145760973662	8.519999999999996	0.0
C 	30.743901834347565	9.229999999999995	0.0
C 	31.97365790772147	8.52	0.0
C 	33.20341398109537	9.229999999999997	0.0
C 	34.43317005446928	8.519999999999994	0.0
C 	35.66292612784318	9.229999999999995	0.0
C 	36.89268220121708	8.519999999999992	0.0
C 	38.122438274590984	9.229999999999993	0.0
C 	39.35219434796489	8.519999999999998	0.0
C 	40.58195042133879	9.229999999999995	0.0
C 	41.811706494712695	8.519999999999994	0.0
C 	43.0414625680866	9.229999999999995	0.0
C 	44.27121864146049	8.519999999999992	0.0
C 	45.5009747148344	9.229999999999993	0.0
C 	46.730730788208305	8.519999999999998	0.0
C 	47.960486861582204	9.229999999999995	0.0
C 	49.19024293495611	8.519999999999996	0.0
C 	50.41999900833001	9.229999999999993	0.0
C 	51.64975508170391	8.519999999999994	0.0
C 	52.879511155077815	9.229999999999995	0.0
C 	54.10926722845171	8.51999999999999	0.0
C 	55.33902330182562	9.229999999999992	0.0
C 	56.568779375199526	8.519999999999998	0.0
C 	57.798535448573425	9.229999999999995	0.0
C 	59.02829152194733	8.519999999999994	0.0
C 	60.25804759532123	9.229999999999993	0.0
C 	61.48780366869513	8.519999999999992	0.0
C 	62.717559742069035	9.229999999999993	0.0
C 	63.94731581544294	8.519999999999992	0.0
C 	65.17707188881684	9.22999999999999	0.0
C 	6.148780366869514	10.649999999999997	0.0
C 	7.378536440243416	11.359999999999998	0.0
C 	8.608292513617318	10.649999999999997	0.0
C 	9.838048586991222	11.359999999999998	0.0
C 	11.067804660365125	10.649999999999997	0.0
C 	12.297560733739028	11.359999999999996	0.0
C 	13.52731680711293	10.649999999999997	0.0
C 	14.757072880486831	11.359999999999996	0.0
C 	15.986828953860735	10.649999999999997	0.0
C 	17.216585027234636	11.359999999999996	0.0
C 	18.44634110060854	10.649999999999997	0.0
C 	19.676097173982445	11.359999999999998	0.0
C 	20.905853247356347	10.649999999999997	0.0
C 	22.13560932073025	11.359999999999996	0.0
C 	23.365365394104153	10.649999999999997	0.0
C 	24.595121467478055	11.359999999999996	0.0
C 	25.824877540851958	10.649999999999997	0.0
C 	27.05463361422586	11.359999999999996	0.0
C 	28.284389687599763	10.649999999999995	0.0
C 	29.514145760973662	11.359999999999994	0.0
C 	30.743901834347565	10.649999999999995	0.0
C 	31.97365790772147	11.359999999999996	0.0
C 	33.20341398109537	10.649999999999997	0.0
C 	34.43317005446928	11.359999999999998	0.0
C 	35.66292612784318	10.649999999999991	0.0
C 	36.89268220121708	11.359999999999992	0.0
C 	38.122438274590984	10.649999999999993	0.0
C 	39.35219434796489	11.359999999999994	0.0
C 	40.58195042133879	10.649999999999993	0.0
C 	41.811706494712695	11.359999999999994	0.0
C 	43.041462568086594	10.649999999999991	0.0
C 	44.2712186414605	11.359999999999992	0.0
C 	45.5009747148344	10.649999999999993	0.0
C 	46.730730788208305	11.359999999999994	0.0
C 	47.960486861582204	10.649999999999995	0.0
C 	49.19024293495611	11.359999999999996	0.0
C 	50.41999900833001	10.649999999999993	0.0
C 	51.649755081703915	11.359999999999994	0.0
C 	52.879511155077815	10.649999999999995	0.0
C 	54.10926722845172	11.359999999999996	0.0
C 	55.33902330182562	10.649999999999993	0.0
C 	56.568779375199526	11.359999999999994	0.0
C 	57.798535448573425	10.649999999999993	0.0
C 	59.02829152194733	11.359999999999992	0.0
C 	60.25804759532124	10.649999999999995	0.0
C 	61.487803668695136	11.359999999999996	0.0
C 	62.717559742069035	10.649999999999991	0.0
C 	63.94731581544294	11.359999999999992	0.0
C 	65.17707188881684	10.649999999999991	0.0
C 	66.40682796219075	11.359999999999992	0.0
C 	7.378536440243417	12.779999999999998	0.0
C 	8.60829251361732	13.489999999999998	0.0
C 	9.838048586991222	12.78	0.0
C 	11.067804660365125	13.489999999999997	0.0
C 	12.297560733739028	12.779999999999998	0.0
C 	13.527316807112932	13.489999999999998	0.0
C 	14.757072880486833	12.779999999999998	0.0
C 	15.986828953860737	13.489999999999997	0.0
C 	17.216585027234636	12.779999999999996	0.0
C 	18.446341100608542	13.489999999999997	0.0
C 	19.676097173982445	12.779999999999998	0.0
C 	20.905853247356347	13.489999999999997	0.0
C 	22.13560932073025	12.779999999999996	0.0
C 	23.36536539410415	13.489999999999995	0.0
C 	24.595121467478055	12.779999999999996	0.0
C 	25.824877540851958	13.489999999999997	0.0
C 	27.05463361422586	12.779999999999998	0.0
C 	28.284389687599763	13.489999999999997	0.0
C 	29.514145760973662	12.779999999999996	0.0
C 	30.743901834347568	13.489999999999997	0.0
C 	31.97365790772147	12.779999999999996	0.0
C 	33.20341398109537	13.489999999999997	0.0
C 	34.43317005446928	12.779999999999998	0.0
C 	35.66292612784318	13.489999999999995	0.0
C 	36.89268220121708	12.779999999999994	0.0
C 	38.122438274590984	13.489999999999995	0.0
C 	39.35219434796489	12.779999999999996	0.0
C 	40.581950421338796	13.489999999999997	0.0
C 	41.811706494712695	12.779999999999996	0.0
C 	43.041462568086594	13.489999999999993	0.0
C 	44.2712186414605	12.779999999999994	0.0
C 	45.5009747148344	13.489999999999995	0.0
C 	46.730730788208305	12.779999999999996	0.0
C 	47.96048686158221	13.489999999999997	0.0
C 	49.19024293495611	12.779999999999998	0.0
C 	50.41999900833001	13.489999999999995	0.0
C 	51.649755081703915	12.779999999999996	0.0
C 	52.879511155077815	13.489999999999993	0.0
C 	54.10926722845172	12.779999999999998	0.0
C 	55.33902330182563	13.489999999999998	0.0
C 	56.56877937519952	12.779999999999998	0.0
C 	57.798535448573425	13.489999999999997	0.0
C 	59.02829152194733	12.779999999999994	0.0
C 	60.25804759532123	13.489999999999991	0.0
C 	61.487803668695136	12.779999999999998	0.0
C 	62.71755974206904	13.489999999999998	0.0
C 	63.94731581544294	12.779999999999994	0.0
C 	65.17707188881684	13.489999999999995	0.0
C 	66.40682796219075	12.77999999999999	0.0
C 	67.63658403556465	13.489999999999988	0.0
C 	8.60829251361732	14.909999999999998	0.0
C 	9.838048586991222	15.619999999999996	0.0
C 	11.067804660365125	14.909999999999997	0.0
C 	12.297560733739026	15.619999999999996	0.0
C 	13.527316807112934	14.909999999999998	0.0
C 	14.757072880486831	15.619999999999996	0.0
C 	15.986828953860737	14.909999999999998	0.0
C 	17.21658502723464	15.619999999999997	0.0
C 	18.446341100608542	14.909999999999997	0.0
C 	19.676097173982445	15.619999999999996	0.0
C 	20.905853247356347	14.909999999999997	0.0
C 	22.135609320730246	15.619999999999996	0.0
C 	23.365365394104153	14.909999999999995	0.0
C 	24.595121467478055	15.619999999999996	0.0
C 	25.824877540851958	14.909999999999997	0.0
C 	27.05463361422586	15.619999999999996	0.0
C 	28.284389687599763	14.909999999999997	0.0
C 	29.514145760973665	15.619999999999996	0.0
C 	30.743901834347568	14.909999999999997	0.0
C 	31.973657907721474	15.619999999999997	0.0
C 	33.203413981095366	14.909999999999993	0.0
C 	34.43317005446927	15.619999999999994	0.0
C 	35.662926127843185	14.909999999999998	0.0
C 	36.892682201217085	15.619999999999996	0.0
C 	38.122438274590984	14.909999999999995	0.0
C 	39.35219434796489	15.619999999999996	0.0
C 	40.58195042133879	14.909999999999993	0.0
C 	41.811706494712695	15.619999999999994	0.0
C 	43.0414625680866	14.909999999999998	0.0
C 	44.2712186414605	15.619999999999996	0.0
C 	45.5009747148344	14.909999999999995	0.0
C 	46.730730788208305	15.619999999999996	0.0
C 	47.960486861582204	14.909999999999993	0.0
C 	49.19024293495611	15.619999999999994	0.0
C 	50.41999900833002	14.909999999999998	0.0
C 	51.649755081703915	15.619999999999996	0.0
C 	52.87951115507782	14.909999999999997	0.0
C 	54.10926722845171	15.619999999999994	0.0
C 	55.33902330182562	14.909999999999995	0.0
C 	56.568779375199526	15.619999999999994	0.0
C 	57.798535448573425	14.909999999999991	0.0
C 	59.028291521947324	15.619999999999992	0.0
C 	60.25804759532124	14.909999999999998	0.0
C 	61.487803668695136	15.619999999999996	0.0
C 	62.717559742069035	14.909999999999993	0.0
C 	63.94731581544294	15.619999999999994	0.0
C 	65.17707188881684	14.909999999999993	0.0
C 	66.40682796219075	15.619999999999994	0.0
C 	67.63658403556465	14.909999999999997	0.0
C 	68.86634010893854	15.61999999999999	0.0
C 	9.838048586991222	17.039999999999996	0.0
C 	11.067804660365127	17.749999999999996	0.0
C 	12.297560733739028	17.039999999999996	0.0
C 	13.527316807112932	17.749999999999996	0.0
C 	14.757072880486833	17.039999999999996	0.0
C 	15.986828953860735	17.749999999999996	0.0
C 	17.21658502723464	17.039999999999996	0.0
C 	18.446341100608546	17.749999999999996	0.0
C 	19.676097173982445	17.039999999999996	0.0
C 	20.905853247356347	17.749999999999996	0.0
C 	22.13560932073025	17.039999999999996	0.0
C 	23.365365394104153	17.749999999999996	0.0
C 	24.595121467478055	17.039999999999996	0.0
C 	25.82487754085196	17.749999999999996	0.0
C 	27.05463361422586	17.039999999999996	0.0
C 	28.28438968759977	17.75	0.0
C 	29.514145760973665	17.039999999999996	0.0
C 	30.74390183434757	17.749999999999996	0.0
C 	31.973657907721467	17.039999999999992	0.0
C 	33.20341398109537	17.749999999999993	0.0
C 	34.43317005446927	17.039999999999996	0.0
C 	35.66292612784318	17.749999999999996	0.0
C 	36.892682201217085	17.039999999999996	0.0
C 	38.122438274590984	17.749999999999996	0.0
C 	39.35219434796488	17.039999999999992	0.0
C 	40.58195042133879	17.749999999999993	0.0
C 	41.811706494712695	17.039999999999992	0.0
C 	43.041462568086594	17.749999999999993	0.0
C 	44.2712186414605	17.039999999999996	0.0
C 	45.500974714834406	17.749999999999996	0.0
C 	46.7307307882083	17.039999999999992	0.0
C 	47.960486861582204	17.749999999999993	0.0
C 	49.19024293495611	17.039999999999992	0.0
C 	50.41999900833002	17.749999999999993	0.0
C 	51.649755081703915	17.039999999999996	0.0
C 	52.87951115507782	17.749999999999996	0.0
C 	54.10926722845172	17.039999999999992	0.0
C 	55.33902330182562	17.749999999999993	0.0
C 	56.568779375199526	17.039999999999996	0.0
C 	57.79853544857343	17.749999999999996	0.0
C 	59.028291521947324	17.039999999999992	0.0
C 	60.25804759532123	17.749999999999993	0.0
C 	61.487803668695136	17.039999999999996	0.0
C 	62.71755974206904	17.749999999999996	0.0
C 	63.94731581544294	17.04	0.0
C 	65.17707188881684	17.749999999999993	0.0
C 	66.40682796219075	17.039999999999996	0.0
C 	67.63658403556464	17.74999999999999	0.0
C 	68.86634010893856	17.03999999999999	0.0
C 	70.09609618231246	17.74999999999999	0.0
C 	11.067804660365125	19.169999999999995	0.0
C 	12.297560733739026	19.879999999999995	0.0
C 	13.52731680711293	19.169999999999995	0.0
C 	14.757072880486831	19.879999999999995	0.0
C 	15.986828953860737	19.169999999999998	0.0
C 	17.216585027234636	19.879999999999992	0.0
C 	18.446341100608542	19.169999999999995	0.0
C 	19.676097173982445	19.879999999999995	0.0
C 	20.905853247356347	19.169999999999995	0.0
C 	22.135609320730246	19.879999999999995	0.0
C 	23.365365394104153	19.169999999999995	0.0
C 	24.59512146747805	19.879999999999995	0.0
C 	25.824877540851958	19.169999999999995	0.0
C 	27.05463361422586	19.879999999999995	0.0
C 	28.284389687599763	19.169999999999995	0.0
C 	29.51414576097367	19.879999999999995	0.0
C 	30.743901834347565	19.16999999999999	0.0
C 	31.97365790772147	19.879999999999992	0.0
C 	33.20341398109537	19.169999999999995	0.0
C 	34.43317005446927	19.879999999999992	0.0
C 	35.66292612784318	19.169999999999995	0.0
C 	36.89268220121708	19.879999999999992	0.0
C 	38.122438274590984	19.169999999999995	0.0
C 	39.35219434796488	19.879999999999992	0.0
C 	40.58195042133879	19.16999999999999	0.0
C 	41.81170649471269	19.87999999999999	0.0
C 	43.0414625680866	19.169999999999995	0.0
C 	44.27121864146049	19.879999999999992	0.0
C 	45.5009747148344	19.16999999999999	0.0
C 	46.730730788208305	19.879999999999992	0.0
C 	47.960486861582204	19.169999999999995	0.0
C 	49.1902429349561	19.879999999999992	0.0
C 	50.41999900833002	19.169999999999995	0.0
C 	51.649755081703915	19.879999999999992	0.0
C 	52.879511155077815	19.16999999999999	0.0
C 	54.10926722845172	19.879999999999992	0.0
C 	55.33902330182562	19.16999999999999	0.0
C 	56.56877937519952	19.879999999999992	0.0
C 	57.79853544857343	19.169999999999995	0.0
C 	59.02829152194733	19.879999999999992	0.0
C 	60.25804759532123	19.169999999999995	0.0
C 	61.48780366869513	19.879999999999992	0.0
C 	62.717559742069035	19.16999999999999	0.0
C 	63.94731581544294	19.879999999999992	0.0
C 	65.17707188881684	19.169999999999995	0.0
C 	66.40682796219075	19.87999999999999	0.0
C 	67.63658403556465	19.169999999999995	0.0
C 	68.86634010893854	19.87999999999999	0.0
C 	70.09609618231245	19.16999999999999	0.0
C 	71.32585225568636	19.879999999999992	0.0
C 	12.297560733739028	21.299999999999994	0.0
C 	13.527316807112932	22.009999999999994	0.0
C 	14.757072880486831	21.299999999999994	0.0
C 	15.986828953860735	22.009999999999994	0.0
C 	17.216585027234636	21.299999999999994	0.0
C 	18.44634110060854	22.009999999999994	0.0
C 	19.676097173982445	21.299999999999994	0.0
C 	20.905853247356347	22.009999999999994	0.0
C 	22.13560932073025	21.299999999999994	0.0
C 	23.365365394104153	22.009999999999994	0.0
C 	24.595121467478055	21.299999999999994	0.0
C 	25.824877540851958	22.009999999999994	0.0
C 	27.05463361422586	21.299999999999994	0.0
C 	28.284389687599766	22.009999999999994	0.0
C 	29.514145760973662	21.29999999999999	0.0
C 	30.743901834347568	22.00999999999999	0.0
C 	31.97365790772147	21.299999999999994	0.0
C 	33.20341398109537	22.009999999999994	0.0
C 	34.43317005446928	21.299999999999994	0.0
C 	35.662926127843185	22.009999999999994	0.0
C 	36.89268220121708	21.299999999999994	0.0
C 	38.122438274590984	22.009999999999994	0.0
C 	39.35219434796489	21.299999999999994	0.0
C 	40.58195042133879	22.009999999999994	0.0
C 	41.811706494712695	21.299999999999994	0.0
C 	43.0414625680866	22.009999999999994	0.0
C 	44.2712186414605	21.29999999999999	0.0
C 	45.5009747148344	22.00999999999999	0.0
C 	46.730730788208305	21.299999999999994	0.0
C 	47.96048686158221	22.009999999999994	0.0
C 	49.19024293495611	21.299999999999994	0.0
C 	50.41999900833002	22.009999999999994	0.0
C 	51.649755081703915	21.299999999999994	0.0
C 	52.879511155077815	22.00999999999999	0.0
C 	54.10926722845172	21.299999999999994	0.0
C 	55.33902330182563	22.009999999999994	0.0
C 	56.568779375199526	21.29999999999999	0.0
C 	57.798535448573425	22.00999999999999	0.0
C 	59.02829152194733	21.299999999999994	0.0
C 	60.25804759532124	22.009999999999994	0.0
C 	61.48780366869513	21.29999999999999	0.0
C 	62.717559742069035	22.00999999999999	0.0
C 	63.94731581544294	21.299999999999994	0.0
C 	65.17707188881684	22.009999999999987	0.0
C 	66.40682796219075	21.299999999999994	0.0
C 	67.63658403556465	22.009999999999994	0.0
C 	68.86634010893854	21.29999999999999	0.0
C 	70.09609618231245	22.00999999999999	0.0
C 	71.32585225568636	21.299999999999983	0.0
C 	72.55560832906026	22.00999999999999	0.0
C 	13.527316807112932	23.429999999999996	0.0
C 	14.757072880486836	24.139999999999997	0.0
C 	15.986828953860737	23.429999999999996	0.0
C 	17.216585027234643	24.139999999999997	0.0
C 	18.446341100608542	23.429999999999996	0.0
C 	19.676097173982445	24.139999999999997	0.0
C 	20.90585324735635	23.429999999999996	0.0
C 	22.135609320730254	24.139999999999997	0.0
C 	23.365365394104156	23.429999999999993	0.0
C 	24.595121467478062	24.139999999999997	0.0
C 	25.824877540851958	23.429999999999993	0.0
C 	27.054633614225864	24.139999999999993	0.0
C 	28.284389687599766	23.429999999999996	0.0
C 	29.514145760973673	24.139999999999997	0.0
C 	30.743901834347575	23.429999999999996	0.0
C 	31.973657907721478	24.139999999999997	0.0
C 	33.20341398109537	23.429999999999993	0.0
C 	34.43317005446928	24.139999999999993	0.0
C 	35.66292612784318	23.429999999999993	0.0
C 	36.892682201217085	24.139999999999993	0.0
C 	38.122438274590984	23.429999999999993	0.0
C 	39.35219434796489	24.139999999999993	0.0
C 	40.58195042133879	23.429999999999996	0.0
C 	41.811706494712695	24.139999999999993	0.0
C 	43.041462568086594	23.42999999999999	0.0
C 	44.2712186414605	24.13999999999999	0.0
C 	45.5009747148344	23.429999999999993	0.0
C 	46.730730788208305	24.139999999999993	0.0
C 	47.96048686158221	23.429999999999993	0.0
C 	49.19024293495611	24.139999999999993	0.0
C 	50.41999900833001	23.429999999999993	0.0
C 	51.649755081703915	24.13999999999999	0.0
C 	52.87951115507782	23.429999999999993	0.0
C 	54.10926722845172	24.139999999999993	0.0
C 	55.33902330182563	23.429999999999993	0.0
C 	56.56877937519953	24.139999999999993	0.0
C 	57.798535448573425	23.429999999999993	0.0
C 	59.02829152194733	24.139999999999993	0.0
C 	60.25804759532124	23.429999999999993	0.0
C 	61.487803668695136	24.13999999999999	0.0
C 	62.71755974206904	23.429999999999993	0.0
C 	63.947315815442934	24.139999999999986	0.0
C 	65.17707188881684	23.429999999999993	0.0
C 	66.40682796219075	24.139999999999993	0.0
C 	67.63658403556464	23.42999999999999	0.0
C 	68.86634010893856	24.139999999999997	0.0
C 	70.09609618231245	23.42999999999999	0.0
C 	71.32585225568636	24.139999999999997	0.0
C 	72.55560832906026	23.42999999999999	0.0
C 	73.78536440243417	24.13999999999999	0.0
C 	14.757072880486835	25.559999999999995	0.0
C 	15.986828953860735	26.269999999999996	0.0
C 	17.21658502723464	25.559999999999995	0.0
C 	18.44634110060854	26.269999999999996	0.0
C 	19.676097173982445	25.56	0.0
C 	20.905853247356344	26.269999999999996	0.0
C 	22.13560932073025	25.56	0.0
C 	23.365365394104153	26.269999999999996	0.0
C 	24.595121467478055	25.559999999999995	0.0
C 	25.824877540851958	26.269999999999996	0.0
C 	27.054633614225857	25.559999999999995	0.0
C 	28.28438968759976	26.269999999999996	0.0
C 	29.514145760973665	25.559999999999995	0.0
C 	30.743901834347568	26.269999999999996	0.0
C 	31.973657907721474	25.559999999999995	0.0
C 	33.20341398109538	26.269999999999996	0.0
C 	34.43317005446927	25.55999999999999	0.0
C 	35.66292612784318	26.269999999999992	0.0
C 	36.892682201217085	25.559999999999995	0.0
C 	38.12243827459098	26.269999999999992	0.0
C 	39.35219434796489	25.559999999999995	0.0
C 	40.58195042133879	26.269999999999992	0.0
C 	41.81170649471269	25.55999999999999	0.0
C 	43.041462568086594	26.269999999999992	0.0
C 	44.2712186414605	25.55999999999999	0.0
C 	45.5009747148344	26.26999999999999	0.0
C 	46.730730788208305	25.559999999999995	0.0
C 	47.960486861582204	26.269999999999992	0.0
C 	49.19024293495611	25.55999999999999	0.0
C 	50.41999900833001	26.269999999999992	0.0
C 	51.649755081703915	25.559999999999995	0.0
C 	52.879511155077815	26.269999999999992	0.0
C 	54.10926722845172	25.559999999999995	0.0
C 	55.33902330182562	26.269999999999992	0.0
C 	56.568779375199526	25.55999999999999	0.0
C 	57.79853544857343	26.269999999999992	0.0
C 	59.028291521947324	25.55999999999999	0.0
C 	60.25804759532123	26.269999999999992	0.0
C 	61.487803668695136	25.559999999999995	0.0
C 	62.717559742069035	26.26999999999999	0.0
C 	63.94731581544294	25.55999999999999	0.0
C 	65.17707188881683	26.269999999999985	0.0
C 	66.40682796219075	25.55999999999999	0.0
C 	67.63658403556465	26.269999999999992	0.0
C 	68.86634010893856	25.559999999999995	0.0
C 	70.09609618231246	26.269999999999996	0.0
C 	71.32585225568636	25.559999999999995	0.0
C 	72.55560832906026	26.269999999999996	0.0
C 	73.78536440243415	25.559999999999988	0.0
C 	75.01512047580806	26.26999999999999	0.0
C 	15.986828953860735	27.689999999999994	0.0
C 	17.21658502723464	28.399999999999995	0.0
C 	18.446341100608542	27.689999999999994	0.0
C 	19.676097173982445	28.399999999999995	0.0
C 	20.905853247356344	27.689999999999994	0.0
C 	22.13560932073025	28.399999999999995	0.0
C 	23.365365394104153	27.689999999999994	0.0
C 	24.59512146747806	28.399999999999995	0.0
C 	25.824877540851954	27.689999999999994	0.0
C 	27.054633614225857	28.399999999999995	0.0
C 	28.284389687599763	27.689999999999994	0.0
C 	29.514145760973665	28.399999999999995	0.0
C 	30.74390183434757	27.689999999999994	0.0
C 	31.973657907721474	28.399999999999995	0.0
C 	33.20341398109537	27.68999999999999	0.0
C 	34.43317005446928	28.39999999999999	0.0
C 	35.66292612784318	27.689999999999994	0.0
C 	36.892682201217085	28.399999999999995	0.0
C 	38.122438274590984	27.689999999999994	0.0
C 	39.35219434796489	28.399999999999995	0.0
C 	40.58195042133879	27.689999999999994	0.0
C 	41.811706494712695	28.399999999999995	0.0
C 	43.041462568086594	27.689999999999994	0.0
C 	44.2712186414605	28.399999999999995	0.0
C 	45.500974714834406	27.689999999999994	0.0
C 	46.730730788208305	28.399999999999995	0.0
C 	47.960486861582204	27.68999999999999	0.0
C 	49.19024293495611	28.39999999999999	0.0
C 	50.41999900833002	27.689999999999994	0.0
C 	51.649755081703915	28.399999999999995	0.0
C 	52.87951115507782	27.689999999999994	0.0
C 	54.10926722845173	28.399999999999995	0.0
C 	55.33902330182562	27.68999999999999	0.0
C 	56.568779375199526	28.39999999999999	0.0
C 	57.79853544857343	27.689999999999994	0.0
C 	59.02829152194733	28.39999999999999	0.0
C 	60.25804759532124	27.689999999999994	0.0
C 	61.48780366869513	28.399999999999988	0.0
C 	62.717559742069035	27.689999999999994	0.0
C 	63.94731581544294	28.399999999999995	0.0
C 	65.17707188881684	27.68999999999999	0.0
C 	66.40682796219075	28.39999999999999	0.0
C 	67.63658403556464	27.689999999999987	0.0
C 	68.86634010893856	28.399999999999995	0.0
C 	70.09609618231245	27.689999999999994	0.0
C 	71.32585225568636	28.399999999999995	0.0
C 	72.55560832906026	27.68999999999999	0.0
C 	73.78536440243415	28.39999999999999	0.0
C 	75.01512047580808	27.689999999999994	0.0
C 	76.24487654918197	28.399999999999984	0.0
C 	17.21658502723464	29.819999999999997	0.0
C 	18.446341100608546	30.529999999999998	0.0
C 	19.676097173982445	29.819999999999997	0.0
C 	20.905853247356355	30.529999999999998	0.0
C 	22.13560932073025	29.819999999999993	0.0
C 	23.365365394104156	30.529999999999994	0.0
C 	24.59512146747806	29.819999999999997	0.0
C 	25.82487754085196	30.529999999999998	0.0
C 	27.054633614225867	29.819999999999997	0.0
C 	28.28438968759977	30.529999999999998	0.0
C 	29.514145760973665	29.819999999999997	0.0
C 	30.74390183434757	30.529999999999998	0.0
C 	31.973657907721474	29.819999999999997	0.0
C 	33.20341398109538	30.529999999999998	0.0
C 	34.43317005446928	29.819999999999997	0.0
C 	35.662926127843185	30.529999999999998	0.0
C 	36.892682201217085	29.819999999999993	0.0
C 	38.12243827459099	30.529999999999994	0.0
C 	39.35219434796488	29.819999999999993	0.0
C 	40.58195042133879	30.529999999999994	0.0
C 	41.811706494712695	29.819999999999993	0.0
C 	43.0414625680866	30.529999999999994	0.0
C 	44.2712186414605	29.819999999999993	0.0
C 	45.500974714834406	30.529999999999994	0.0
C 	46.730730788208305	29.81999999999999	0.0
C 	47.960486861582204	30.52999999999999	0.0
C 	49.19024293495611	29.819999999999993	0.0
C 	50.41999900833002	30.529999999999994	0.0
C 	51.649755081703915	29.819999999999993	0.0
C 	52.87951115507782	30.529999999999994	0.0
C 	54.10926722845172	29.819999999999993	0.0
C 	55.33902330182563	30.52999999999999	0.0
C 	56.568779375199526	29.819999999999993	0.0
C 	57.798535448573425	30.52999999999999	0.0
C 	59.02829152194734	29.819999999999993	0.0
C 	60.25804759532124	30.529999999999994	0.0
C 	61.487803668695136	29.819999999999993	0.0
C 	62.71755974206904	30.529999999999994	0.0
C 	63.947315815442934	29.81999999999999	0.0
C 	65.17707188881685	30.529999999999998	0.0
C 	66.40682796219073	29.819999999999986	0.0
C 	67.63658403556465	30.529999999999994	0.0
C 	68.86634010893856	29.819999999999993	0.0
C 	70.09609618231245	30.529999999999994	0.0
C 	71.32585225568637	29.819999999999997	0.0
C 	72.55560832906026	30.52999999999999	0.0
C 	73.78536440243417	29.819999999999997	0.0
C 	75.01512047580806	30.529999999999987	0.0
C 	76.24487654918197	29.81999999999999	0.0
C 	77.47463262255587	30.52999999999999	0.0
C 	18.446341100608542	31.949999999999996	0.0
C 	19.676097173982445	32.65999999999999	0.0
C 	20.905853247356347	31.949999999999992	0.0
C 	22.135609320730254	32.66	0.0
C 	23.365365394104156	31.949999999999996	0.0
C 	24.595121467478055	32.65999999999999	0.0
C 	25.824877540851958	31.949999999999992	0.0
C 	27.05463361422586	32.66	0.0
C 	28.284389687599766	31.949999999999996	0.0
C 	29.51414576097367	32.66	0.0
C 	30.743901834347568	31.949999999999992	0.0
C 	31.97365790772147	32.66	0.0
C 	33.20341398109537	31.949999999999992	0.0
C 	34.43317005446928	32.66	0.0
C 	35.66292612784318	31.949999999999996	0.0
C 	36.892682201217085	32.66	0.0
C 	38.122438274590984	31.949999999999992	0.0
C 	39.35219434796489	32.65999999999999	0.0
C 	40.58195042133879	31.949999999999992	0.0
C 	41.81170649471269	32.65999999999999	0.0
C 	43.0414625680866	31.949999999999996	0.0
C 	44.2712186414605	32.65999999999999	0.0
C 	45.5009747148344	31.949999999999992	0.0
C 	46.730730788208305	32.65999999999999	0.0
C 	47.96048686158221	31.949999999999992	0.0
C 	49.1902429349561	32.65999999999999	0.0
C 	50.41999900833002	31.949999999999992	0.0
C 	51.649755081703915	32.65999999999999	0.0
C 	52.879511155077815	31.949999999999992	0.0
C 	54.10926722845172	32.65999999999999	0.0
C 	55.33902330182563	31.949999999999992	0.0
C 	56.568779375199526	32.65999999999999	0.0
C 	57.79853544857343	31.949999999999992	0.0
C 	59.028291521947324	32.65999999999999	0.0
C 	60.25804759532124	31.949999999999992	0.0
C 	61.487803668695136	32.65999999999999	0.0
C 	62.717559742069035	31.94999999999999	0.0
C 	63.94731581544294	32.65999999999999	0.0
C 	65.17707188881685	31.949999999999992	0.0
C 	66.40682796219076	32.66	0.0
C 	67.63658403556465	31.949999999999992	0.0
C 	68.86634010893856	32.65999999999999	0.0
C 	70.09609618231245	31.94999999999999	0.0
C 	71.32585225568636	32.65999999999999	0.0
C 	72.55560832906026	31.949999999999996	0.0
C 	73.78536440243415	32.65999999999999	0.0
C 	75.01512047580806	31.949999999999992	0.0
C 	76.24487654918195	32.65999999999998	0.0
C 	77.47463262255587	31.949999999999985	0.0
C 	78.70438869592978	32.65999999999999	0.0
C 	19.676097173982445	34.07999999999999	0.0
C 	20.90585324735635	34.78999999999999	0.0
C 	22.135609320730254	34.07999999999999	0.0
C 	23.365365394104156	34.78999999999999	0.0
C 	24.595121467478055	34.07999999999999	0.0
C 	25.824877540851958	34.78999999999999	0.0
C 	27.054633614225864	34.07999999999999	0.0
C 	28.284389687599766	34.78999999999999	0.0
C 	29.514145760973665	34.07999999999999	0.0
C 	30.743901834347568	34.78999999999999	0.0
C 	31.97365790772147	34.07999999999999	0.0
C 	33.20341398109537	34.78999999999999	0.0
C 	34.43317005446928	34.07999999999999	0.0
C 	35.662926127843185	34.78999999999999	0.0
C 	36.89268220121708	34.07999999999999	0.0
C 	38.122438274590984	34.78999999999999	0.0
C 	39.35219434796489	34.07999999999999	0.0
C 	40.581950421338796	34.78999999999999	0.0
C 	41.811706494712695	34.07999999999999	0.0
C 	43.0414625680866	34.78999999999999	0.0
C 	44.2712186414605	34.07999999999999	0.0
C 	45.5009747148344	34.78999999999999	0.0
C 	46.730730788208305	34.07999999999999	0.0
C 	47.96048686158221	34.78999999999999	0.0
C 	49.19024293495611	34.07999999999999	0.0
C 	50.41999900833002	34.78999999999999	0.0
C 	51.649755081703915	34.07999999999999	0.0
C 	52.87951115507782	34.78999999999999	0.0
C 	54.10926722845172	34.07999999999999	0.0
C 	55.33902330182562	34.78999999999999	0.0
C 	56.56877937519953	34.07999999999999	0.0
C 	57.79853544857343	34.78999999999999	0.0
C 	59.02829152194733	34.07999999999999	0.0
C 	60.25804759532124	34.78999999999999	0.0
C 	61.487803668695136	34.07999999999999	0.0
C 	62.71755974206905	34.79	0.0
C 	63.947315815442934	34.079999999999984	0.0
C 	65.17707188881685	34.78999999999999	0.0
C 	66.40682796219075	34.07999999999999	0.0
C 	67.63658403556465	34.78999999999999	0.0
C 	68.86634010893854	34.07999999999999	0.0
C 	70.09609618231245	34.78999999999999	0.0
C 	71.32585225568636	34.07999999999999	0.0
C 	72.55560832906025	34.789999999999985	0.0
C 	73.78536440243417	34.07999999999999	0.0
C 	75.01512047580808	34.78999999999999	0.0
C 	76.24487654918197	34.07999999999999	0.0
C 	77.47463262255587	34.78999999999999	0.0
C 	78.70438869592977	34.079999999999984	0.0
C 	79.93414476930369	34.78999999999999	0.0
C 	20.90585324735635	36.209999999999994	0.0
C 	22.135609320730254	36.919999999999995	0.0
C 	23.36536539410416	36.209999999999994	0.0
C 	24.595121467478062	36.919999999999995	0.0
C 	25.82487754085196	36.209999999999994	0.0
C 	27.054633614225864	36.919999999999995	0.0
C 	28.284389687599766	36.209999999999994	0.0
C 	29.514145760973673	36.919999999999995	0.0
C 	30.743901834347575	36.209999999999994	0.0
C 	31.973657907721478	36.919999999999995	0.0
C 	33.20341398109537	36.209999999999994	0.0
C 	34.43317005446928	36.919999999999995	0.0
C 	35.662926127843185	36.209999999999994	0.0
C 	36.89268220121709	36.919999999999995	0.0
C 	38.12243827459099	36.209999999999994	0.0
C 	39.3521943479649	36.919999999999995	0.0
C 	40.581950421338796	36.209999999999994	0.0
C 	41.811706494712695	36.919999999999995	0.0
C 	43.041462568086594	36.209999999999994	0.0
C 	44.2712186414605	36.919999999999995	0.0
C 	45.500974714834406	36.209999999999994	0.0
C 	46.730730788208305	36.919999999999995	0.0
C 	47.96048686158221	36.209999999999994	0.0
C 	49.19024293495612	36.919999999999995	0.0
C 	50.41999900833002	36.20999999999999	0.0
C 	51.649755081703915	36.91999999999999	0.0
C 	52.87951115507782	36.209999999999994	0.0
C 	54.10926722845172	36.91999999999999	0.0
C 	55.33902330182563	36.209999999999994	0.0
C 	56.56877937519953	36.919999999999995	0.0
C 	57.79853544857343	36.20999999999999	0.0
C 	59.02829152194733	36.91999999999999	0.0
C 	60.25804759532123	36.20999999999999	0.0
C 	61.48780366869515	36.919999999999995	0.0
C 	62.71755974206904	36.209999999999994	0.0
C 	63.94731581544295	36.919999999999995	0.0
C 	65.17707188881684	36.209999999999994	0.0
C 	66.40682796219075	36.919999999999995	0.0
C 	67.63658403556467	36.209999999999994	0.0
C 	68.86634010893856	36.91999999999999	0.0
C 	70.09609618231246	36.209999999999994	0.0
C 	71.32585225568636	36.91999999999999	0.0
C 	72.55560832906026	36.209999999999994	0.0
C 	73.78536440243417	36.919999999999995	0.0
C 	75.01512047580806	36.20999999999999	0.0
C 	76.24487654918198	36.919999999999995	0.0
C 	77.47463262255586	36.20999999999999	0.0
C 	78.70438869592978	36.919999999999995	0.0
C 	79.93414476930369	36.20999999999999	0.0
C 	81.16390084267759	36.91999999999999	0.0
C 	22.13560932073025	38.33999999999999	0.0
C 	23.365365394104153	39.04999999999999	0.0
C 	24.59512146747806	38.33999999999999	0.0
C 	25.82487754085196	39.04999999999999	0.0
C 	27.05463361422586	38.33999999999999	0.0
C 	28.284389687599763	39.04999999999999	0.0
C 	29.514145760973665	38.33999999999999	0.0
C 	30.74390183434757	39.04999999999999	0.0
C 	31.973657907721474	38.339999999999996	0.0
C 	33.20341398109538	39.04999999999999	0.0
C 	34.43317005446927	38.33999999999999	0.0
C 	35.66292612784318	39.04999999999999	0.0
C 	36.892682201217085	38.33999999999999	0.0
C 	38.12243827459099	39.04999999999999	0.0
C 	39.35219434796489	38.33999999999999	0.0
C 	40.581950421338796	39.04999999999999	0.0
C 	41.811706494712695	38.33999999999999	0.0
C 	43.0414625680866	39.04999999999999	0.0
C 	44.27121864146049	38.33999999999999	0.0
C 	45.5009747148344	39.04999999999999	0.0
C 	46.730730788208305	38.33999999999999	0.0
C 	47.960486861582204	39.04999999999999	0.0
C 	49.19024293495611	38.33999999999999	0.0
C 	50.41999900833002	39.04999999999999	0.0
C 	51.649755081703915	38.33999999999999	0.0
C 	52.879511155077815	39.04999999999999	0.0
C 	54.10926722845173	38.33999999999999	0.0
C 	55.33902330182562	39.04999999999998	0.0
C 	56.568779375199526	38.33999999999999	0.0
C 	57.79853544857343	39.04999999999999	0.0
C 	59.02829152194733	38.33999999999999	0.0
C 	60.25804759532123	39.04999999999999	0.0
C 	61.48780366869513	38.33999999999998	0.0
C 	62.71755974206905	39.04999999999999	0.0
C 	63.94731581544294	38.33999999999999	0.0
C 	65.17707188881685	39.04999999999999	0.0
C 	66.40682796219075	38.33999999999999	0.0
C 	67.63658403556465	39.04999999999999	0.0
C 	68.86634010893856	38.33999999999999	0.0
C 	70.09609618231245	39.04999999999998	0.0
C 	71.32585225568636	38.33999999999999	0.0
C 	72.55560832906025	39.04999999999998	0.0
C 	73.78536440243415	38.33999999999999	0.0
C 	75.01512047580806	39.04999999999999	0.0
C 	76.24487654918197	38.33999999999999	0.0
C 	77.47463262255587	39.05	0.0
C 	78.70438869592977	38.33999999999998	0.0
C 	79.93414476930369	39.04999999999999	0.0
C 	81.16390084267758	38.33999999999998	0.0
C 	82.39365691605148	39.04999999999998	0.0
C 	23.365365394104156	40.46999999999999	0.0
C 	24.59512146747806	41.17999999999999	0.0
C 	25.82487754085196	40.46999999999999	0.0
C 	27.054633614225867	41.17999999999999	0.0
C 	28.284389687599763	40.46999999999999	0.0
C 	29.51414576097367	41.17999999999999	0.0
C 	30.74390183434757	40.46999999999999	0.0
C 	31.973657907721474	41.17999999999999	0.0
C 	33.20341398109537	40.46999999999999	0.0
C 	34.43317005446928	41.17999999999999	0.0
C 	35.66292612784318	40.46999999999999	0.0
C 	36.892682201217085	41.17999999999999	0.0
C 	38.12243827459099	40.46999999999999	0.0
C 	39.3521943479649	41.17999999999999	0.0
C 	40.58195042133879	40.46999999999999	0.0
C 	41.811706494712695	41.17999999999999	0.0
C 	43.0414625680866	40.46999999999999	0.0
C 	44.2712186414605	41.17999999999999	0.0
C 	45.500974714834406	40.46999999999999	0.0
C 	46.73073078820831	41.17999999999999	0.0
C 	47.960486861582204	40.46999999999999	0.0
C 	49.19024293495611	41.17999999999999	0.0
C 	50.41999900833002	40.46999999999999	0.0
C 	51.649755081703915	41.179999999999986	0.0
C 	52.87951115507782	40.46999999999999	0.0
C 	54.10926722845173	41.17999999999999	0.0
C 	55.33902330182563	40.46999999999999	0.0
C 	56.568779375199526	41.17999999999999	0.0
C 	57.798535448573425	40.469999999999985	0.0
C 	59.028291521947345	41.17999999999999	0.0
C 	60.25804759532124	40.46999999999999	0.0
C 	61.48780366869514	41.17999999999999	0.0
C 	62.71755974206904	40.46999999999999	0.0
C 	63.94731581544295	41.17999999999999	0.0
C 	65.17707188881685	40.46999999999999	0.0
C 	66.40682796219075	41.179999999999986	0.0
C 	67.63658403556465	40.46999999999999	0.0
C 	68.86634010893854	41.179999999999986	0.0
C 	70.09609618231246	40.46999999999999	0.0
C 	71.32585225568636	41.17999999999999	0.0
C 	72.55560832906026	40.469999999999985	0.0
C 	73.78536440243417	41.179999999999986	0.0
C 	75.01512047580806	40.469999999999985	0.0
C 	76.24487654918198	41.17999999999999	0.0
C 	77.47463262255587	40.46999999999999	0.0
C 	78.70438869592978	41.17999999999999	0.0
C 	79.93414476930367	40.469999999999985	0.0
C 	81.16390084267758	41.179999999999986	0.0
C 	82.3936569160515	40.46999999999999	0.0
C 	83.62341298942539	41.179999999999986	0.0
C 	24.595121467478055	42.59999999999999	0.0
C 	25.82487754085196	43.30999999999999	0.0
C 	27.05463361422586	42.59999999999999	0.0
C 	28.284389687599766	43.30999999999999	0.0
C 	29.514145760973662	42.59999999999999	0.0
C 	30.743901834347568	43.30999999999999	0.0
C 	31.97365790772147	42.59999999999999	0.0
C 	33.20341398109537	43.30999999999999	0.0
C 	34.43317005446927	42.59999999999999	0.0
C 	35.66292612784318	43.30999999999999	0.0
C 	36.89268220121708	42.59999999999999	0.0
C 	38.122438274590984	43.30999999999999	0.0
C 	39.35219434796489	42.59999999999999	0.0
C 	40.581950421338796	43.30999999999999	0.0
C 	41.81170649471269	42.59999999999999	0.0
C 	43.041462568086594	43.30999999999999	0.0
C 	44.2712186414605	42.59999999999999	0.0
C 	45.5009747148344	43.30999999999999	0.0
C 	46.730730788208305	42.59999999999999	0.0
C 	47.96048686158221	43.30999999999999	0.0
C 	49.19024293495611	42.59999999999999	0.0
C 	50.41999900833001	43.30999999999999	0.0
C 	51.64975508170392	42.599999999999994	0.0
C 	52.879511155077815	43.30999999999999	0.0
C 	54.10926722845172	42.59999999999999	0.0
C 	55.33902330182563	43.30999999999999	0.0
C 	56.568779375199526	42.59999999999999	0.0
C 	57.798535448573425	43.30999999999999	0.0
C 	59.028291521947324	42.59999999999998	0.0
C 	60.258047595321244	43.30999999999999	0.0
C 	61.487803668695136	42.59999999999999	0.0
C 	62.71755974206904	43.30999999999999	0.0
C 	63.94731581544294	42.59999999999999	0.0
C 	65.17707188881684	43.30999999999999	0.0
C 	66.40682796219076	42.599999999999994	0.0
C 	67.63658403556465	43.30999999999999	0.0
C 	68.86634010893856	42.59999999999999	0.0
C 	70.09609618231245	43.30999999999998	0.0
C 	71.32585225568636	42.59999999999999	0.0
C 	72.55560832906026	43.30999999999999	0.0
C 	73.78536440243415	42.59999999999999	0.0
C 	75.01512047580806	43.30999999999999	0.0
C 	76.24487654918197	42.59999999999998	0.0
C 	77.47463262255587	43.30999999999999	0.0
C 	78.70438869592978	42.59999999999999	0.0
C 	79.93414476930367	43.30999999999999	0.0
C 	81.16390084267758	42.59999999999999	0.0
C 	82.39365691605148	43.30999999999999	0.0
C 	83.62341298942539	42.59999999999999	0.0
C 	84.85316906279928	43.30999999999998	0.0
C 	25.82487754085196	44.72999999999999	0.0
C 	27.054633614225864	45.43999999999999	0.0
C 	28.284389687599766	44.72999999999999	0.0
C 	29.514145760973673	45.43999999999999	0.0
C 	30.743901834347568	44.72999999999999	0.0
C 	31.97365790772147	45.43999999999999	0.0
C 	33.20341398109537	44.72999999999999	0.0
C 	34.43317005446928	45.43999999999999	0.0
C 	35.662926127843185	44.72999999999999	0.0
C 	36.892682201217085	45.43999999999999	0.0
C 	38.122438274590984	44.72999999999999	0.0
C 	39.35219434796489	45.43999999999999	0.0
C 	40.581950421338796	44.72999999999999	0.0
C 	41.811706494712695	45.43999999999999	0.0
C 	43.0414625680866	44.72999999999999	0.0
C 	44.27121864146051	45.43999999999999	0.0
C 	45.500974714834406	44.72999999999999	0.0
C 	46.730730788208305	45.43999999999999	0.0
C 	47.960486861582204	44.72999999999999	0.0
C 	49.19024293495611	45.43999999999998	0.0
C 	50.41999900833002	44.72999999999999	0.0
C 	51.64975508170391	45.43999999999998	0.0
C 	52.87951115507782	44.72999999999999	0.0
C 	54.10926722845172	45.43999999999999	0.0
C 	55.33902330182562	44.72999999999998	0.0
C 	56.568779375199526	45.43999999999998	0.0
C 	57.798535448573425	44.72999999999998	0.0
C 	59.02829152194734	45.43999999999999	0.0
C 	60.25804759532124	44.72999999999999	0.0
C 	61.48780366869514	45.43999999999999	0.0
C 	62.717559742069035	44.72999999999998	0.0
C 	63.94731581544294	45.43999999999998	0.0
C 	65.17707188881685	44.72999999999999	0.0
C 	66.40682796219075	45.43999999999998	0.0
C 	67.63658403556465	44.72999999999999	0.0
C 	68.86634010893856	45.43999999999999	0.0
C 	70.09609618231245	44.72999999999999	0.0
C 	71.32585225568636	45.43999999999998	0.0
C 	72.55560832906026	44.72999999999998	0.0
C 	73.78536440243417	45.43999999999999	0.0
C 	75.01512047580806	44.72999999999998	0.0
C 	76.24487654918198	45.43999999999999	0.0
C 	77.47463262255587	44.72999999999999	0.0
C 	78.70438869592978	45.43999999999999	0.0
C 	79.93414476930369	44.72999999999999	0.0
C 	81.16390084267758	45.43999999999998	0.0
C 	82.39365691605148	44.72999999999999	0.0
C 	83.62341298942538	45.43999999999998	0.0
C 	84.8531690627993	44.72999999999998	0.0
C 	86.08292513617319	45.43999999999998	0.0
C 	27.054633614225864	46.85999999999999	0.0
C 	28.28438968759977	47.56999999999999	0.0
C 	29.514145760973673	46.85999999999999	0.0
C 	30.74390183434758	47.56999999999999	0.0
C 	31.973657907721474	46.85999999999999	0.0
C 	33.20341398109538	47.56999999999999	0.0
C 	34.43317005446928	46.85999999999999	0.0
C 	35.662926127843185	47.56999999999999	0.0
C 	36.892682201217085	46.85999999999999	0.0
C 	38.122438274590984	47.56999999999999	0.0
C 	39.35219434796489	46.85999999999999	0.0
C 	40.581950421338796	47.56999999999999	0.0
C 	41.8117064947127	46.85999999999999	0.0
C 	43.0414625680866	47.56999999999999	0.0
C 	44.2712186414605	46.85999999999999	0.0
C 	45.500974714834406	47.56999999999999	0.0
C 	46.73073078820831	46.859999999999985	0.0
C 	47.960486861582204	47.569999999999986	0.0
C 	49.19024293495612	46.85999999999999	0.0
C 	50.41999900833002	47.56999999999999	0.0
C 	51.649755081703915	46.859999999999985	0.0
C 	52.87951115507782	47.569999999999986	0.0
C 	54.10926722845172	46.859999999999985	0.0
C 	55.339023301825634	47.56999999999999	0.0
C 	56.56877937519953	46.85999999999999	0.0
C 	57.79853544857344	47.56999999999999	0.0
C 	59.02829152194733	46.859999999999985	0.0
C 	60.25804759532124	47.569999999999986	0.0
C 	61.48780366869515	46.85999999999999	0.0
C 	62.71755974206904	47.569999999999986	0.0
C 	63.94731581544295	46.85999999999999	0.0
C 	65.17707188881685	47.56999999999999	0.0
C 	66.40682796219075	46.859999999999985	0.0
C 	67.63658403556465	47.569999999999986	0.0
C 	68.86634010893856	46.859999999999985	0.0
C 	70.09609618231246	47.56999999999999	0.0
C 	71.32585225568636	46.859999999999985	0.0
C 	72.55560832906028	47.56999999999999	0.0
C 	73.78536440243417	46.859999999999985	0.0
C 	75.01512047580808	47.569999999999986	0.0
C 	76.24487654918197	46.859999999999985	0.0
C 	77.47463262255587	47.569999999999986	0.0
C 	78.70438869592978	46.85999999999999	0.0
C 	79.93414476930367	47.569999999999986	0.0
C 	81.16390084267758	46.85999999999999	0.0
C 	82.39365691605148	47.56999999999999	0.0
C 	83.62341298942539	46.859999999999985	0.0
C 	84.8531690627993	47.569999999999986	0.0
C 	86.08292513617319	46.85999999999998	0.0
C 	87.31268120954711	47.569999999999986	0.0
C 	28.284389687599763	48.98999999999999	0.0
C 	29.51414576097367	49.69999999999999	0.0
C 	30.74390183434757	48.98999999999999	0.0
C 	31.973657907721478	49.69999999999999	0.0
C 	33.20341398109537	48.98999999999999	0.0
C 	34.43317005446928	49.69999999999999	0.0
C 	35.66292612784318	48.98999999999999	0.0
C 	36.892682201217085	49.69999999999999	0.0
C 	38.122438274590984	48.98999999999999	0.0
C 	39.35219434796488	49.69999999999999	0.0
C 	40.58195042133879	48.98999999999999	0.0
C 	41.811706494712695	49.69999999999999	0.0
C 	43.041462568086594	48.98999999999999	0.0
C 	44.2712186414605	49.69999999999999	0.0
C 	45.5009747148344	48.98999999999999	0.0
C 	46.730730788208305	49.69999999999998	0.0
C 	47.96048686158221	48.98999999999999	0.0
C 	49.1902429349561	49.69999999999998	0.0
C 	50.41999900833002	48.98999999999999	0.0
C 	51.64975508170392	49.69999999999999	0.0
C 	52.879511155077815	48.98999999999999	0.0
C 	54.10926722845172	49.69999999999999	0.0
C 	55.33902330182562	48.98999999999998	0.0
C 	56.56877937519953	49.69999999999999	0.0
C 	57.79853544857343	48.98999999999999	0.0
C 	59.02829152194734	49.69999999999999	0.0
C 	60.25804759532124	48.98999999999999	0.0
C 	61.487803668695136	49.69999999999999	0.0
C 	62.71755974206905	48.98999999999999	0.0
C 	63.94731581544294	49.69999999999998	0.0
C 	65.17707188881685	48.98999999999999	0.0
C 	66.40682796219075	49.69999999999999	0.0
C 	67.63658403556465	48.98999999999999	0.0
C 	68.86634010893856	49.69999999999999	0.0
C 	70.09609618231245	48.98999999999998	0.0
C 	71.32585225568637	49.69999999999999	0.0
C 	72.55560832906025	48.98999999999998	0.0
C 	73.78536440243417	49.69999999999999	0.0
C 	75.01512047580806	48.98999999999999	0.0
C 	76.24487654918197	49.69999999999999	0.0
C 	77.47463262255587	48.98999999999998	0.0
C 	78.70438869592978	49.69999999999998	0.0
C 	79.93414476930369	48.98999999999999	0.0
C 	81.16390084267758	49.69999999999998	0.0
C 	82.39365691605148	48.98999999999999	0.0
C 	83.62341298942539	49.69999999999999	0.0
C 	84.85316906279928	48.98999999999998	0.0
C 	86.08292513617319	49.69999999999998	0.0
C 	87.3126812095471	48.98999999999998	0.0
C 	88.542437282921	49.69999999999999	0.0
C 	29.51414576097367	51.11999999999999	0.0
C 	30.74390183434757	51.82999999999999	0.0
C 	31.973657907721474	51.11999999999999	0.0
C 	33.20341398109538	51.82999999999999	0.0
C 	34.43317005446928	51.11999999999999	0.0
C 	35.66292612784318	51.82999999999999	0.0
C 	36.892682201217085	51.11999999999999	0.0
C 	38.12243827459099	51.82999999999999	0.0
C 	39.35219434796489	51.12	0.0
C 	40.581950421338796	51.83	0.0
C 	41.811706494712695	51.11999999999999	0.0
C 	43.041462568086594	51.82999999999999	0.0
C 	44.2712186414605	51.12	0.0
C 	45.5009747148344	51.82999999999999	0.0
C 	46.73073078820831	51.11999999999999	0.0
C 	47.96048686158221	51.82999999999999	0.0
C 	49.19024293495611	51.11999999999999	0.0
C 	50.41999900833002	51.82999999999999	0.0
C 	51.649755081703915	51.11999999999998	0.0
C 	52.879511155077815	51.829999999999984	0.0
C 	54.10926722845171	51.11999999999999	0.0
C 	55.33902330182563	51.83	0.0
C 	56.568779375199526	51.11999999999999	0.0
C 	57.79853544857343	51.82999999999999	0.0
C 	59.02829152194733	51.11999999999999	0.0
C 	60.25804759532124	51.82999999999999	0.0
C 	61.48780366869514	51.11999999999999	0.0
C 	62.717559742069035	51.829999999999984	0.0
C 	63.94731581544295	51.11999999999999	0.0
C 	65.17707188881685	51.82999999999999	0.0
C 	66.40682796219075	51.11999999999999	0.0
C 	67.63658403556465	51.82999999999999	0.0
C 	68.86634010893854	51.11999999999998	0.0
C 	70.09609618231246	51.82999999999999	0.0
C 	71.32585225568636	51.11999999999999	0.0
C 	72.55560832906026	51.82999999999999	0.0
C 	73.78536440243417	51.11999999999999	0.0
C 	75.01512047580806	51.82999999999999	0.0
C 	76.24487654918198	51.11999999999999	0.0
C 	77.47463262255587	51.829999999999984	0.0
C 	78.70438869592978	51.11999999999999	0.0
C 	79.93414476930367	51.829999999999984	0.0
C 	81.16390084267758	51.11999999999999	0.0
C 	82.39365691605148	51.82999999999999	0.0
C 	83.62341298942538	51.11999999999998	0.0
C 	84.8531690627993	51.82999999999999	0.0
C 	86.08292513617319	51.11999999999998	0.0
C 	87.3126812095471	51.82999999999999	0.0
C 	88.542437282921	51.11999999999998	0.0
C 	89.7721933562949	51.829999999999984	0.0
C 	52.19195149498585	0.39572609851279994	2.15
C 	53.600754370852414	0.5736992901741143	2.15
C 	54.151026503614396	1.8827449654297832	2.15
C 	55.55982937948095	2.0607181570910944	2.15
C 	56.110101512242935	3.3697638323467634	2.15
C 	47.965542867386176	-0.13819347647113014	2.15
C 	49.374345743252725	0.039779715190177874	2.15
C 	49.924617876014715	1.34882539044585	2.15
C 	51.33342075188127	1.526798582107161	2.15
C 	51.88369288464326	2.835844257362833	2.15
C 	53.29249576050982	3.013817449024144	2.15
C 	53.84276789327181	4.322863124279817	2.15
C 	55.25157076913837	4.500836315941121	2.15
C 	55.80184290190036	5.809881991196793	2.15
C 	57.210645777766906	5.9878551828581115	2.15
C 	57.76091791052889	7.2969008581137835	2.15
C 	59.16972078639545	7.474874049775094	2.15
C 	59.71999291915744	8.783919725030767	2.15
C 	43.739134239786495	-0.6721130514550651	2.15
C 	45.14793711565306	-0.49413985979375574	2.15
C 	45.69820924841505	0.8149058154619164	2.15
C 	47.1070121242816	0.992879007123231	2.15
C 	47.65728425704359	2.3019246823789032	2.15
C 	49.06608713291014	2.4798978740402076	2.15
C 	49.61635926567213	3.7889435492958796	2.15
C 	51.025162141538694	3.9669167409571906	2.15
C 	51.57543427430068	5.275962416212863	2.15
C 	52.98423715016723	5.453935607874177	2.15
C 	53.53450928292922	6.762981283129849	2.15
C 	54.943312158795784	6.9409544747911545	2.15
C 	55.49358429155777	8.250000150046827	2.15
C 	56.90238716742432	8.42797334170814	2.15
C 	57.45265930018631	9.737019016963814	2.15
C 	58.861462176052875	9.914992208625124	2.15
C 	59.41173430881486	11.224037883880797	2.15
C 	60.82053718468141	11.402011075542104	2.15
C 	61.370809317443396	12.711056750797777	2.15
C 	41.471800620815365	0.280986240477978	2.15
C 	42.88060349668192	0.4589594321392893	2.15
C 	43.430875629443904	1.768005107394958	2.15
C 	44.83967850531047	1.945978299056276	2.15
C 	45.389950638072456	3.255023974311945	2.15
C 	46.79875351393902	3.432997165973257	2.15
C 	47.349025646701	4.742042841228926	2.15
C 	48.757828522567564	4.920016032890238	2.15
C 	49.30810065532955	6.229061708145906	2.15
C 	50.71690353119611	6.407034899807221	2.15
C 	51.2671756639581	7.71608057506289	2.15
C 	52.675978539824655	7.894053766724204	2.15
C 	53.22625067258664	9.203099441979873	2.15
C 	54.63505354845319	9.381072633641184	2.15
C 	55.185325681215176	10.690118308896853	2.15
C 	56.59412855708174	10.868091500558167	2.15
C 	57.14440068984373	12.177137175813836	2.15
C 	58.55320356571029	12.355110367475147	2.15
C 	59.10347569847227	13.66415604273082	2.15
C 	60.51227857433882	13.84212923439213	2.15
C 	61.06255070710081	15.151174909647803	2.15
C 	62.471353582967375	15.329148101309121	2.15
C 	63.02162571572936	16.638193776564787	2.15
C 	64.43042859159591	16.816166968226096	2.15
C 	64.9807007243579	18.12521264348177	2.15
C 	37.24539199321569	-0.25293333450595035	2.15
C 	38.65419486908224	-0.07496014284464407	2.15
C 	39.20446700184423	1.234085532411028	2.15
C 	40.61326987771079	1.412058724072339	2.15
C 	41.16354201047278	2.721104399328011	2.15
C 	42.57234488633933	2.8990775909893194	2.15
C 	43.12261701910132	4.208123266244991	2.15
C 	44.531419894967875	4.386096457906302	2.15
C 	45.081692027729865	5.6951421331619745	2.15
C 	46.49049490359643	5.8731153248232895	2.15
C 	47.04076703635842	7.1821610000789615	2.15
C 	48.44956991222497	7.360134191740264	2.15
C 	48.99984204498696	8.669179866995936	2.15
C 	50.408644920853526	8.84715305865725	2.15
C 	50.95891705361551	10.156198733912923	2.15
C 	52.367719929482064	10.334171925574234	2.15
C 	52.91799206224405	11.643217600829907	2.15
C 	54.32679493811061	11.82119079249121	2.15
C 	54.8770670708726	13.130236467746883	2.15
C 	56.285869946739155	13.308209659408197	2.15
C 	56.83614207950114	14.61725533466387	2.15
C 	58.2449449553677	14.79522852632518	2.15
C 	58.79521708812969	16.104274201580854	2.15
C 	60.20401996399624	16.282247393242162	2.15
C 	60.75429209675823	17.591293068497833	2.15
C 	62.16309497262479	17.769266260159142	2.15
C 	62.71336710538678	19.078311935414817	2.15
C 	64.12216998125334	19.25628512707613	2.15
C 	64.67244211401533	20.565330802331804	2.15
C 	66.08124498988188	20.743303993993106	2.15
C 	66.63151712264387	22.05234966924878	2.15
C 	33.018983365616016	-0.7868529094898837	2.15
C 	34.42778624148257	-0.608879717828576	2.15
C 	34.97805837424456	0.7001659574270962	2.15
C 	36.38686125011112	0.8781391490884091	2.15
C 	36.93713338287311	2.1871848243440812	2.15
C 	38.34593625873966	2.3651580160053873	2.15
C 	38.89620839150165	3.6742036912610594	2.15
C 	40.3050112673682	3.8521768829223726	2.15
C 	40.85528340013019	5.161222558178045	2.15
C 	42.264086275996746	5.339195749839349	2.15
C 	42.814358408758736	6.648241425095021	2.15
C 	44.22316128462529	6.826214616756336	2.15
C 	44.77343341738728	8.135260292012008	2.15
C 	46.18223629325384	8.313233483673319	2.15
C 	46.732508426015826	9.622279158928992	2.15
C 	48.14131130188239	9.800252350590299	2.15
C 	48.69158343464437	11.109298025845971	2.15
C 	50.100386310510935	11.28727121750728	2.15
C 	50.650658443272924	12.596316892762953	2.15
C 	52.05946131913949	12.774290084424267	2.15
C 	52.60973345190147	14.08333575967994	2.15
C 	54.018536327768025	14.261308951341244	2.15
C 	54.56880846053001	15.570354626596917	2.15
C 	55.97761133639656	15.74832781825823	2.15
C 	56.52788346915855	17.057373493513904	2.15
C 	57.936686345025116	17.235346685175212	2.15
C 	58.4869584777871	18.544392360430887	2.15
C 	59.895761353653654	18.722365552092192	2.15
C 	60.446033486415644	20.031411227347867	2.15
C 	61.8548363622822	20.209384419009176	2.15
C 	62.40510849504419	21.51843009426485	2.15
C 	63.813911370910745	21.696403285926163	2.15
C 	64.36418350367273	23.005448961181838	2.15
C 	65.77298637953929	23.18342215284314	2.15
C 	66.32325851230128	24.492467828098814	2.15
C 	67.73206138816784	24.670441019760116	2.15
C 	68.28233352092982	25.97948669501579	2.15
C 	69.69113639679638	26.15745988667711	2.15
C 	70.24140852955837	27.46650556193278	2.15
C 	30.751649746644883	0.1662463824431596	2.15
C 	32.16045262251144	0.3442195741044706	2.15
C 	32.71072475527343	1.6532652493601394	2.15
C 	34.11952763113999	1.8312384410214542	2.15
C 	34.66979976390197	3.140284116277123	2.15
C 	36.07860263976853	3.3182573079384374	2.15
C 	36.62887477253052	4.627302983194106	2.15
C 	38.03767764839708	4.805276174855416	2.15
C 	38.58794978115906	6.114321850111084	2.15
C 	39.996752657025624	6.292295041772401	2.15
C 	40.54702478978761	7.601340717028069	2.15
C 	41.95582766565416	7.779313908689379	2.15
C 	42.506099798416145	9.088359583945048	2.15
C 	43.91490267428271	9.266332775606362	2.15
C 	44.4651748070447	10.575378450862031	2.15
C 	45.87397768291125	10.753351642523349	2.15
C 	46.424249815673235	12.062397317779018	2.15
C 	47.8330526915398	12.240370509440325	2.15
C 	48.38332482430178	13.549416184695994	2.15
C 	49.79212770016834	13.727389376357308	2.15
C 	50.34239983293033	15.036435051612978	2.15
C 	51.751202708796896	15.21440824327429	2.15
C 	52.30147484155888	16.523453918529963	2.15
C 	53.71027771742544	16.701427110191272	2.15
C 	54.26054985018743	18.010472785446943	2.15
C 	55.66935272605399	18.18844597710826	2.15
C 	56.21962485881597	19.497491652363927	2.15
C 	57.62842773468253	19.675464844025235	2.15
C 	58.17869986744452	20.98451051928091	2.15
C 	59.58750274331107	21.16248371094222	2.15
C 	60.13777487607306	22.47152938619789	2.15
C 	61.54657775193962	22.649502577859206	2.15
C 	62.096849884701605	23.958548253114873	2.15
C 	63.50565276056816	24.136521444776186	2.15
C 	64.05592489333014	25.44556712003186	2.15
C 	65.46472776919671	25.623540311693162	2.15
C 	66.01499990195869	26.932585986948837	2.15
C 	67.42380277782526	27.11055917861014	2.15
C 	67.97407491058723	28.419604853865813	2.15
C 	69.3828777864538	28.597578045527133	2.15
C 	69.93314991921578	29.906623720782807	2.15
C 	71.34195279508235	30.08459691244411	2.15
C 	71.89222492784432	31.393642587699784	2.15
C 	26.525241119045212	-0.36767319254077896	2.15
C 	27.934043994911764	-0.189700000879466	2.15
C 	28.484316127673754	1.1193456743762045	2.15
C 	29.893119003540313	1.2973188660375172	2.15
C 	30.443391136302303	2.6063645412931877	2.15
C 	31.852194012168855	2.7843377329545005	2.15
C 	32.40246614493084	4.09338340821017	2.15
C 	33.811269020797404	4.27135659987148	2.15
C 	34.36154115355939	5.5804022751271525	2.15
C 	35.77034402942594	5.7583754667884675	2.15
C 	36.32061616218793	7.0674211420441395	2.15
C 	37.72941903805449	7.245394333705444	2.15
C 	38.27969117081648	8.554440008961116	2.15
C 	39.68849404668303	8.732413200622428	2.15
C 	40.23876617944502	10.041458875878101	2.15
C 	41.647569055311585	10.219432067539406	2.15
C 	42.19784118807357	11.52847774279508	2.15
C 	43.606644063940124	11.706450934456392	2.15
C 	44.156916196702106	13.015496609712065	2.15
C 	45.56571907256867	13.193469801373375	2.15
C 	46.11599120533066	14.502515476629048	2.15
C 	47.52479408119721	14.680488668290355	2.15
C 	48.0750662139592	15.989534343546028	2.15
C 	49.48386908982576	16.16750753520734	2.15
C 	50.03414122258774	17.47655321046301	2.15
C 	51.442944098454305	17.654526402124322	2.15
C 	51.993216231216294	18.963572077379993	2.15
C 	53.40201910708285	19.141545269041302	2.15
C 	53.95229123984484	20.450590944296973	2.15
C 	55.361094115711396	20.628564135958285	2.15
C 	55.911366248473385	21.93760981121396	2.15
C 	57.32016912433994	22.11558300287527	2.15
C 	57.87044125710193	23.424628678130944	2.15
C 	59.27924413296848	23.60260186979225	2.15
C 	59.82951626573047	24.911647545047924	2.15
C 	61.23831914159703	25.089620736709232	2.15
C 	61.78859127435902	26.398666411964907	2.15
C 	63.19739415022557	26.57663960362622	2.15
C 	63.74766628298756	27.885685278881894	2.15
C 	65.15646915885412	28.063658470543196	2.15
C 	65.70674129161611	29.37270414579887	2.15
C 	67.11554416748267	29.550677337460172	2.15
C 	67.66581630024466	30.859723012715847	2.15
C 	69.07461917611121	31.037696204377166	2.15
C 	69.6248913088732	32.34674187963284	2.15
C 	71.03369418473976	32.524715071294146	2.15
C 	71.58396631750175	33.833760746549814	2.15
C 	72.99276919336829	34.01173393821112	2.15
C 	73.54304132613028	35.3207796134668	2.15
C 	74.95184420199685	35.49875280512811	2.15
C 	75.50211633475884	36.80779848038379	2.15
C 	22.298832491445534	-0.9015927675247156	2.15
C 	23.707635367312093	-0.7236195758634012	2.15
C 	24.25790750007408	0.5854260993922693	2.15
C 	25.666710375940635	0.7633992910535805	2.15
C 	26.216982508702625	2.0724449663092512	2.15
C 	27.625785384569184	2.2504181579705604	2.15
C 	28.17605751733117	3.5594638332262307	2.15
C 	29.584860393197726	3.737437024887547	2.15
C 	30.135132525959712	5.046482700143216	2.15
C 	31.543935401826275	5.224455891804527	2.15
C 	32.094207534588264	6.533501567060199	2.15
C 	33.50301041045481	6.7114747587215104	2.15
C 	34.0532825432168	8.020520433977179	2.15
C 	35.462085419083365	8.198493625638493	2.15
C 	36.01235755184535	9.507539300894162	2.15
C 	37.421160427711904	9.685512492555475	2.15
C 	37.971432560473886	10.994558167811142	2.15
C 	39.38023543634045	11.172531359472456	2.15
C 	39.93050756910244	12.481577034728126	2.15
C 	41.339310444968994	12.659550226389435	2.15
C 	41.88958257773098	13.968595901645104	2.15
C 	43.29838545359754	14.14656909330642	2.15
C 	43.84865758635953	15.45561476856209	2.15
C 	45.25746046222608	15.633587960223405	2.15
C 	45.80773259498807	16.942633635479073	2.15
C 	47.21653547085463	17.120606827140385	2.15
C 	47.76680760361661	18.42965250239605	2.15
C 	49.175610479483176	18.60762569405736	2.15
C 	49.725882612245165	19.916671369313033	2.15
C 	51.13468548811172	20.094644560974356	2.15
C 	51.6849576208737	21.40369023623002	2.15
C 	53.093760496740266	21.581663427891332	2.15
C 	53.64403262950225	22.890709103146996	2.15
C 	55.05283550536881	23.068682294808312	2.15
C 	55.6031076381308	24.377727970063983	2.15
C 	57.011910513997364	24.555701161725302	2.15
C 	57.56218264675935	25.86474683698097	2.15
C 	58.9709855226259	26.04272002864228	2.15
C 	59.521257655387885	27.351765703897946	2.15
C 	60.93006053125445	27.529738895559255	2.15
C 	61.48033266401644	28.83878457081493	2.15
C 	62.88913553988299	29.01675776247625	2.15
C 	63.439407672644975	30.325803437731917	2.15
C 	64.84821054851155	30.503776629393226	2.15
C 	65.39848268127352	31.812822304648893	2.15
C 	66.80728555714009	31.990795496310202	2.15
C 	67.35755768990207	33.299841171565866	2.15
C 	68.76636056576864	33.477814363227196	2.15
C 	69.31663269853061	34.786860038482864	2.15
C 	70.72543557439718	34.96483323014417	2.15
C 	71.27570770715916	36.27387890539984	2.15
C 	72.68451058302571	36.451852097061156	2.15
C 	73.2347827157877	37.76089777231682	2.15
C 	74.64358559165427	37.93887096397814	2.15
C 	75.19385772441625	39.247916639233814	2.15
C 	76.6026606002828	39.42588983089512	2.15
C 	77.15293273304479	40.7349355061508	2.15
C 	20.0314988724744	0.051506524408333476	2.15
C 	21.44030174834096	0.22947971606964465	2.15
C 	21.990573881102947	1.5385253913253152	2.15
C 	23.39937675696951	1.7164985829866286	2.15
C 	23.949648889731495	3.025544258242299	2.15
C 	25.358451765598055	3.2035174499036105	2.15
C 	25.90872389836004	4.512563125159281	2.15
C 	27.317526774226597	4.690536316820592	2.15
C 	27.867798906988583	5.999581992076263	2.15
C 	29.276601782855145	6.1775551837375735	2.15
C 	29.82687391561713	7.486600858993246	2.15
C 	31.235676791483687	7.6645740506545605	2.15
C 	31.785948924245673	8.973619725910229	2.15
C 	33.19475180011223	9.151592917571538	2.15
C 	33.74502393287422	10.460638592827209	2.15
C 	35.153826808740774	10.638611784488523	2.15
C 	35.704098941502764	11.947657459744196	2.15
C 	37.11290181736932	12.1256306514055	2.15
C 	37.66317395013131	13.434676326661172	2.15
C 	39.071976825997865	13.612649518322486	2.15
C 	39.62224895875985	14.92169519357816	2.15
C 	41.03105183462641	15.099668385239463	2.15
C 	41.58132396738839	16.408714060495136	2.15
C 	42.990126843254956	16.586687252156448	2.15
C 	43.54039897601694	17.89573292741212	2.15
C 	44.9492018518835	18.073706119073435	2.15
C 	45.49947398464549	19.382751794329106	2.15
C 	46.90827686051204	19.56072498599041	2.15
C 	47.45854899327403	20.869770661246083	2.15
C 	48.867351869140585	21.047743852907395	2.15
C 	49.417624001902574	22.356789528163066	2.15
C 	50.82642687776914	22.53476271982438	2.15
C 	51.37669901053113	23.84380839508005	2.15
C 	52.785501886397675	24.02178158674136	2.15
C 	53.335774019159665	25.33082726199703	2.15
C 	54.74457689502622	25.508800453658345	2.15
C 	55.29484902778821	26.817846128914017	2.15
C 	56.70365190365477	26.995819320575325	2.15
C 	57.25392403641676	28.304864995831	2.15
C 	58.66272691228331	28.482838187492305	2.15
C 	59.2129990450453	29.79188386274798	2.15
C 	60.621801920911864	29.96985705440929	2.15
C 	61.172074053673846	31.278902729664964	2.15
C 	62.5808769295404	31.456875921326276	2.15
C 	63.13114906230239	32.76592159658195	2.15
C 	64.53995193816895	32.943894788243256	2.15
C 	65.09022407093093	34.25294046349892	2.15
C 	66.4990269467975	34.43091365516023	2.15
C 	67.04929907955947	35.7399593304159	2.15
C 	68.45810195542605	35.91793252207722	2.15
C 	69.00837408818802	37.2269781973329	2.15
C 	70.41717696405459	37.4049513889942	2.15
C 	70.96744909681657	38.713997064249874	2.15
C 	72.37625197268312	38.89197025591118	2.15
C 	72.92652410544511	40.20101593116685	2.15
C 	74.33532698131168	40.37898912282817	2.15
C 	74.88559911407366	41.68803479808384	2.15
C 	76.29440198994021	41.86600798974515	2.15
C 	76.8446741227022	43.175053665000824	2.15
C 	78.25347699856876	43.353026856662126	2.15
C 	78.80374913133075	44.6620725319178	2.15
C 	15.80509024487473	-0.48241305057559913	2.15
C 	17.213893120741286	-0.304439858914288	2.15
C 	17.764165253503272	1.0046058163413825	2.15
C 	19.17296812936983	1.1825790080026937	2.15
C 	19.72324026213182	2.4916246832583644	2.15
C 	21.132043137998373	2.6695978749196745	2.15
C 	21.682315270760363	3.978643550175345	2.15
C 	23.09111814662692	4.156616741836659	2.15
C 	23.641390279388908	5.46566241709233	2.15
C 	25.050193155255467	5.64363560875364	2.15
C 	25.600465288017453	6.9526812840093095	2.15
C 	27.009268163884013	7.130654475670622	2.15
C 	27.559540296646	8.439700150926294	2.15
C 	28.968343172512558	8.617673342587606	2.15
C 	29.518615305274544	9.92671901784328	2.15
C 	30.9274181811411	10.104692209504588	2.15
C 	31.477690313903086	11.413737884760257	2.15
C 	32.886493189769645	11.59171107642157	2.15
C 	33.436765322531635	12.900756751677243	2.15
C 	34.84556819839819	13.078729943338555	2.15
C 	35.39584033116018	14.387775618594228	2.15
C 	36.804643207026736	14.565748810255533	2.15
C 	37.35491533978872	15.874794485511206	2.15
C 	38.76371821565528	16.05276767717252	2.15
C 	39.31399034841726	17.36181335242819	2.15
C 	40.72279322428382	17.539786544089498	2.15
C 	41.27306535704581	18.84883221934517	2.15
C 	42.681868232912365	19.02680541100648	2.15
C 	43.232140365674354	20.335851086262153	2.15
C 	44.64094324154092	20.513824277923465	2.15
C 	45.1912153743029	21.822869953179136	2.15
C 	46.60001825016946	22.000843144840445	2.15
C 	47.15029038293145	23.309888820096116	2.15
C 	48.55909325879801	23.487862011757425	2.15
C 	49.10936539156	24.7969076870131	2.15
C 	50.518168267426546	24.974880878674412	2.15
C 	51.068440400188535	26.283926553930083	2.15
C 	52.47724327605509	26.46189974559139	2.15
C 	53.02751540881708	27.77094542084706	2.15
C 	54.43631828468364	27.948918612508376	2.15
C 	54.986590417445626	29.257964287764047	2.15
C 	56.39539329331218	29.43593747942536	2.15
C 	56.94566542607417	30.74498315468103	2.15
C 	58.354468301940734	30.922956346342335	2.15
C 	58.90474043470272	32.23200202159801	2.15
C 	60.31354331056928	32.40997521325932	2.15
C 	60.86381544333127	33.719020888515	2.15
C 	62.272618319197825	33.896994080176306	2.15
C 	62.82289045195981	35.20603975543198	2.15
C 	64.23169332782636	35.38401294709328	2.15
C 	64.78196546058835	36.69305862234896	2.15
C 	66.19076833645491	36.87103181401026	2.15
C 	66.7410404692169	38.18007748926593	2.15
C 	68.14984334508345	38.358050680927256	2.15
C 	68.70011547784544	39.667096356182924	2.15
C 	70.108918353712	39.84506954784423	2.15
C 	70.65919048647399	41.15411522309989	2.15
C 	72.06799336234054	41.332088414761216	2.15
C 	72.61826549510253	42.64113409001688	2.15
C 	74.02706837096909	42.81910728167819	2.15
C 	74.57734050373108	44.12815295693387	2.15
C 	75.98614337959764	44.306126148595176	2.15
C 	76.53641551235962	45.615171823850844	2.15
C 	77.94521838822618	45.79314501551215	2.15
C 	13.537756625903599	0.4706862413574458	2.15
C 	14.946559501770157	0.6486594330187586	2.15
C 	15.496831634532144	1.957705108274429	2.15
C 	16.905634510398702	2.13567829993574	2.15
C 	17.455906643160688	3.444723975191411	2.15
C 	18.864709519027244	3.622697166852722	2.15
C 	19.414981651789233	4.931742842108393	2.15
C 	20.823784527655793	5.109716033769703	2.15
C 	21.37405666041778	6.418761709025374	2.15
C 	22.782859536284334	6.5967349006866876	2.15
C 	23.33313166904632	7.905780575942357	2.15
C 	24.74193454491288	8.08375376760367	2.15
C 	25.292206677674866	9.392799442859342	2.15
C 	26.701009553541425	9.570772634520651	2.15
C 	27.25128168630341	10.879818309776319	2.15
C 	28.66008456216997	11.057791501437634	2.15
C 	29.210356694931956	12.366837176693304	2.15
C 	30.619159570798516	12.544810368354616	2.15
C 	31.1694317035605	13.853856043610289	2.15
C 	32.57823457942706	14.031829235271598	2.15
C 	33.12850671218904	15.340874910527267	2.15
C 	34.53730958805561	15.518848102188583	2.15
C 	35.08758172081759	16.827893777444253	2.15
C 	36.496384596684145	17.00586696910556	2.15
C 	37.046656729446134	18.314912644361232	2.15
C 	38.45545960531269	18.49288583602255	2.15
C 	39.00573173807468	19.801931511278216	2.15
C 	40.414534613941235	19.97990470293953	2.15
C 	40.964806746703225	21.288950378195192	2.15
C 	42.37360962256978	21.466923569856508	2.15
C 	42.92388175533177	22.77596924511218	2.15
C 	44.332684631198326	22.9539424367735	2.15
C 	44.882956763960316	24.262988112029163	2.15
C 	46.29175963982687	24.440961303690475	2.15
C 	46.84203177258886	25.75000697894614	2.15
C 	48.25083464845542	25.927980170607455	2.15
C 	48.801106781217406	27.237025845863126	2.15
C 	50.20990965708397	27.414999037524442	2.15
C 	50.76018178984595	28.72404471278011	2.15
C 	52.16898466571251	28.902017904441422	2.15
C 	52.71925679847449	30.211063579697086	2.15
C 	54.128059674341046	30.389036771358402	2.15
C 	54.678331807103035	31.698082446614073	2.15
C 	56.0871346829696	31.876055638275393	2.15
C 	56.63740681573158	33.18510131353106	2.15
C 	58.04620969159814	33.36307450519237	2.15
C 	58.596481824360126	34.67212018044804	2.15
C 	60.00528470022669	34.85009337210935	2.15
C 	60.55555683298868	36.15913904736502	2.15
C 	61.964359708855234	36.33711223902634	2.15
C 	62.514631841617216	37.64615791428201	2.15
C 	63.92343471748378	37.824131105943316	2.15
C 	64.47370685024576	39.13317678119898	2.15
C 	65.88250972611233	39.31114997286029	2.15
C 	66.4327818588743	40.62019564811596	2.15
C 	67.84158473474088	40.79816883977728	2.15
C 	68.39185686750285	42.10721451503296	2.15
C 	69.80065974336942	42.285187706694266	2.15
C 	70.3509318761314	43.594233381949934	2.15
C 	71.75973475199795	43.77220657361124	2.15
C 	72.31000688475994	45.08125224886692	2.15
C 	73.71880976062651	45.25922544052823	2.15
C 	74.2690818933885	46.56827111578391	2.15
C 	75.67788476925504	46.74624430744521	2.15
C 	9.311347998303923	-0.0632333336264884	2.15
C 	10.72015087417048	0.11473985803482233	2.15
C 	11.270423006932466	1.4237855332904927	2.15
C 	12.679225882799027	1.6017587249518053	2.15
C 	13.229498015561015	2.9108044002074758	2.15
C 	14.638300891427573	3.0887775918687868	2.15
C 	15.188573024189559	4.397823267124459	2.15
C 	16.597375900056115	4.575796458785769	2.15
C 	17.147648032818104	5.884842134041441	2.15
C 	18.55645090868466	6.06281532570275	2.15
C 	19.106723041446646	7.371861000958423	2.15
C 	20.515525917313205	7.549834192619731	2.15
C 	21.06579805007519	8.858879867875403	2.15
C 	22.47460092594175	9.036853059536718	2.15
C 	23.02487305870374	10.345898734792389	2.15
C 	24.433675934570292	10.523871926453698	2.15
C 	24.983948067332282	11.83291760170937	2.15
C 	26.392750943198838	12.01089079337068	2.15
C 	26.943023075960824	13.319936468626352	2.15
C 	28.351825951827387	13.497909660287663	2.15
C 	28.902098084589372	14.806955335543336	2.15
C 	30.310900960455932	14.984928527204644	2.15
C 	30.861173093217918	16.293974202460316	2.15
C 	32.26997596908448	16.471947394121628	2.15
C 	32.82024810184646	17.7809930693773	2.15
C 	34.22905097771302	17.95896626103861	2.15
C 	34.779323110475005	19.268011936294283	2.15
C 	36.18812598634156	19.44598512795559	2.15
C 	36.73839811910355	20.755030803211262	2.15
C 	38.147200994970106	20.933003994872575	2.15
C 	38.697473127732096	22.242049670128246	2.15
C 	40.10627600359865	22.420022861789555	2.15
C 	40.65654813636064	23.729068537045226	2.15
C 	42.0653510122272	23.907041728706538	2.15
C 	42.615623144989186	25.21608740396221	2.15
C 	44.02442602085574	25.39406059562352	2.15
C 	44.57469815361773	26.703106270879196	2.15
C 	45.98350102948428	26.8810794625405	2.15
C 	46.53377316224627	28.190125137796173	2.15
C 	47.94257603811283	28.36809832945748	2.15
C 	48.49284817087482	29.677144004713156	2.15
C 	49.90165104674138	29.85511719637447	2.15
C 	50.45192317950337	31.164162871630143	2.15
C 	51.86072605536992	31.342136063291445	2.15
C 	52.41099818813191	32.651181738547116	2.15
C 	53.81980106399847	32.82915493020843	2.15
C 	54.37007319676045	34.13820060546411	2.15
C 	55.778876072627014	34.316173797125415	2.15
C 	56.329148205389004	35.62521947238109	2.15
C 	57.73795108125555	35.80319266404239	2.15
C 	58.28822321401754	37.11223833929807	2.15
C 	59.697026089884105	37.290211530959375	2.15
C 	60.24729822264609	38.59925720621505	2.15
C 	61.65610109851265	38.777230397876366	2.15
C 	62.20637323127464	40.086276073132034	2.15
C 	63.615176107141195	40.26424926479334	2.15
C 	64.16544823990318	41.57329494004902	2.15
C 	65.57425111576974	41.75126813171032	2.15
C 	66.12452324853173	43.06031380696599	2.15
C 	67.53332612439829	43.23828699862731	2.15
C 	68.08359825716028	44.547332673882984	2.15
C 	69.49240113302683	44.725305865544286	2.15
C 	70.04267326578882	46.03435154079996	2.15
C 	71.45147614165538	46.21232473246127	2.15
C 	5.084939370704247	-0.5971529086104237	2.15
C 	6.493742246570807	-0.4191797169491124	2.15
C 	7.0440143793327925	0.8898659583065581	2.15
C 	8.452817255199351	1.06783914996787	2.15
C 	9.003089387961337	2.3768848252235406	2.15
C 	10.411892263827896	2.5548580168848516	2.15
C 	10.962164396589882	3.8639036921405223	2.15
C 	12.37096727245644	4.041876883801835	2.15
C 	12.921239405218426	5.350922559057505	2.15
C 	14.330042281084985	5.528895750718817	2.15
C 	14.880314413846973	6.837941425974488	2.15
C 	16.28911728971353	7.015914617635799	2.15
C 	16.839389422475517	8.32496029289147	2.15
C 	18.248192298342072	8.50293348455278	2.15
C 	18.798464431104062	9.811979159808452	2.15
C 	20.207267306970618	9.989952351469764	2.15
C 	20.757539439732604	11.298998026725434	2.15
C 	22.166342315599163	11.47697121838675	2.15
C 	22.71661444836115	12.786016893642419	2.15
C 	24.12541732422771	12.963990085303728	2.15
C 	24.675689456989698	14.273035760559399	2.15
C 	26.084492332856254	14.451008952220711	2.15
C 	26.63476446561824	15.76005462747638	2.15
C 	28.0435673414848	15.938027819137696	2.15
C 	28.593839474246785	17.247073494393366	2.15
C 	30.002642350113344	17.425046686054674	2.15
C 	30.552914482875334	18.734092361310346	2.15
C 	31.96171735874189	18.912065552971658	2.15
C 	32.511989491503876	20.221111228227326	2.15
C 	33.92079236737044	20.39908441988864	2.15
C 	34.47106450013242	21.708130095144316	2.15
C 	35.87986737599898	21.88610328680562	2.15
C 	36.430139508760966	23.195148962061293	2.15
C 	37.83894238462752	23.373122153722605	2.15
C 	38.38921451738951	24.682167828978272	2.15
C 	39.79801739325607	24.860141020639585	2.15
C 	40.34828952601805	26.16918669589525	2.15
C 	41.75709240188461	26.34715988755657	2.15
C 	42.3073645346466	27.656205562812243	2.15
C 	43.71616741051316	27.834178754473555	2.15
C 	44.26643954327514	29.14322442972922	2.15
C 	45.675242419141696	29.32119762139053	2.15
C 	46.225514551903686	30.6302432966462	2.15
C 	47.63431742777025	30.808216488307515	2.15
C 	48.18458956053224	32.11726216356319	2.15
C 	49.593392436398794	32.2952353552245	2.15
C 	50.143664569160784	33.604281030480166	2.15
C 	51.55246744502734	33.78225422214148	2.15
C 	52.10273957778932	35.09129989739714	2.15
C 	53.51154245365588	35.269273089058466	2.15
C 	54.06181458641787	36.57831876431414	2.15
C 	55.47061746228443	36.75629195597545	2.15
C 	56.02088959504641	38.06533763123112	2.15
C 	57.42969247091297	38.243310822892425	2.15
C 	57.97996460367495	39.55235649814809	2.15
C 	59.388767479541514	39.73032968980941	2.15
C 	59.9390396123035	41.039375365065084	2.15
C 	61.347842488170066	41.2173485567264	2.15
C 	61.89811462093205	42.52639423198206	2.15
C 	63.30691749679861	42.704367423643376	2.15
C 	63.857189629560594	44.013413098899036	2.15
C 	65.26599250542715	44.191386290560345	2.15
C 	65.81626463818914	45.50043196581602	2.15
C 	67.2250675140557	45.678405157477336	2.15
C 	2.8176057517331166	0.3559463833226234	2.15
C 	4.2264086275996755	0.533919574983935	2.15
C 	4.7766807603616614	1.8429652502396057	2.15
C 	6.18548363622822	2.0209384419009173	2.15
C 	6.735755768990206	3.329984117156588	2.15
C 	8.144558644856765	3.5079573088178995	2.15
C 	8.694830777618751	4.81700298407357	2.15
C 	10.103633653485309	4.994976175734882	2.15
C 	10.653905786247295	6.304021850990551	2.15
C 	12.062708662113854	6.481995042651864	2.15
C 	12.612980794875842	7.791040717907536	2.15
C 	14.0217836707424	7.969013909568848	2.15
C 	14.572055803504385	9.278059584824517	2.15
C 	15.980858679370945	9.456032776485829	2.15
C 	16.531130812132933	10.765078451741498	2.15
C 	17.93993368799949	10.94305164340281	2.15
C 	18.490205820761474	12.25209731865848	2.15
C 	19.899008696628034	12.430070510319792	2.15
C 	20.44928082939002	13.739116185575462	2.15
C 	21.85808370525658	13.917089377236778	2.15
C 	22.408355838018565	15.226135052492447	2.15
C 	23.817158713885124	15.404108244153758	2.15
C 	24.36743084664711	16.71315391940943	2.15
C 	25.77623372251367	16.89112711107074	2.15
C 	26.326505855275656	18.20017278632641	2.15
C 	27.735308731142215	18.378145977987725	2.15
C 	28.2855808639042	19.687191653243392	2.15
C 	29.694383739770757	19.865164844904704	2.15
C 	30.244655872532743	21.174210520160376	2.15
C 	31.653458748399306	21.352183711821688	2.15
C 	32.20373088116129	22.661229387077356	2.15
C 	33.61253375702785	22.839202578738668	2.15
C 	34.16280588978984	24.14824825399434	2.15
C 	35.57160876565639	24.326221445655648	2.15
C 	36.12188089841838	25.63526712091132	2.15
C 	37.53068377428494	25.81324031257263	2.15
C 	38.08095590704693	27.122285987828302	2.15
C 	39.489758782913476	27.30025917948961	2.15
C 	40.040030915675466	28.609304854745282	2.15
C 	41.44883379154202	28.787278046406595	2.15
C 	41.99910592430401	30.096323721662266	2.15
C 	43.40790880017057	30.274296913323578	2.15
C 	43.95818093293256	31.583342588579253	2.15
C 	45.36698380879911	31.761315780240558	2.15
C 	45.9172559415611	33.07036145549623	2.15
C 	47.326058817427665	33.24833464715754	2.15
C 	47.87633095018965	34.557380322413216	2.15
C 	49.28513382605621	34.735353514074525	2.15
C 	49.83540595881819	36.0443991893302	2.15
C 	51.244208834684756	36.2223723809915	2.15
C 	51.79448096744674	37.531418056247176	2.15
C 	53.2032838433133	37.70939124790849	2.15
C 	53.75355597607528	39.01843692316416	2.15
C 	55.162358851941846	39.196410114825476	2.15
C 	55.71263098470383	40.50545579008114	2.15
C 	57.121433860570384	40.68342898174245	2.15
C 	57.67170599333237	41.99247465699813	2.15
C 	59.08050886919893	42.170447848659435	2.15
C 	59.63078100196092	43.4794935239151	2.15
C 	61.039583877827475	43.65746671557642	2.15
C 	61.589856010589465	44.9665123908321	2.15
C 	62.99865888645602	45.1444855824934	2.15
C 	63.54893101921801	46.45353125774908	2.15
C 	64.95773389508457	46.631504449410386	2.15
C 	1.9590750086285447	1.4870188669169822	2.15
C 	2.5093471413905313	2.796064542172653	2.15
C 	3.9181500172570893	2.9740377338339643	2.15
C 	4.468422150019076	4.283083409089635	2.15
C 	5.877225025885635	4.461056600750947	2.15
C 	6.427497158647621	5.770102276006617	2.15
C 	7.836300034514179	5.948075467667929	2.15
C 	8.386572167276166	7.2571211429236	2.15
C 	9.795375043142723	7.43509433458491	2.15
C 	10.34564717590471	8.744140009840581	2.15
C 	11.75445005177127	8.922113201501894	2.15
C 	12.304722184533256	10.231158876757563	2.15
C 	13.713525060399816	10.409132068418877	2.15
C 	14.263797193161802	11.718177743674545	2.15
C 	15.672600069028357	11.896150935335857	2.15
C 	16.222872201790345	13.20519661059153	2.15
C 	17.631675077656904	13.383169802252839	2.15
C 	18.18194721041889	14.692215477508508	2.15
C 	19.590750086285446	14.87018866916982	2.15
C 	20.141022219047436	16.179234344425492	2.15
C 	21.54982509491399	16.357207536086804	2.15
C 	22.10009722767598	17.66625321134248	2.15
C 	23.50890010354254	17.844226403003788	2.15
C 	24.059172236304526	19.153272078259455	2.15
C 	25.467975112171082	19.331245269920768	2.15
C 	26.01824724493307	20.64029094517644	2.15
C 	27.42705012079963	20.818264136837755	2.15
C 	27.977322253561617	22.127309812093426	2.15
C 	29.386125129428173	22.305283003754734	2.15
C 	29.93639726219016	23.614328679010402	2.15
C 	31.345200138056715	23.792301870671714	2.15
C 	31.895472270818704	25.10134754592739	2.15
C 	33.304275146685264	25.279320737588698	2.15
C 	33.85454727944725	26.588366412844373	2.15
C 	35.26335015531381	26.766339604505678	2.15
C 	35.8136222880758	28.07538527976135	2.15
C 	37.222425163942354	28.25335847142266	2.15
C 	37.772697296704344	29.562404146678336	2.15
C 	39.18150017257089	29.74037733833964	2.15
C 	39.73177230533288	31.049423013595312	2.15
C 	41.14057518119944	31.227396205256625	2.15
C 	41.69084731396143	32.5364418805123	2.15
C 	43.09965018982798	32.71441507217361	2.15
C 	43.64992232258997	34.02346074742928	2.15
C 	45.05872519845653	34.20143393909059	2.15
C 	45.60899733121852	35.51047961434626	2.15
C 	47.01780020708508	35.688452806007575	2.15
C 	47.56807233984706	36.99749848126324	2.15
C 	48.976875215713626	37.17547167292456	2.15
C 	49.52714734847561	38.48451734818023	2.15
C 	50.935950224342164	38.662490539841535	2.15
C 	51.486222357104154	39.97153621509721	2.15
C 	52.89502523297071	40.14950940675852	2.15
C 	53.4452973657327	41.45855508201419	2.15
C 	54.85410024159926	41.63652827367551	2.15
C 	55.404372374361245	42.94557394893118	2.15
C 	56.81317525022779	43.123547140592486	2.15
C 	57.36344738298978	44.43259281584815	2.15
C 	58.772250258856346	44.61056600750947	2.15
C 	59.32252239161833	45.91961168276514	2.15
C 	60.731325267484884	46.09758487442645	2.15
C 	3.609891406914504	5.414155892683993	2.15
C 	4.160163539676491	6.723201567939665	2.15
C 	5.568966415543049	6.901174759600976	2.15
C 	6.119238548305036	8.210220434856646	2.15
C 	7.528041424171594	8.388193626517957	2.15
C 	8.078313556933582	9.69723930177363	2.15
C 	9.487116432800137	9.875212493434939	2.15
C 	10.037388565562125	11.184258168690612	2.15
C 	11.446191441428684	11.362231360351924	2.15
C 	11.99646357419067	12.671277035607591	2.15
C 	13.405266450057228	12.849250227268906	2.15
C 	13.955538582819216	14.158295902524577	2.15
C 	15.364341458685773	14.336269094185887	2.15
C 	15.914613591447761	15.645314769441558	2.15
C 	17.323416467314317	15.823287961102867	2.15
C 	17.873688600076303	17.13233363635854	2.15
C 	19.282491475942862	17.31030682801985	2.15
C 	19.83276360870485	18.619352503275522	2.15
C 	21.241566484571408	18.797325694936834	2.15
C 	21.791838617333394	20.106371370192505	2.15
C 	23.200641493199953	20.284344561853814	2.15
C 	23.750913625961942	21.593390237109485	2.15
C 	25.1597165018285	21.771363428770798	2.15
C 	25.709988634590484	23.08040910402647	2.15
C 	27.118791510457044	23.25838229568778	2.15
C 	27.66906364321903	24.56742797094345	2.15
C 	29.07786651908559	24.745401162604765	2.15
C 	29.628138651847575	26.054446837860436	2.15
C 	31.03694152771413	26.232420029521748	2.15
C 	31.587213660476117	27.541465704777412	2.15
C 	32.99601653634268	27.71943889643873	2.15
C 	33.54628866910466	29.0284845716944	2.15
C 	34.955091544971225	29.206457763355708	2.15
C 	35.50536367773321	30.515503438611375	2.15
C 	36.91416655359977	30.693476630272695	2.15
C 	37.46443868636175	32.00252230552836	2.15
C 	38.87324156222831	32.180495497189675	2.15
C 	39.4235136949903	33.489541172445335	2.15
C 	40.832316570856854	33.66751436410666	2.15
C 	41.38258870361884	34.976560039362326	2.15
C 	42.7913915794854	35.15453323102364	2.15
C 	43.34166371224739	36.46357890627931	2.15
C 	44.750466588113945	36.64155209794062	2.15
C 	45.30073872087593	37.950597773196286	2.15
C 	46.7095415967425	38.1285709648576	2.15
C 	47.25981372950448	39.43761664011327	2.15
C 	48.66861660537104	39.61558983177459	2.15
C 	49.218888738133025	40.92463550703025	2.15
C 	50.62769161399958	41.10260869869157	2.15
C 	51.17796374676156	42.411654373947236	2.15
C 	52.586766622628126	42.58962756560855	2.15
C 	53.13703875539011	43.89867324086422	2.15
C 	54.54584163125667	44.076646432525536	2.15
C 	55.096113764018654	45.3856921077812	2.15
C 	56.50491663988521	45.56366529944252	2.15
C 	5.260707805200464	9.341292918451005	2.15
C 	5.8109799379624505	10.650338593706676	2.15
C 	7.219782813829008	10.828311785367987	2.15
C 	7.770054946590995	12.137357460623658	2.15
C 	9.178857822457553	12.315330652284969	2.15
C 	9.72912995521954	13.62437632754064	2.15
C 	11.137932831086099	13.802349519201952	2.15
C 	11.688204963848086	15.111395194457623	2.15
C 	13.097007839714644	15.289368386118936	2.15
C 	13.64727997247663	16.598414061374605	2.15
C 	15.056082848343188	16.776387253035914	2.15
C 	15.606354981105175	18.08543292829159	2.15
C 	17.015157856971733	18.2634061199529	2.15
C 	17.56542998973372	19.57245179520857	2.15
C 	18.974232865600275	19.750424986869877	2.15
C 	19.524504998362264	21.05947066212555	2.15
C 	20.933307874228824	21.23744385378686	2.15
C 	21.48358000699081	22.546489529042535	2.15
C 	22.89238288285737	22.724462720703848	2.15
C 	23.442655015619355	24.033508395959515	2.15
C 	24.85145789148591	24.211481587620824	2.15
C 	25.4017300242479	25.520527262876495	2.15
C 	26.810532900114456	25.69850045453781	2.15
C 	27.360805032876446	27.007546129793482	2.15
C 	28.769607908743	27.185519321454795	2.15
C 	29.319880041504987	28.49456499671046	2.15
C 	30.728682917371547	28.672538188371774	2.15
C 	31.278955050133536	29.981583863627446	2.15
C 	32.68775792600009	30.159557055288758	2.15
C 	33.23803005876208	31.46860273054443	2.15
C 	34.646832934628634	31.646575922205734	2.15
C 	35.19710506739062	32.95562159746141	2.15
C 	36.60590794325718	33.13359478912272	2.15
C 	37.15618007601917	34.44264046437839	2.15
C 	38.564982951885725	34.6206136560397	2.15
C 	39.115255084647714	35.92965933129537	2.15
C 	40.52405796051427	36.107632522956685	2.15
C 	41.07433009327626	37.41667819821235	2.15
C 	42.483132969142815	37.59465138987367	2.15
C 	43.033405101904805	38.90369706512934	2.15
C 	44.44220797777136	39.081670256790645	2.15
C 	44.99248011053334	40.39071593204632	2.15
C 	46.401282986399906	40.56868912370763	2.15
C 	46.951555119161895	41.8777347989633	2.15
C 	48.36035799502845	42.05570799062461	2.15
C 	48.91063012779044	43.364753665880286	2.15
C 	50.319433003657	43.542726857541595	2.15
C 	50.86970513641898	44.85177253279726	2.15
C 	52.278508012285535	45.02974572445858	2.15
C 	52.828780145047524	46.33879139971425	2.15
C 	54.23758302091409	46.51676459137556	2.15
C 	8.870599212114968	14.755448811134999	2.15
C 	9.420871344876954	16.064494486390668	2.15
C 	10.829674220743513	16.24246767805198	2.15
C 	11.379946353505499	17.55151335330765	2.15
C 	12.788749229372058	17.729486544968964	2.15
C 	13.339021362134044	19.038532220224635	2.15
C 	14.747824238000602	19.216505411885947	2.15
C 	15.298096370762588	20.525551087141615	2.15
C 	16.706899246629145	20.703524278802927	2.15
C 	17.25717137939113	22.0125699540586	2.15
C 	18.66597425525769	22.19054314571991	2.15
C 	19.216246388019677	23.49958882097558	2.15
C 	20.625049263886236	23.677562012636894	2.15
C 	21.175321396648222	24.986607687892565	2.15
C 	22.584124272514785	25.164580879553874	2.15
C 	23.13439640527677	26.473626554809545	2.15
C 	24.543199281143327	26.651599746470858	2.15
C 	25.093471413905316	27.96064542172653	2.15
C 	26.502274289771872	28.13861861338784	2.15
C 	27.05254642253386	29.447664288643512	2.15
C 	28.461349298400417	29.62563748030482	2.15
C 	29.011621431162403	30.934683155560492	2.15
C 	30.420424307028963	31.112656347221805	2.15
C 	30.97069643979095	32.421702022477476	2.15
C 	32.37949931565751	32.59967521413879	2.15
C 	32.929771448419494	33.90872088939446	2.15
C 	34.33857432428605	34.08669408105577	2.15
C 	34.88884645704804	35.395739756311436	2.15
C 	36.297649332914595	35.57371294797275	2.15
C 	36.847921465676585	36.882758623228426	2.15
C 	38.25672434154314	37.06073181488973	2.15
C 	38.80699647430513	38.3697774901454	2.15
C 	40.215799350171686	38.54775068180671	2.15
C 	40.766071482933675	39.856796357062386	2.15
C 	42.17487435880023	40.0347695487237	2.15
C 	42.72514649156222	41.34381522397937	2.15
C 	44.13394936742878	41.52178841564068	2.15
C 	44.68422150019076	42.83083409089635	2.15
C 	46.09302437605732	43.00880728255766	2.15
C 	46.64329650881931	44.317852957813336	2.15
C 	48.05209938468587	44.495826149474645	2.15
C 	48.60237151744786	45.80487182473032	2.15
C 	50.01117439331441	45.98284501639162	2.15
C 	12.480490619029473	20.169604703818994	2.15
C 	13.03076275179146	21.478650379074665	2.15
C 	14.439565627658016	21.656623570735974	2.15
C 	14.989837760420002	22.965669245991645	2.15
C 	16.39864063628656	23.143642437652957	2.15
C 	16.948912769048547	24.45268811290863	2.15
C 	18.357715644915107	24.630661304569937	2.15
C 	18.907987777677093	25.93970697982561	2.15
C 	20.316790653543652	26.117680171486924	2.15
C 	20.867062786305638	27.426725846742592	2.15
C 	22.275865662172198	27.604699038403904	2.15
C 	22.826137794934183	28.913744713659575	2.15
C 	24.234940670800743	29.09171790532088	2.15
C 	24.78521280356273	30.400763580576555	2.15
C 	26.194015679429288	30.57873677223787	2.15
C 	26.744287812191274	31.88778244749354	2.15
C 	28.153090688057834	32.06575563915485	2.15
C 	28.70336282081982	33.374801314410526	2.15
C 	30.112165696686375	33.55277450607183	2.15
C 	30.66243782944836	34.8618201813275	2.15
C 	32.07124070531492	35.03979337298882	2.15
C 	32.62151283807691	36.348839048244486	2.15
C 	34.030315713943466	36.5268122399058	2.15
C 	34.58058784670545	37.83585791516146	2.15
C 	35.98939072257201	38.01383110682278	2.15
C 	36.539662855333994	39.322876782078446	2.15
C 	37.94846573120055	39.500849973739754	2.15
C 	38.49873786396254	40.80989564899543	2.15
C 	39.9075407398291	40.987868840656745	2.15
C 	40.457812872591084	42.29691451591241	2.15
C 	41.86661574845765	42.47488770757372	2.15
C 	42.41688788121963	43.783933382829396	2.15
C 	43.825690757086186	43.961906574490705	2.15
C 	44.375962889848175	45.27095224974637	2.15
C 	45.78476576571474	45.448925441407695	2.15
C 	14.13130701731543	24.096741729586004	2.15
C 	14.681579150077418	25.405787404841675	2.15
C 	16.090382025943974	25.583760596502984	2.15
C 	16.64065415870596	26.892806271758655	2.15
C 	18.04945703457252	27.070779463419967	2.15
C 	18.59972916733451	28.37982513867564	2.15
C 	20.008532043201065	28.55779833033695	2.15
C 	20.558804175963054	29.866844005592622	2.15
C 	21.96760705182961	30.044817197253927	2.15
C 	22.5178791845916	31.353862872509602	2.15
C 	23.926682060458155	31.531836064170914	2.15
C 	24.476954193220145	32.840881739426585	2.15
C 	25.885757069086704	33.0188549310879	2.15
C 	26.43602920184869	34.32790060634357	2.15
C 	27.844832077715246	34.50587379800488	2.15
C 	28.395104210477232	35.814919473260545	2.15
C 	29.80390708634379	35.99289266492186	2.15
C 	30.354179219105777	37.301938340177536	2.15
C 	31.762982094972337	37.479911531838844	2.15
C 	32.313254227734326	38.78895720709452	2.15
C 	33.72205710360088	38.96693039875582	2.15
C 	34.272329236362864	40.275976074011496	2.15
C 	35.68113211222943	40.45394926567281	2.15
C 	36.23140424499142	41.76299494092848	2.15
C 	37.640207120857966	41.94096813258979	2.15
C 	38.190479253619955	43.250013807845455	2.15
C 	39.59928212948651	43.42798699950677	2.15
C 	40.1495542622485	44.737032674762446	2.15
C 	41.55835713811506	44.915005866423755	2.15
C 	42.108629270877046	46.22405154167943	2.15
C 	43.5174321467436	46.40202473334073	2.15
C 	17.741198424229935	29.510897622269997	2.15
C 	18.29147055699192	30.819943297525672	2.15
C 	19.70027343285848	30.997916489186984	2.15
C 	20.250545565620467	32.30696216444265	2.15
C 	21.659348441487026	32.48493535610396	2.15
C 	22.209620574249012	33.793981031359635	2.15
C 	23.61842345011557	33.971954223020944	2.15
C 	24.168695582877557	35.28099989827662	2.15
C 	25.577498458744117	35.45897308993793	2.15
C 	26.1277705915061	36.768018765193595	2.15
C 	27.53657346737266	36.94599195685491	2.15
C 	28.086845600134648	38.25503763211058	2.15
C 	29.495648476001204	38.433010823771895	2.15
C 	30.045920608763193	39.74205649902756	2.15
C 	31.45472348462975	39.92002969068888	2.15
C 	32.004995617391735	41.229075365944546	2.15
C 	33.41379849325829	41.407048557605854	2.15
C 	33.96407062602028	42.71609423286152	2.15
C 	35.372873501886836	42.89406742452284	2.15
C 	35.923145634648826	44.20311309977851	2.15
C 	37.33194851051538	44.38108629143982	2.15
C 	37.88222064327737	45.69013196669549	2.15
C 	39.29102351914393	45.868105158356805	2.15
C 	19.392014822515897	33.43803464803702	2.15
C 	19.942286955277883	34.74708032329268	2.15
C 	21.351089831144442	34.925053514953994	2.15
C 	21.901361963906428	36.23409919020966	2.15
C 	23.310164839772984	36.41207238187097	2.15
C 	23.86043697253497	37.721118057126645	2.15
C 	25.269239848401533	37.89909124878796	2.15
C 	25.81951198116352	39.20813692404363	2.15
C 	27.228314857030075	39.38611011570494	2.15
C 	27.77858698979206	40.69515579096061	2.15
C 	29.18738986565862	40.87312898262192	2.15
C 	29.737661998420606	42.18217465787759	2.15
C 	31.146464874287165	42.36014784953891	2.15
C 	31.69673700704915	43.66919352479457	2.15
C 	33.10553988291571	43.84716671645589	2.15
C 	33.6558120156777	45.156212391711556	2.15
C 	35.06461489154425	45.334185583372864	2.15
C 	35.61488702430624	46.64323125862854	2.15
C 	37.0236899001728	46.82120445028985	2.15
C 	23.0019062294304	38.852190540721004	2.15
C 	23.552178362192386	40.16123621597667	2.15
C 	24.960981238058945	40.33920940763799	2.15
C 	25.51125337082093	41.64825508289366	2.15
C 	26.920056246687487	41.826228274554964	2.15
C 	27.470328379449477	43.13527394981064	2.15
C 	28.879131255316032	43.31324714147195	2.15
C 	29.429403388078022	44.62229281672762	2.15
C 	30.83820626394458	44.80026600838893	2.15
C 	31.388478396706567	46.109311683644606	2.15
C 	32.79728127257312	46.287284875305915	2.15
C 	24.652722627716358	42.779327566488014	2.15
C 	25.202994760478344	44.08837324174368	2.15
C 	26.611797636344903	44.266346433405	2.15
C 	27.16206976910689	45.575392108660665	2.15
C 	28.57087264497345	45.75336530032198	2.15
H 	51.769559505753065	-0.609104736718669	2.15
H 	54.25976740605241	-0.2945183204722557	2.15
H 	56.218842414680935	1.1925005464447183	2.15
H 	57.19150653667572	3.506377056931856	2.15
H 	47.54315087815339	-1.1430243117025987	2.15
H 	50.03335877845271	-0.8284378954561997	2.15
H 	57.8696588129669	5.119637572211737	2.15
H 	59.828733821595435	6.606656439128717	2.15
H 	60.801397943590224	8.920532949615861	2.15
H 	43.316742250553695	-1.676943886686529	2.15
H 	45.80695015085304	-1.3623574704401331	2.15
H 	61.4795502198814	10.533793464895732	2.15
H 	62.45221434187618	12.847669975382875	2.15
H 	41.04940863158258	-0.723844594753491	2.15
H 	63.13036661816737	14.460930490662752	2.15
H 	65.0894416267959	15.947949357579724	2.15
H 	66.06210574879069	18.261825868066868	2.15
H 	36.823000003982905	-1.2577641697374184	2.15
H 	39.31320790428222	-0.9431777534910223	2.15
H 	66.74025802508187	19.87508638334673	2.15
H 	67.71292214707665	22.188962893833875	2.15
H 	32.59659137638323	-1.7916837447213514	2.15
H 	35.086799276682555	-1.4770973284749538	2.15
H 	68.39107442336781	23.80222340911373	2.15
H 	70.35014943199637	25.28924227603074	2.15
H 	71.32281355399115	27.60311878651788	2.15
H 	30.329257757412087	-0.838584452788305	2.15
H 	72.00096583028234	29.216379301797733	2.15
H 	72.97362995227711	31.53025581228488	2.15
H 	26.102849129812427	-1.372504027772248	2.15
H 	28.593057030111748	-1.0579176115258444	2.15
H 	73.65178222856827	33.14351632756474	2.15
H 	75.61085723719684	34.63053519448174	2.15
H 	76.58352135919162	36.94441170496889	2.15
H 	21.876440502212745	-1.906423602756183	2.15
H 	24.366648402512084	-1.5918371865097742	2.15
H 	77.26167363548278	38.55767222024874	2.15
H 	78.23433775747758	40.871548730735896	2.15
H 	19.60910688324161	-0.9533243108231313	2.15
H 	78.91249003376875	42.48480924601575	2.15
H 	79.88515415576353	44.798685756502906	2.15
H 	15.38269825564194	-1.4872438858070658	2.15
H 	17.872906155941276	-1.1726574695606615	2.15
H 	78.36761037745897	46.79797585074362	2.15
H 	13.115364636670808	-0.5341445938740201	2.15
H 	73.61006885818853	47.43648872643029	2.15
H 	76.10027675848782	47.75107514267668	2.15
H 	8.88895600907113	-1.068064168857954	2.15
H 	11.379163909370467	-0.7534777526115528	2.15
H 	69.38366023058883	46.902569151446336	2.15
H 	71.87386813088817	47.217155567692735	2.15
H 	4.6625473814714535	-1.601983743841889	2.15
H 	7.152755281770796	-1.2873973275954862	2.15
H 	67.64745950328847	46.68323599270881	2.15
H 	2.395213762500324	-0.648884451908842	2.15
H 	62.88991798401803	47.32174886839545	2.15
H 	65.38012588431737	47.63633528464185	2.15
H 	0.8776699841957638	1.3504056423318904	2.15
H 	1.850334106190543	3.6642821528190272	2.15
H 	58.66350935641834	46.78782929341151	2.15
H 	61.15371725671767	47.10241570965792	2.15
H 	2.528486382481723	5.277542668098902	2.15
H 	3.5011505044765023	7.5914191785860385	2.15
H 	56.927308629118	46.568496134673985	2.15
H 	4.179302780767683	9.204679693865913	2.15
H 	5.151966902762465	11.518556204353052	2.15
H 	7.111041911391006	13.005575071270032	2.15
H 	52.16976710984754	47.20700901036063	2.15
H 	54.65997501014688	47.52159542660703	2.15
H 	7.789194187682186	14.618835586549906	2.15
H 	8.761858309676965	16.93271209703704	2.15
H 	10.72093331830551	18.419730963954024	2.15
H 	47.943358482247874	46.673089435376696	2.15
H 	50.43356638254721	46.98767585162309	2.15
H 	11.399085594596691	20.0329914792339	2.15
H 	12.371749716591477	22.346867989721044	2.15
H 	46.20715775494753	46.45375627663916	2.15
H 	13.04990199288265	23.96012850500091	2.15
H 	14.022566114877435	26.274005015488054	2.15
H 	15.981641123505971	27.761023882405027	2.15
H 	41.44961623567706	47.092269152325805	2.15
H 	43.9398241359764	47.4068555685722	2.15
H 	16.659793399797156	29.374284397684903	2.15
H 	17.63245752179193	31.688160908172044	2.15
H 	39.71341550837671	46.87293599358827	2.15
H 	18.310609798083114	33.30142142345194	2.15
H 	19.283273920077892	35.61529793393905	2.15
H 	21.242348928706438	37.10231680085603	2.15
H 	34.95587398910626	47.511448869274915	2.15
H 	37.4460818894056	47.826035285521314	2.15
H 	21.92050120499762	38.715577316135914	2.15
H 	22.893165326992396	41.02945382662304	2.15
H 	30.729465361506584	46.97752929429098	2.15
H 	33.21967326180591	47.29211571053738	2.15
H 	23.571317603283575	42.64271434190292	2.15
H 	24.543981725278353	44.95659085239005	2.15
H 	26.5030567339069	46.443609719307034	2.15
H 	28.99326463420624	46.75819613555345	2.15
