2302

C 	0.0	0.0	0.0
C 	1.2297560733739028	0.7099999999999999	0.0
C 	2.4595121467478056	-2.3647750424515833e-16	0.0
C 	3.689268220121708	0.7099999999999995	0.0
C 	4.919024293495611	-4.729550084903167e-16	0.0
C 	6.148780366869514	0.7099999999999993	0.0
C 	7.378536440243416	-7.09432512735475e-16	0.0
C 	8.60829251361732	0.7099999999999991	0.0
C 	9.838048586991222	-9.459100169806333e-16	0.0
C 	11.067804660365125	0.7099999999999989	0.0
C 	12.297560733739026	-1.1823875212257916e-15	0.0
C 	13.527316807112928	0.7099999999999986	0.0
C 	14.757072880486833	-1.41886502547095e-15	0.0
C 	15.986828953860735	0.7099999999999984	0.0
C 	17.21658502723464	-7.671641100159832e-16	0.0
C 	18.44634110060854	0.7099999999999982	0.0
C 	19.676097173982445	-1.8918200339612667e-15	0.0
C 	20.905853247356347	0.7099999999999989	0.0
C 	22.135609320730246	-2.128297538206425e-15	0.0
C 	23.36536539410415	0.7099999999999967	0.0
C 	24.59512146747805	-2.364775042451583e-15	0.0
C 	25.824877540851954	0.7099999999999983	0.0
C 	27.05463361422586	-8.248957072964913e-16	0.0
C 	28.284389687599763	0.7099999999999999	0.0
C 	29.514145760973665	-2.8377300509419e-15	0.0
C 	30.743901834347565	0.7099999999999961	0.0
C 	31.97365790772147	-3.0742075551870582e-15	0.0
C 	33.20341398109537	0.7099999999999976	0.0
C 	34.43317005446928	-1.5343282200319664e-15	0.0
C 	35.66292612784318	0.7099999999999992	0.0
C 	36.892682201217085	-1.7708057242771246e-15	0.0
C 	38.122438274590984	0.7099999999999972	0.0
C 	39.35219434796489	-3.783640067922533e-15	0.0
C 	40.58195042133879	0.7099999999999969	0.0
C 	41.811706494712695	-4.67403893367191e-16	0.0
C 	43.0414625680866	0.7100000000000002	0.0
C 	44.27121864146049	-4.25659507641285e-15	0.0
C 	45.5009747148344	0.7099999999999964	0.0
C 	46.730730788208305	-9.403589018575075e-16	0.0
C 	47.96048686158221	0.7099999999999997	0.0
C 	49.1902429349561	-4.729550084903166e-15	0.0
C 	50.41999900833001	0.709999999999996	0.0
C 	51.64975508170391	-1.413313910347824e-15	0.0
C 	52.879511155077815	0.7099999999999993	0.0
C 	54.10926722845172	-1.6497914145929826e-15	0.0
C 	55.33902330182562	0.7099999999999991	0.0
C 	56.56877937519952	-5.438982597638641e-15	0.0
C 	57.798535448573425	0.7099999999999953	0.0
C 	59.02829152194733	-5.6754601018838e-15	0.0
C 	60.25804759532124	0.709999999999995	0.0
C 	1.2297560733739028	2.1299999999999994	0.0
C 	2.4595121467478056	2.8399999999999994	0.0
C 	3.689268220121708	2.1299999999999994	0.0
C 	4.919024293495611	2.8399999999999994	0.0
C 	6.148780366869514	2.129999999999999	0.0
C 	7.378536440243416	2.839999999999999	0.0
C 	8.60829251361732	2.1299999999999986	0.0
C 	9.838048586991222	2.8399999999999985	0.0
C 	11.067804660365123	2.129999999999998	0.0
C 	12.297560733739028	2.839999999999999	0.0
C 	13.527316807112928	2.1299999999999977	0.0
C 	14.757072880486833	2.839999999999998	0.0
C 	15.986828953860735	2.129999999999998	0.0
C 	17.216585027234636	2.839999999999997	0.0
C 	18.446341100608542	2.129999999999998	0.0
C 	19.676097173982445	2.8399999999999985	0.0
C 	20.905853247356344	2.1299999999999977	0.0
C 	22.13560932073025	2.8399999999999985	0.0
C 	23.36536539410415	2.129999999999997	0.0
C 	24.595121467478055	2.839999999999997	0.0
C 	25.824877540851954	2.1299999999999963	0.0
C 	27.05463361422586	2.839999999999997	0.0
C 	28.284389687599763	2.129999999999998	0.0
C 	29.514145760973665	2.8399999999999985	0.0
C 	30.743901834347568	2.129999999999996	0.0
C 	31.97365790772147	2.8399999999999967	0.0
C 	33.20341398109537	2.129999999999996	0.0
C 	34.43317005446928	2.8399999999999963	0.0
C 	35.66292612784318	2.1299999999999972	0.0
C 	36.89268220121708	2.8399999999999963	0.0
C 	38.122438274590984	2.129999999999997	0.0
C 	39.35219434796489	2.8399999999999976	0.0
C 	40.58195042133879	2.1299999999999986	0.0
C 	41.81170649471269	2.839999999999996	0.0
C 	43.0414625680866	2.129999999999998	0.0
C 	44.2712186414605	2.8399999999999954	0.0
C 	45.5009747148344	2.129999999999998	0.0
C 	46.7307307882083	2.8399999999999954	0.0
C 	47.96048686158221	2.1299999999999977	0.0
C 	49.19024293495611	2.839999999999995	0.0
C 	50.41999900833001	2.1299999999999977	0.0
C 	51.64975508170391	2.8399999999999945	0.0
C 	52.879511155077815	2.1299999999999972	0.0
C 	54.10926722845171	2.8399999999999945	0.0
C 	55.33902330182563	2.130000000000001	0.0
C 	56.56877937519952	2.8399999999999976	0.0
C 	57.798535448573425	2.129999999999997	0.0
C 	59.028291521947324	2.839999999999994	0.0
C 	60.25804759532124	2.129999999999997	0.0
C 	61.487803668695136	2.8399999999999936	0.0
C 	2.4595121467478056	4.259999999999999	0.0
C 	3.689268220121708	4.969999999999999	0.0
C 	4.919024293495611	4.259999999999999	0.0
C 	6.148780366869514	4.969999999999999	0.0
C 	7.378536440243416	4.259999999999999	0.0
C 	8.60829251361732	4.969999999999999	0.0
C 	9.83804858699122	4.259999999999998	0.0
C 	11.067804660365125	4.969999999999999	0.0
C 	12.297560733739028	4.259999999999998	0.0
C 	13.52731680711293	4.969999999999998	0.0
C 	14.757072880486831	4.259999999999998	0.0
C 	15.986828953860735	4.969999999999998	0.0
C 	17.21658502723464	4.259999999999997	0.0
C 	18.446341100608542	4.969999999999998	0.0
C 	19.676097173982445	4.259999999999999	0.0
C 	20.905853247356347	4.969999999999997	0.0
C 	22.135609320730246	4.259999999999996	0.0
C 	23.365365394104153	4.969999999999997	0.0
C 	24.595121467478055	4.259999999999998	0.0
C 	25.824877540851958	4.969999999999997	0.0
C 	27.054633614225857	4.259999999999995	0.0
C 	28.28438968759976	4.969999999999996	0.0
C 	29.514145760973665	4.259999999999997	0.0
C 	30.743901834347568	4.969999999999997	0.0
C 	31.97365790772147	4.259999999999996	0.0
C 	33.20341398109537	4.969999999999995	0.0
C 	34.43317005446927	4.2599999999999945	0.0
C 	35.66292612784318	4.969999999999995	0.0
C 	36.892682201217085	4.259999999999996	0.0
C 	38.122438274590984	4.969999999999997	0.0
C 	39.35219434796489	4.259999999999997	0.0
C 	40.58195042133879	4.969999999999994	0.0
C 	41.81170649471269	4.259999999999995	0.0
C 	43.041462568086594	4.969999999999996	0.0
C 	44.2712186414605	4.259999999999997	0.0
C 	45.500974714834406	4.969999999999998	0.0
C 	46.7307307882083	4.259999999999994	0.0
C 	47.960486861582204	4.9699999999999935	0.0
C 	49.19024293495611	4.259999999999996	0.0
C 	50.41999900833001	4.969999999999997	0.0
C 	51.64975508170391	4.259999999999993	0.0
C 	52.879511155077815	4.9699999999999935	0.0
C 	54.10926722845171	4.259999999999996	0.0
C 	55.33902330182562	4.969999999999997	0.0
C 	56.568779375199526	4.259999999999996	0.0
C 	57.798535448573425	4.969999999999996	0.0
C 	59.028291521947324	4.259999999999995	0.0
C 	60.25804759532123	4.969999999999996	0.0
C 	61.487803668695136	4.259999999999992	0.0
C 	62.717559742069035	4.969999999999993	0.0
C 	3.6892682201217086	6.389999999999999	0.0
C 	4.919024293495611	7.099999999999999	0.0
C 	6.148780366869514	6.389999999999999	0.0
C 	7.378536440243416	7.099999999999999	0.0
C 	8.608292513617318	6.389999999999998	0.0
C 	9.838048586991222	7.099999999999999	0.0
C 	11.067804660365125	6.389999999999998	0.0
C 	12.297560733739028	7.099999999999998	0.0
C 	13.52731680711293	6.389999999999999	0.0
C 	14.757072880486833	7.099999999999998	0.0
C 	15.986828953860735	6.389999999999998	0.0
C 	17.216585027234636	7.099999999999997	0.0
C 	18.44634110060854	6.389999999999997	0.0
C 	19.676097173982445	7.099999999999998	0.0
C 	20.905853247356347	6.389999999999998	0.0
C 	22.13560932073025	7.099999999999997	0.0
C 	23.365365394104153	6.389999999999998	0.0
C 	24.59512146747805	7.099999999999997	0.0
C 	25.824877540851958	6.389999999999998	0.0
C 	27.054633614225857	7.099999999999997	0.0
C 	28.28438968759976	6.389999999999999	0.0
C 	29.514145760973662	7.099999999999997	0.0
C 	30.743901834347568	6.389999999999999	0.0
C 	31.97365790772147	7.099999999999998	0.0
C 	33.20341398109537	6.389999999999995	0.0
C 	34.43317005446928	7.099999999999994	0.0
C 	35.66292612784318	6.389999999999995	0.0
C 	36.892682201217085	7.099999999999996	0.0
C 	38.122438274590984	6.389999999999996	0.0
C 	39.35219434796489	7.099999999999997	0.0
C 	40.58195042133879	6.389999999999994	0.0
C 	41.811706494712695	7.099999999999995	0.0
C 	43.041462568086594	6.389999999999996	0.0
C 	44.2712186414605	7.099999999999997	0.0
C 	45.500974714834406	6.389999999999998	0.0
C 	46.730730788208305	7.099999999999998	0.0
C 	47.960486861582204	6.389999999999995	0.0
C 	49.19024293495611	7.099999999999996	0.0
C 	50.41999900833001	6.389999999999995	0.0
C 	51.649755081703915	7.099999999999996	0.0
C 	52.879511155077815	6.389999999999995	0.0
C 	54.10926722845172	7.099999999999996	0.0
C 	55.33902330182562	6.389999999999995	0.0
C 	56.568779375199526	7.099999999999995	0.0
C 	57.79853544857343	6.389999999999998	0.0
C 	59.02829152194733	7.099999999999999	0.0
C 	60.25804759532123	6.389999999999994	0.0
C 	61.487803668695136	7.099999999999995	0.0
C 	62.71755974206904	6.389999999999994	0.0
C 	63.94731581544294	7.099999999999995	0.0
C 	4.919024293495611	8.519999999999998	0.0
C 	6.148780366869514	9.229999999999999	0.0
C 	7.378536440243416	8.519999999999998	0.0
C 	8.60829251361732	9.229999999999999	0.0
C 	9.838048586991222	8.519999999999998	0.0
C 	11.067804660365125	9.229999999999999	0.0
C 	12.297560733739028	8.519999999999998	0.0
C 	13.52731680711293	9.229999999999997	0.0
C 	14.757072880486833	8.519999999999998	0.0
C 	15.986828953860737	9.229999999999999	0.0
C 	17.216585027234636	8.519999999999998	0.0
C 	18.44634110060854	9.229999999999997	0.0
C 	19.67609717398244	8.519999999999996	0.0
C 	20.905853247356347	9.229999999999997	0.0
C 	22.13560932073025	8.519999999999998	0.0
C 	23.365365394104153	9.229999999999999	0.0
C 	24.595121467478055	8.519999999999996	0.0
C 	25.824877540851954	9.229999999999995	0.0
C 	27.05463361422586	8.519999999999996	0.0
C 	28.284389687599763	9.229999999999997	0.0
C 	29.514145760973662	8.519999999999996	0.0
C 	30.743901834347565	9.229999999999995	0.0
C 	31.97365790772147	8.52	0.0
C 	33.20341398109537	9.229999999999997	0.0
C 	34.43317005446928	8.519999999999994	0.0
C 	35.66292612784318	9.229999999999995	0.0
C 	36.89268220121708	8.519999999999992	0.0
C 	38.122438274590984	9.229999999999993	0.0
C 	39.35219434796489	8.519999999999998	0.0
C 	40.58195042133879	9.229999999999995	0.0
C 	41.811706494712695	8.519999999999994	0.0
C 	43.0414625680866	9.229999999999995	0.0
C 	44.27121864146049	8.519999999999992	0.0
C 	45.5009747148344	9.229999999999993	0.0
C 	46.730730788208305	8.519999999999998	0.0
C 	47.960486861582204	9.229999999999995	0.0
C 	49.19024293495611	8.519999999999996	0.0
C 	50.41999900833001	9.229999999999993	0.0
C 	51.64975508170391	8.519999999999994	0.0
C 	52.879511155077815	9.229999999999995	0.0
C 	54.10926722845171	8.51999999999999	0.0
C 	55.33902330182562	9.229999999999992	0.0
C 	56.568779375199526	8.519999999999998	0.0
C 	57.798535448573425	9.229999999999995	0.0
C 	59.02829152194733	8.519999999999994	0.0
C 	60.25804759532123	9.229999999999993	0.0
C 	61.48780366869513	8.519999999999992	0.0
C 	62.717559742069035	9.229999999999993	0.0
C 	63.94731581544294	8.519999999999992	0.0
C 	65.17707188881684	9.22999999999999	0.0
C 	6.148780366869514	10.649999999999997	0.0
C 	7.378536440243416	11.359999999999998	0.0
C 	8.608292513617318	10.649999999999997	0.0
C 	9.838048586991222	11.359999999999998	0.0
C 	11.067804660365125	10.649999999999997	0.0
C 	12.297560733739028	11.359999999999996	0.0
C 	13.52731680711293	10.649999999999997	0.0
C 	14.757072880486831	11.359999999999996	0.0
C 	15.986828953860735	10.649999999999997	0.0
C 	17.216585027234636	11.359999999999996	0.0
C 	18.44634110060854	10.649999999999997	0.0
C 	19.676097173982445	11.359999999999998	0.0
C 	20.905853247356347	10.649999999999997	0.0
C 	22.13560932073025	11.359999999999996	0.0
C 	23.365365394104153	10.649999999999997	0.0
C 	24.595121467478055	11.359999999999996	0.0
C 	25.824877540851958	10.649999999999997	0.0
C 	27.05463361422586	11.359999999999996	0.0
C 	28.284389687599763	10.649999999999995	0.0
C 	29.514145760973662	11.359999999999994	0.0
C 	30.743901834347565	10.649999999999995	0.0
C 	31.97365790772147	11.359999999999996	0.0
C 	33.20341398109537	10.649999999999997	0.0
C 	34.43317005446928	11.359999999999998	0.0
C 	35.66292612784318	10.649999999999991	0.0
C 	36.89268220121708	11.359999999999992	0.0
C 	38.122438274590984	10.649999999999993	0.0
C 	39.35219434796489	11.359999999999994	0.0
C 	40.58195042133879	10.649999999999993	0.0
C 	41.811706494712695	11.359999999999994	0.0
C 	43.041462568086594	10.649999999999991	0.0
C 	44.2712186414605	11.359999999999992	0.0
C 	45.5009747148344	10.649999999999993	0.0
C 	46.730730788208305	11.359999999999994	0.0
C 	47.960486861582204	10.649999999999995	0.0
C 	49.19024293495611	11.359999999999996	0.0
C 	50.41999900833001	10.649999999999993	0.0
C 	51.649755081703915	11.359999999999994	0.0
C 	52.879511155077815	10.649999999999995	0.0
C 	54.10926722845172	11.359999999999996	0.0
C 	55.33902330182562	10.649999999999993	0.0
C 	56.568779375199526	11.359999999999994	0.0
C 	57.798535448573425	10.649999999999993	0.0
C 	59.02829152194733	11.359999999999992	0.0
C 	60.25804759532124	10.649999999999995	0.0
C 	61.487803668695136	11.359999999999996	0.0
C 	62.717559742069035	10.649999999999991	0.0
C 	63.94731581544294	11.359999999999992	0.0
C 	65.17707188881684	10.649999999999991	0.0
C 	66.40682796219075	11.359999999999992	0.0
C 	7.378536440243417	12.779999999999998	0.0
C 	8.60829251361732	13.489999999999998	0.0
C 	9.838048586991222	12.78	0.0
C 	11.067804660365125	13.489999999999997	0.0
C 	12.297560733739028	12.779999999999998	0.0
C 	13.527316807112932	13.489999999999998	0.0
C 	14.757072880486833	12.779999999999998	0.0
C 	15.986828953860737	13.489999999999997	0.0
C 	17.216585027234636	12.779999999999996	0.0
C 	18.446341100608542	13.489999999999997	0.0
C 	19.676097173982445	12.779999999999998	0.0
C 	20.905853247356347	13.489999999999997	0.0
C 	22.13560932073025	12.779999999999996	0.0
C 	23.36536539410415	13.489999999999995	0.0
C 	24.595121467478055	12.779999999999996	0.0
C 	25.824877540851958	13.489999999999997	0.0
C 	27.05463361422586	12.779999999999998	0.0
C 	28.284389687599763	13.489999999999997	0.0
C 	29.514145760973662	12.779999999999996	0.0
C 	30.743901834347568	13.489999999999997	0.0
C 	31.97365790772147	12.779999999999996	0.0
C 	33.20341398109537	13.489999999999997	0.0
C 	34.43317005446928	12.779999999999998	0.0
C 	35.66292612784318	13.489999999999995	0.0
C 	36.89268220121708	12.779999999999994	0.0
C 	38.122438274590984	13.489999999999995	0.0
C 	39.35219434796489	12.779999999999996	0.0
C 	40.581950421338796	13.489999999999997	0.0
C 	41.811706494712695	12.779999999999996	0.0
C 	43.041462568086594	13.489999999999993	0.0
C 	44.2712186414605	12.779999999999994	0.0
C 	45.5009747148344	13.489999999999995	0.0
C 	46.730730788208305	12.779999999999996	0.0
C 	47.96048686158221	13.489999999999997	0.0
C 	49.19024293495611	12.779999999999998	0.0
C 	50.41999900833001	13.489999999999995	0.0
C 	51.649755081703915	12.779999999999996	0.0
C 	52.879511155077815	13.489999999999993	0.0
C 	54.10926722845172	12.779999999999998	0.0
C 	55.33902330182563	13.489999999999998	0.0
C 	56.56877937519952	12.779999999999998	0.0
C 	57.798535448573425	13.489999999999997	0.0
C 	59.02829152194733	12.779999999999994	0.0
C 	60.25804759532123	13.489999999999991	0.0
C 	61.487803668695136	12.779999999999998	0.0
C 	62.71755974206904	13.489999999999998	0.0
C 	63.94731581544294	12.779999999999994	0.0
C 	65.17707188881684	13.489999999999995	0.0
C 	66.40682796219075	12.77999999999999	0.0
C 	67.63658403556465	13.489999999999988	0.0
C 	8.60829251361732	14.909999999999998	0.0
C 	9.838048586991222	15.619999999999996	0.0
C 	11.067804660365125	14.909999999999997	0.0
C 	12.297560733739026	15.619999999999996	0.0
C 	13.527316807112934	14.909999999999998	0.0
C 	14.757072880486831	15.619999999999996	0.0
C 	15.986828953860737	14.909999999999998	0.0
C 	17.21658502723464	15.619999999999997	0.0
C 	18.446341100608542	14.909999999999997	0.0
C 	19.676097173982445	15.619999999999996	0.0
C 	20.905853247356347	14.909999999999997	0.0
C 	22.135609320730246	15.619999999999996	0.0
C 	23.365365394104153	14.909999999999995	0.0
C 	24.595121467478055	15.619999999999996	0.0
C 	25.824877540851958	14.909999999999997	0.0
C 	27.05463361422586	15.619999999999996	0.0
C 	28.284389687599763	14.909999999999997	0.0
C 	29.514145760973665	15.619999999999996	0.0
C 	30.743901834347568	14.909999999999997	0.0
C 	31.973657907721474	15.619999999999997	0.0
C 	33.203413981095366	14.909999999999993	0.0
C 	34.43317005446927	15.619999999999994	0.0
C 	35.662926127843185	14.909999999999998	0.0
C 	36.892682201217085	15.619999999999996	0.0
C 	38.122438274590984	14.909999999999995	0.0
C 	39.35219434796489	15.619999999999996	0.0
C 	40.58195042133879	14.909999999999993	0.0
C 	41.811706494712695	15.619999999999994	0.0
C 	43.0414625680866	14.909999999999998	0.0
C 	44.2712186414605	15.619999999999996	0.0
C 	45.5009747148344	14.909999999999995	0.0
C 	46.730730788208305	15.619999999999996	0.0
C 	47.960486861582204	14.909999999999993	0.0
C 	49.19024293495611	15.619999999999994	0.0
C 	50.41999900833002	14.909999999999998	0.0
C 	51.649755081703915	15.619999999999996	0.0
C 	52.87951115507782	14.909999999999997	0.0
C 	54.10926722845171	15.619999999999994	0.0
C 	55.33902330182562	14.909999999999995	0.0
C 	56.568779375199526	15.619999999999994	0.0
C 	57.798535448573425	14.909999999999991	0.0
C 	59.028291521947324	15.619999999999992	0.0
C 	60.25804759532124	14.909999999999998	0.0
C 	61.487803668695136	15.619999999999996	0.0
C 	62.717559742069035	14.909999999999993	0.0
C 	63.94731581544294	15.619999999999994	0.0
C 	65.17707188881684	14.909999999999993	0.0
C 	66.40682796219075	15.619999999999994	0.0
C 	67.63658403556465	14.909999999999997	0.0
C 	68.86634010893854	15.61999999999999	0.0
C 	9.838048586991222	17.039999999999996	0.0
C 	11.067804660365127	17.749999999999996	0.0
C 	12.297560733739028	17.039999999999996	0.0
C 	13.527316807112932	17.749999999999996	0.0
C 	14.757072880486833	17.039999999999996	0.0
C 	15.986828953860735	17.749999999999996	0.0
C 	17.21658502723464	17.039999999999996	0.0
C 	18.446341100608546	17.749999999999996	0.0
C 	19.676097173982445	17.039999999999996	0.0
C 	20.905853247356347	17.749999999999996	0.0
C 	22.13560932073025	17.039999999999996	0.0
C 	23.365365394104153	17.749999999999996	0.0
C 	24.595121467478055	17.039999999999996	0.0
C 	25.82487754085196	17.749999999999996	0.0
C 	27.05463361422586	17.039999999999996	0.0
C 	28.28438968759977	17.75	0.0
C 	29.514145760973665	17.039999999999996	0.0
C 	30.74390183434757	17.749999999999996	0.0
C 	31.973657907721467	17.039999999999992	0.0
C 	33.20341398109537	17.749999999999993	0.0
C 	34.43317005446927	17.039999999999996	0.0
C 	35.66292612784318	17.749999999999996	0.0
C 	36.892682201217085	17.039999999999996	0.0
C 	38.122438274590984	17.749999999999996	0.0
C 	39.35219434796488	17.039999999999992	0.0
C 	40.58195042133879	17.749999999999993	0.0
C 	41.811706494712695	17.039999999999992	0.0
C 	43.041462568086594	17.749999999999993	0.0
C 	44.2712186414605	17.039999999999996	0.0
C 	45.500974714834406	17.749999999999996	0.0
C 	46.7307307882083	17.039999999999992	0.0
C 	47.960486861582204	17.749999999999993	0.0
C 	49.19024293495611	17.039999999999992	0.0
C 	50.41999900833002	17.749999999999993	0.0
C 	51.649755081703915	17.039999999999996	0.0
C 	52.87951115507782	17.749999999999996	0.0
C 	54.10926722845172	17.039999999999992	0.0
C 	55.33902330182562	17.749999999999993	0.0
C 	56.568779375199526	17.039999999999996	0.0
C 	57.79853544857343	17.749999999999996	0.0
C 	59.028291521947324	17.039999999999992	0.0
C 	60.25804759532123	17.749999999999993	0.0
C 	61.487803668695136	17.039999999999996	0.0
C 	62.71755974206904	17.749999999999996	0.0
C 	63.94731581544294	17.04	0.0
C 	65.17707188881684	17.749999999999993	0.0
C 	66.40682796219075	17.039999999999996	0.0
C 	67.63658403556464	17.74999999999999	0.0
C 	68.86634010893856	17.03999999999999	0.0
C 	70.09609618231246	17.74999999999999	0.0
C 	11.067804660365125	19.169999999999995	0.0
C 	12.297560733739026	19.879999999999995	0.0
C 	13.52731680711293	19.169999999999995	0.0
C 	14.757072880486831	19.879999999999995	0.0
C 	15.986828953860737	19.169999999999998	0.0
C 	17.216585027234636	19.879999999999992	0.0
C 	18.446341100608542	19.169999999999995	0.0
C 	19.676097173982445	19.879999999999995	0.0
C 	20.905853247356347	19.169999999999995	0.0
C 	22.135609320730246	19.879999999999995	0.0
C 	23.365365394104153	19.169999999999995	0.0
C 	24.59512146747805	19.879999999999995	0.0
C 	25.824877540851958	19.169999999999995	0.0
C 	27.05463361422586	19.879999999999995	0.0
C 	28.284389687599763	19.169999999999995	0.0
C 	29.51414576097367	19.879999999999995	0.0
C 	30.743901834347565	19.16999999999999	0.0
C 	31.97365790772147	19.879999999999992	0.0
C 	33.20341398109537	19.169999999999995	0.0
C 	34.43317005446927	19.879999999999992	0.0
C 	35.66292612784318	19.169999999999995	0.0
C 	36.89268220121708	19.879999999999992	0.0
C 	38.122438274590984	19.169999999999995	0.0
C 	39.35219434796488	19.879999999999992	0.0
C 	40.58195042133879	19.16999999999999	0.0
C 	41.81170649471269	19.87999999999999	0.0
C 	43.0414625680866	19.169999999999995	0.0
C 	44.27121864146049	19.879999999999992	0.0
C 	45.5009747148344	19.16999999999999	0.0
C 	46.730730788208305	19.879999999999992	0.0
C 	47.960486861582204	19.169999999999995	0.0
C 	49.1902429349561	19.879999999999992	0.0
C 	50.41999900833002	19.169999999999995	0.0
C 	51.649755081703915	19.879999999999992	0.0
C 	52.879511155077815	19.16999999999999	0.0
C 	54.10926722845172	19.879999999999992	0.0
C 	55.33902330182562	19.16999999999999	0.0
C 	56.56877937519952	19.879999999999992	0.0
C 	57.79853544857343	19.169999999999995	0.0
C 	59.02829152194733	19.879999999999992	0.0
C 	60.25804759532123	19.169999999999995	0.0
C 	61.48780366869513	19.879999999999992	0.0
C 	62.717559742069035	19.16999999999999	0.0
C 	63.94731581544294	19.879999999999992	0.0
C 	65.17707188881684	19.169999999999995	0.0
C 	66.40682796219075	19.87999999999999	0.0
C 	67.63658403556465	19.169999999999995	0.0
C 	68.86634010893854	19.87999999999999	0.0
C 	70.09609618231245	19.16999999999999	0.0
C 	71.32585225568636	19.879999999999992	0.0
C 	12.297560733739028	21.299999999999994	0.0
C 	13.527316807112932	22.009999999999994	0.0
C 	14.757072880486831	21.299999999999994	0.0
C 	15.986828953860735	22.009999999999994	0.0
C 	17.216585027234636	21.299999999999994	0.0
C 	18.44634110060854	22.009999999999994	0.0
C 	19.676097173982445	21.299999999999994	0.0
C 	20.905853247356347	22.009999999999994	0.0
C 	22.13560932073025	21.299999999999994	0.0
C 	23.365365394104153	22.009999999999994	0.0
C 	24.595121467478055	21.299999999999994	0.0
C 	25.824877540851958	22.009999999999994	0.0
C 	27.05463361422586	21.299999999999994	0.0
C 	28.284389687599766	22.009999999999994	0.0
C 	29.514145760973662	21.29999999999999	0.0
C 	30.743901834347568	22.00999999999999	0.0
C 	31.97365790772147	21.299999999999994	0.0
C 	33.20341398109537	22.009999999999994	0.0
C 	34.43317005446928	21.299999999999994	0.0
C 	35.662926127843185	22.009999999999994	0.0
C 	36.89268220121708	21.299999999999994	0.0
C 	38.122438274590984	22.009999999999994	0.0
C 	39.35219434796489	21.299999999999994	0.0
C 	40.58195042133879	22.009999999999994	0.0
C 	41.811706494712695	21.299999999999994	0.0
C 	43.0414625680866	22.009999999999994	0.0
C 	44.2712186414605	21.29999999999999	0.0
C 	45.5009747148344	22.00999999999999	0.0
C 	46.730730788208305	21.299999999999994	0.0
C 	47.96048686158221	22.009999999999994	0.0
C 	49.19024293495611	21.299999999999994	0.0
C 	50.41999900833002	22.009999999999994	0.0
C 	51.649755081703915	21.299999999999994	0.0
C 	52.879511155077815	22.00999999999999	0.0
C 	54.10926722845172	21.299999999999994	0.0
C 	55.33902330182563	22.009999999999994	0.0
C 	56.568779375199526	21.29999999999999	0.0
C 	57.798535448573425	22.00999999999999	0.0
C 	59.02829152194733	21.299999999999994	0.0
C 	60.25804759532124	22.009999999999994	0.0
C 	61.48780366869513	21.29999999999999	0.0
C 	62.717559742069035	22.00999999999999	0.0
C 	63.94731581544294	21.299999999999994	0.0
C 	65.17707188881684	22.009999999999987	0.0
C 	66.40682796219075	21.299999999999994	0.0
C 	67.63658403556465	22.009999999999994	0.0
C 	68.86634010893854	21.29999999999999	0.0
C 	70.09609618231245	22.00999999999999	0.0
C 	71.32585225568636	21.299999999999983	0.0
C 	72.55560832906026	22.00999999999999	0.0
C 	13.527316807112932	23.429999999999996	0.0
C 	14.757072880486836	24.139999999999997	0.0
C 	15.986828953860737	23.429999999999996	0.0
C 	17.216585027234643	24.139999999999997	0.0
C 	18.446341100608542	23.429999999999996	0.0
C 	19.676097173982445	24.139999999999997	0.0
C 	20.90585324735635	23.429999999999996	0.0
C 	22.135609320730254	24.139999999999997	0.0
C 	23.365365394104156	23.429999999999993	0.0
C 	24.595121467478062	24.139999999999997	0.0
C 	25.824877540851958	23.429999999999993	0.0
C 	27.054633614225864	24.139999999999993	0.0
C 	28.284389687599766	23.429999999999996	0.0
C 	29.514145760973673	24.139999999999997	0.0
C 	30.743901834347575	23.429999999999996	0.0
C 	31.973657907721478	24.139999999999997	0.0
C 	33.20341398109537	23.429999999999993	0.0
C 	34.43317005446928	24.139999999999993	0.0
C 	35.66292612784318	23.429999999999993	0.0
C 	36.892682201217085	24.139999999999993	0.0
C 	38.122438274590984	23.429999999999993	0.0
C 	39.35219434796489	24.139999999999993	0.0
C 	40.58195042133879	23.429999999999996	0.0
C 	41.811706494712695	24.139999999999993	0.0
C 	43.041462568086594	23.42999999999999	0.0
C 	44.2712186414605	24.13999999999999	0.0
C 	45.5009747148344	23.429999999999993	0.0
C 	46.730730788208305	24.139999999999993	0.0
C 	47.96048686158221	23.429999999999993	0.0
C 	49.19024293495611	24.139999999999993	0.0
C 	50.41999900833001	23.429999999999993	0.0
C 	51.649755081703915	24.13999999999999	0.0
C 	52.87951115507782	23.429999999999993	0.0
C 	54.10926722845172	24.139999999999993	0.0
C 	55.33902330182563	23.429999999999993	0.0
C 	56.56877937519953	24.139999999999993	0.0
C 	57.798535448573425	23.429999999999993	0.0
C 	59.02829152194733	24.139999999999993	0.0
C 	60.25804759532124	23.429999999999993	0.0
C 	61.487803668695136	24.13999999999999	0.0
C 	62.71755974206904	23.429999999999993	0.0
C 	63.947315815442934	24.139999999999986	0.0
C 	65.17707188881684	23.429999999999993	0.0
C 	66.40682796219075	24.139999999999993	0.0
C 	67.63658403556464	23.42999999999999	0.0
C 	68.86634010893856	24.139999999999997	0.0
C 	70.09609618231245	23.42999999999999	0.0
C 	71.32585225568636	24.139999999999997	0.0
C 	72.55560832906026	23.42999999999999	0.0
C 	73.78536440243417	24.13999999999999	0.0
C 	14.757072880486835	25.559999999999995	0.0
C 	15.986828953860735	26.269999999999996	0.0
C 	17.21658502723464	25.559999999999995	0.0
C 	18.44634110060854	26.269999999999996	0.0
C 	19.676097173982445	25.56	0.0
C 	20.905853247356344	26.269999999999996	0.0
C 	22.13560932073025	25.56	0.0
C 	23.365365394104153	26.269999999999996	0.0
C 	24.595121467478055	25.559999999999995	0.0
C 	25.824877540851958	26.269999999999996	0.0
C 	27.054633614225857	25.559999999999995	0.0
C 	28.28438968759976	26.269999999999996	0.0
C 	29.514145760973665	25.559999999999995	0.0
C 	30.743901834347568	26.269999999999996	0.0
C 	31.973657907721474	25.559999999999995	0.0
C 	33.20341398109538	26.269999999999996	0.0
C 	34.43317005446927	25.55999999999999	0.0
C 	35.66292612784318	26.269999999999992	0.0
C 	36.892682201217085	25.559999999999995	0.0
C 	38.12243827459098	26.269999999999992	0.0
C 	39.35219434796489	25.559999999999995	0.0
C 	40.58195042133879	26.269999999999992	0.0
C 	41.81170649471269	25.55999999999999	0.0
C 	43.041462568086594	26.269999999999992	0.0
C 	44.2712186414605	25.55999999999999	0.0
C 	45.5009747148344	26.26999999999999	0.0
C 	46.730730788208305	25.559999999999995	0.0
C 	47.960486861582204	26.269999999999992	0.0
C 	49.19024293495611	25.55999999999999	0.0
C 	50.41999900833001	26.269999999999992	0.0
C 	51.649755081703915	25.559999999999995	0.0
C 	52.879511155077815	26.269999999999992	0.0
C 	54.10926722845172	25.559999999999995	0.0
C 	55.33902330182562	26.269999999999992	0.0
C 	56.568779375199526	25.55999999999999	0.0
C 	57.79853544857343	26.269999999999992	0.0
C 	59.028291521947324	25.55999999999999	0.0
C 	60.25804759532123	26.269999999999992	0.0
C 	61.487803668695136	25.559999999999995	0.0
C 	62.717559742069035	26.26999999999999	0.0
C 	63.94731581544294	25.55999999999999	0.0
C 	65.17707188881683	26.269999999999985	0.0
C 	66.40682796219075	25.55999999999999	0.0
C 	67.63658403556465	26.269999999999992	0.0
C 	68.86634010893856	25.559999999999995	0.0
C 	70.09609618231246	26.269999999999996	0.0
C 	71.32585225568636	25.559999999999995	0.0
C 	72.55560832906026	26.269999999999996	0.0
C 	73.78536440243415	25.559999999999988	0.0
C 	75.01512047580806	26.26999999999999	0.0
C 	15.986828953860735	27.689999999999994	0.0
C 	17.21658502723464	28.399999999999995	0.0
C 	18.446341100608542	27.689999999999994	0.0
C 	19.676097173982445	28.399999999999995	0.0
C 	20.905853247356344	27.689999999999994	0.0
C 	22.13560932073025	28.399999999999995	0.0
C 	23.365365394104153	27.689999999999994	0.0
C 	24.59512146747806	28.399999999999995	0.0
C 	25.824877540851954	27.689999999999994	0.0
C 	27.054633614225857	28.399999999999995	0.0
C 	28.284389687599763	27.689999999999994	0.0
C 	29.514145760973665	28.399999999999995	0.0
C 	30.74390183434757	27.689999999999994	0.0
C 	31.973657907721474	28.399999999999995	0.0
C 	33.20341398109537	27.68999999999999	0.0
C 	34.43317005446928	28.39999999999999	0.0
C 	35.66292612784318	27.689999999999994	0.0
C 	36.892682201217085	28.399999999999995	0.0
C 	38.122438274590984	27.689999999999994	0.0
C 	39.35219434796489	28.399999999999995	0.0
C 	40.58195042133879	27.689999999999994	0.0
C 	41.811706494712695	28.399999999999995	0.0
C 	43.041462568086594	27.689999999999994	0.0
C 	44.2712186414605	28.399999999999995	0.0
C 	45.500974714834406	27.689999999999994	0.0
C 	46.730730788208305	28.399999999999995	0.0
C 	47.960486861582204	27.68999999999999	0.0
C 	49.19024293495611	28.39999999999999	0.0
C 	50.41999900833002	27.689999999999994	0.0
C 	51.649755081703915	28.399999999999995	0.0
C 	52.87951115507782	27.689999999999994	0.0
C 	54.10926722845173	28.399999999999995	0.0
C 	55.33902330182562	27.68999999999999	0.0
C 	56.568779375199526	28.39999999999999	0.0
C 	57.79853544857343	27.689999999999994	0.0
C 	59.02829152194733	28.39999999999999	0.0
C 	60.25804759532124	27.689999999999994	0.0
C 	61.48780366869513	28.399999999999988	0.0
C 	62.717559742069035	27.689999999999994	0.0
C 	63.94731581544294	28.399999999999995	0.0
C 	65.17707188881684	27.68999999999999	0.0
C 	66.40682796219075	28.39999999999999	0.0
C 	67.63658403556464	27.689999999999987	0.0
C 	68.86634010893856	28.399999999999995	0.0
C 	70.09609618231245	27.689999999999994	0.0
C 	71.32585225568636	28.399999999999995	0.0
C 	72.55560832906026	27.68999999999999	0.0
C 	73.78536440243415	28.39999999999999	0.0
C 	75.01512047580808	27.689999999999994	0.0
C 	76.24487654918197	28.399999999999984	0.0
C 	17.21658502723464	29.819999999999997	0.0
C 	18.446341100608546	30.529999999999998	0.0
C 	19.676097173982445	29.819999999999997	0.0
C 	20.905853247356355	30.529999999999998	0.0
C 	22.13560932073025	29.819999999999993	0.0
C 	23.365365394104156	30.529999999999994	0.0
C 	24.59512146747806	29.819999999999997	0.0
C 	25.82487754085196	30.529999999999998	0.0
C 	27.054633614225867	29.819999999999997	0.0
C 	28.28438968759977	30.529999999999998	0.0
C 	29.514145760973665	29.819999999999997	0.0
C 	30.74390183434757	30.529999999999998	0.0
C 	31.973657907721474	29.819999999999997	0.0
C 	33.20341398109538	30.529999999999998	0.0
C 	34.43317005446928	29.819999999999997	0.0
C 	35.662926127843185	30.529999999999998	0.0
C 	36.892682201217085	29.819999999999993	0.0
C 	38.12243827459099	30.529999999999994	0.0
C 	39.35219434796488	29.819999999999993	0.0
C 	40.58195042133879	30.529999999999994	0.0
C 	41.811706494712695	29.819999999999993	0.0
C 	43.0414625680866	30.529999999999994	0.0
C 	44.2712186414605	29.819999999999993	0.0
C 	45.500974714834406	30.529999999999994	0.0
C 	46.730730788208305	29.81999999999999	0.0
C 	47.960486861582204	30.52999999999999	0.0
C 	49.19024293495611	29.819999999999993	0.0
C 	50.41999900833002	30.529999999999994	0.0
C 	51.649755081703915	29.819999999999993	0.0
C 	52.87951115507782	30.529999999999994	0.0
C 	54.10926722845172	29.819999999999993	0.0
C 	55.33902330182563	30.52999999999999	0.0
C 	56.568779375199526	29.819999999999993	0.0
C 	57.798535448573425	30.52999999999999	0.0
C 	59.02829152194734	29.819999999999993	0.0
C 	60.25804759532124	30.529999999999994	0.0
C 	61.487803668695136	29.819999999999993	0.0
C 	62.71755974206904	30.529999999999994	0.0
C 	63.947315815442934	29.81999999999999	0.0
C 	65.17707188881685	30.529999999999998	0.0
C 	66.40682796219073	29.819999999999986	0.0
C 	67.63658403556465	30.529999999999994	0.0
C 	68.86634010893856	29.819999999999993	0.0
C 	70.09609618231245	30.529999999999994	0.0
C 	71.32585225568637	29.819999999999997	0.0
C 	72.55560832906026	30.52999999999999	0.0
C 	73.78536440243417	29.819999999999997	0.0
C 	75.01512047580806	30.529999999999987	0.0
C 	76.24487654918197	29.81999999999999	0.0
C 	77.47463262255587	30.52999999999999	0.0
C 	18.446341100608542	31.949999999999996	0.0
C 	19.676097173982445	32.65999999999999	0.0
C 	20.905853247356347	31.949999999999992	0.0
C 	22.135609320730254	32.66	0.0
C 	23.365365394104156	31.949999999999996	0.0
C 	24.595121467478055	32.65999999999999	0.0
C 	25.824877540851958	31.949999999999992	0.0
C 	27.05463361422586	32.66	0.0
C 	28.284389687599766	31.949999999999996	0.0
C 	29.51414576097367	32.66	0.0
C 	30.743901834347568	31.949999999999992	0.0
C 	31.97365790772147	32.66	0.0
C 	33.20341398109537	31.949999999999992	0.0
C 	34.43317005446928	32.66	0.0
C 	35.66292612784318	31.949999999999996	0.0
C 	36.892682201217085	32.66	0.0
C 	38.122438274590984	31.949999999999992	0.0
C 	39.35219434796489	32.65999999999999	0.0
C 	40.58195042133879	31.949999999999992	0.0
C 	41.81170649471269	32.65999999999999	0.0
C 	43.0414625680866	31.949999999999996	0.0
C 	44.2712186414605	32.65999999999999	0.0
C 	45.5009747148344	31.949999999999992	0.0
C 	46.730730788208305	32.65999999999999	0.0
C 	47.96048686158221	31.949999999999992	0.0
C 	49.1902429349561	32.65999999999999	0.0
C 	50.41999900833002	31.949999999999992	0.0
C 	51.649755081703915	32.65999999999999	0.0
C 	52.879511155077815	31.949999999999992	0.0
C 	54.10926722845172	32.65999999999999	0.0
C 	55.33902330182563	31.949999999999992	0.0
C 	56.568779375199526	32.65999999999999	0.0
C 	57.79853544857343	31.949999999999992	0.0
C 	59.028291521947324	32.65999999999999	0.0
C 	60.25804759532124	31.949999999999992	0.0
C 	61.487803668695136	32.65999999999999	0.0
C 	62.717559742069035	31.94999999999999	0.0
C 	63.94731581544294	32.65999999999999	0.0
C 	65.17707188881685	31.949999999999992	0.0
C 	66.40682796219076	32.66	0.0
C 	67.63658403556465	31.949999999999992	0.0
C 	68.86634010893856	32.65999999999999	0.0
C 	70.09609618231245	31.94999999999999	0.0
C 	71.32585225568636	32.65999999999999	0.0
C 	72.55560832906026	31.949999999999996	0.0
C 	73.78536440243415	32.65999999999999	0.0
C 	75.01512047580806	31.949999999999992	0.0
C 	76.24487654918195	32.65999999999998	0.0
C 	77.47463262255587	31.949999999999985	0.0
C 	78.70438869592978	32.65999999999999	0.0
C 	19.676097173982445	34.07999999999999	0.0
C 	20.90585324735635	34.78999999999999	0.0
C 	22.135609320730254	34.07999999999999	0.0
C 	23.365365394104156	34.78999999999999	0.0
C 	24.595121467478055	34.07999999999999	0.0
C 	25.824877540851958	34.78999999999999	0.0
C 	27.054633614225864	34.07999999999999	0.0
C 	28.284389687599766	34.78999999999999	0.0
C 	29.514145760973665	34.07999999999999	0.0
C 	30.743901834347568	34.78999999999999	0.0
C 	31.97365790772147	34.07999999999999	0.0
C 	33.20341398109537	34.78999999999999	0.0
C 	34.43317005446928	34.07999999999999	0.0
C 	35.662926127843185	34.78999999999999	0.0
C 	36.89268220121708	34.07999999999999	0.0
C 	38.122438274590984	34.78999999999999	0.0
C 	39.35219434796489	34.07999999999999	0.0
C 	40.581950421338796	34.78999999999999	0.0
C 	41.811706494712695	34.07999999999999	0.0
C 	43.0414625680866	34.78999999999999	0.0
C 	44.2712186414605	34.07999999999999	0.0
C 	45.5009747148344	34.78999999999999	0.0
C 	46.730730788208305	34.07999999999999	0.0
C 	47.96048686158221	34.78999999999999	0.0
C 	49.19024293495611	34.07999999999999	0.0
C 	50.41999900833002	34.78999999999999	0.0
C 	51.649755081703915	34.07999999999999	0.0
C 	52.87951115507782	34.78999999999999	0.0
C 	54.10926722845172	34.07999999999999	0.0
C 	55.33902330182562	34.78999999999999	0.0
C 	56.56877937519953	34.07999999999999	0.0
C 	57.79853544857343	34.78999999999999	0.0
C 	59.02829152194733	34.07999999999999	0.0
C 	60.25804759532124	34.78999999999999	0.0
C 	61.487803668695136	34.07999999999999	0.0
C 	62.71755974206905	34.79	0.0
C 	63.947315815442934	34.079999999999984	0.0
C 	65.17707188881685	34.78999999999999	0.0
C 	66.40682796219075	34.07999999999999	0.0
C 	67.63658403556465	34.78999999999999	0.0
C 	68.86634010893854	34.07999999999999	0.0
C 	70.09609618231245	34.78999999999999	0.0
C 	71.32585225568636	34.07999999999999	0.0
C 	72.55560832906025	34.789999999999985	0.0
C 	73.78536440243417	34.07999999999999	0.0
C 	75.01512047580808	34.78999999999999	0.0
C 	76.24487654918197	34.07999999999999	0.0
C 	77.47463262255587	34.78999999999999	0.0
C 	78.70438869592977	34.079999999999984	0.0
C 	79.93414476930369	34.78999999999999	0.0
C 	20.90585324735635	36.209999999999994	0.0
C 	22.135609320730254	36.919999999999995	0.0
C 	23.36536539410416	36.209999999999994	0.0
C 	24.595121467478062	36.919999999999995	0.0
C 	25.82487754085196	36.209999999999994	0.0
C 	27.054633614225864	36.919999999999995	0.0
C 	28.284389687599766	36.209999999999994	0.0
C 	29.514145760973673	36.919999999999995	0.0
C 	30.743901834347575	36.209999999999994	0.0
C 	31.973657907721478	36.919999999999995	0.0
C 	33.20341398109537	36.209999999999994	0.0
C 	34.43317005446928	36.919999999999995	0.0
C 	35.662926127843185	36.209999999999994	0.0
C 	36.89268220121709	36.919999999999995	0.0
C 	38.12243827459099	36.209999999999994	0.0
C 	39.3521943479649	36.919999999999995	0.0
C 	40.581950421338796	36.209999999999994	0.0
C 	41.811706494712695	36.919999999999995	0.0
C 	43.041462568086594	36.209999999999994	0.0
C 	44.2712186414605	36.919999999999995	0.0
C 	45.500974714834406	36.209999999999994	0.0
C 	46.730730788208305	36.919999999999995	0.0
C 	47.96048686158221	36.209999999999994	0.0
C 	49.19024293495612	36.919999999999995	0.0
C 	50.41999900833002	36.20999999999999	0.0
C 	51.649755081703915	36.91999999999999	0.0
C 	52.87951115507782	36.209999999999994	0.0
C 	54.10926722845172	36.91999999999999	0.0
C 	55.33902330182563	36.209999999999994	0.0
C 	56.56877937519953	36.919999999999995	0.0
C 	57.79853544857343	36.20999999999999	0.0
C 	59.02829152194733	36.91999999999999	0.0
C 	60.25804759532123	36.20999999999999	0.0
C 	61.48780366869515	36.919999999999995	0.0
C 	62.71755974206904	36.209999999999994	0.0
C 	63.94731581544295	36.919999999999995	0.0
C 	65.17707188881684	36.209999999999994	0.0
C 	66.40682796219075	36.919999999999995	0.0
C 	67.63658403556467	36.209999999999994	0.0
C 	68.86634010893856	36.91999999999999	0.0
C 	70.09609618231246	36.209999999999994	0.0
C 	71.32585225568636	36.91999999999999	0.0
C 	72.55560832906026	36.209999999999994	0.0
C 	73.78536440243417	36.919999999999995	0.0
C 	75.01512047580806	36.20999999999999	0.0
C 	76.24487654918198	36.919999999999995	0.0
C 	77.47463262255586	36.20999999999999	0.0
C 	78.70438869592978	36.919999999999995	0.0
C 	79.93414476930369	36.20999999999999	0.0
C 	81.16390084267759	36.91999999999999	0.0
C 	22.13560932073025	38.33999999999999	0.0
C 	23.365365394104153	39.04999999999999	0.0
C 	24.59512146747806	38.33999999999999	0.0
C 	25.82487754085196	39.04999999999999	0.0
C 	27.05463361422586	38.33999999999999	0.0
C 	28.284389687599763	39.04999999999999	0.0
C 	29.514145760973665	38.33999999999999	0.0
C 	30.74390183434757	39.04999999999999	0.0
C 	31.973657907721474	38.339999999999996	0.0
C 	33.20341398109538	39.04999999999999	0.0
C 	34.43317005446927	38.33999999999999	0.0
C 	35.66292612784318	39.04999999999999	0.0
C 	36.892682201217085	38.33999999999999	0.0
C 	38.12243827459099	39.04999999999999	0.0
C 	39.35219434796489	38.33999999999999	0.0
C 	40.581950421338796	39.04999999999999	0.0
C 	41.811706494712695	38.33999999999999	0.0
C 	43.0414625680866	39.04999999999999	0.0
C 	44.27121864146049	38.33999999999999	0.0
C 	45.5009747148344	39.04999999999999	0.0
C 	46.730730788208305	38.33999999999999	0.0
C 	47.960486861582204	39.04999999999999	0.0
C 	49.19024293495611	38.33999999999999	0.0
C 	50.41999900833002	39.04999999999999	0.0
C 	51.649755081703915	38.33999999999999	0.0
C 	52.879511155077815	39.04999999999999	0.0
C 	54.10926722845173	38.33999999999999	0.0
C 	55.33902330182562	39.04999999999998	0.0
C 	56.568779375199526	38.33999999999999	0.0
C 	57.79853544857343	39.04999999999999	0.0
C 	59.02829152194733	38.33999999999999	0.0
C 	60.25804759532123	39.04999999999999	0.0
C 	61.48780366869513	38.33999999999998	0.0
C 	62.71755974206905	39.04999999999999	0.0
C 	63.94731581544294	38.33999999999999	0.0
C 	65.17707188881685	39.04999999999999	0.0
C 	66.40682796219075	38.33999999999999	0.0
C 	67.63658403556465	39.04999999999999	0.0
C 	68.86634010893856	38.33999999999999	0.0
C 	70.09609618231245	39.04999999999998	0.0
C 	71.32585225568636	38.33999999999999	0.0
C 	72.55560832906025	39.04999999999998	0.0
C 	73.78536440243415	38.33999999999999	0.0
C 	75.01512047580806	39.04999999999999	0.0
C 	76.24487654918197	38.33999999999999	0.0
C 	77.47463262255587	39.05	0.0
C 	78.70438869592977	38.33999999999998	0.0
C 	79.93414476930369	39.04999999999999	0.0
C 	81.16390084267758	38.33999999999998	0.0
C 	82.39365691605148	39.04999999999998	0.0
C 	23.365365394104156	40.46999999999999	0.0
C 	24.59512146747806	41.17999999999999	0.0
C 	25.82487754085196	40.46999999999999	0.0
C 	27.054633614225867	41.17999999999999	0.0
C 	28.284389687599763	40.46999999999999	0.0
C 	29.51414576097367	41.17999999999999	0.0
C 	30.74390183434757	40.46999999999999	0.0
C 	31.973657907721474	41.17999999999999	0.0
C 	33.20341398109537	40.46999999999999	0.0
C 	34.43317005446928	41.17999999999999	0.0
C 	35.66292612784318	40.46999999999999	0.0
C 	36.892682201217085	41.17999999999999	0.0
C 	38.12243827459099	40.46999999999999	0.0
C 	39.3521943479649	41.17999999999999	0.0
C 	40.58195042133879	40.46999999999999	0.0
C 	41.811706494712695	41.17999999999999	0.0
C 	43.0414625680866	40.46999999999999	0.0
C 	44.2712186414605	41.17999999999999	0.0
C 	45.500974714834406	40.46999999999999	0.0
C 	46.73073078820831	41.17999999999999	0.0
C 	47.960486861582204	40.46999999999999	0.0
C 	49.19024293495611	41.17999999999999	0.0
C 	50.41999900833002	40.46999999999999	0.0
C 	51.649755081703915	41.179999999999986	0.0
C 	52.87951115507782	40.46999999999999	0.0
C 	54.10926722845173	41.17999999999999	0.0
C 	55.33902330182563	40.46999999999999	0.0
C 	56.568779375199526	41.17999999999999	0.0
C 	57.798535448573425	40.469999999999985	0.0
C 	59.028291521947345	41.17999999999999	0.0
C 	60.25804759532124	40.46999999999999	0.0
C 	61.48780366869514	41.17999999999999	0.0
C 	62.71755974206904	40.46999999999999	0.0
C 	63.94731581544295	41.17999999999999	0.0
C 	65.17707188881685	40.46999999999999	0.0
C 	66.40682796219075	41.179999999999986	0.0
C 	67.63658403556465	40.46999999999999	0.0
C 	68.86634010893854	41.179999999999986	0.0
C 	70.09609618231246	40.46999999999999	0.0
C 	71.32585225568636	41.17999999999999	0.0
C 	72.55560832906026	40.469999999999985	0.0
C 	73.78536440243417	41.179999999999986	0.0
C 	75.01512047580806	40.469999999999985	0.0
C 	76.24487654918198	41.17999999999999	0.0
C 	77.47463262255587	40.46999999999999	0.0
C 	78.70438869592978	41.17999999999999	0.0
C 	79.93414476930367	40.469999999999985	0.0
C 	81.16390084267758	41.179999999999986	0.0
C 	82.3936569160515	40.46999999999999	0.0
C 	83.62341298942539	41.179999999999986	0.0
C 	24.595121467478055	42.59999999999999	0.0
C 	25.82487754085196	43.30999999999999	0.0
C 	27.05463361422586	42.59999999999999	0.0
C 	28.284389687599766	43.30999999999999	0.0
C 	29.514145760973662	42.59999999999999	0.0
C 	30.743901834347568	43.30999999999999	0.0
C 	31.97365790772147	42.59999999999999	0.0
C 	33.20341398109537	43.30999999999999	0.0
C 	34.43317005446927	42.59999999999999	0.0
C 	35.66292612784318	43.30999999999999	0.0
C 	36.89268220121708	42.59999999999999	0.0
C 	38.122438274590984	43.30999999999999	0.0
C 	39.35219434796489	42.59999999999999	0.0
C 	40.581950421338796	43.30999999999999	0.0
C 	41.81170649471269	42.59999999999999	0.0
C 	43.041462568086594	43.30999999999999	0.0
C 	44.2712186414605	42.59999999999999	0.0
C 	45.5009747148344	43.30999999999999	0.0
C 	46.730730788208305	42.59999999999999	0.0
C 	47.96048686158221	43.30999999999999	0.0
C 	49.19024293495611	42.59999999999999	0.0
C 	50.41999900833001	43.30999999999999	0.0
C 	51.64975508170392	42.599999999999994	0.0
C 	52.879511155077815	43.30999999999999	0.0
C 	54.10926722845172	42.59999999999999	0.0
C 	55.33902330182563	43.30999999999999	0.0
C 	56.568779375199526	42.59999999999999	0.0
C 	57.798535448573425	43.30999999999999	0.0
C 	59.028291521947324	42.59999999999998	0.0
C 	60.258047595321244	43.30999999999999	0.0
C 	61.487803668695136	42.59999999999999	0.0
C 	62.71755974206904	43.30999999999999	0.0
C 	63.94731581544294	42.59999999999999	0.0
C 	65.17707188881684	43.30999999999999	0.0
C 	66.40682796219076	42.599999999999994	0.0
C 	67.63658403556465	43.30999999999999	0.0
C 	68.86634010893856	42.59999999999999	0.0
C 	70.09609618231245	43.30999999999998	0.0
C 	71.32585225568636	42.59999999999999	0.0
C 	72.55560832906026	43.30999999999999	0.0
C 	73.78536440243415	42.59999999999999	0.0
C 	75.01512047580806	43.30999999999999	0.0
C 	76.24487654918197	42.59999999999998	0.0
C 	77.47463262255587	43.30999999999999	0.0
C 	78.70438869592978	42.59999999999999	0.0
C 	79.93414476930367	43.30999999999999	0.0
C 	81.16390084267758	42.59999999999999	0.0
C 	82.39365691605148	43.30999999999999	0.0
C 	83.62341298942539	42.59999999999999	0.0
C 	84.85316906279928	43.30999999999998	0.0
C 	25.82487754085196	44.72999999999999	0.0
C 	27.054633614225864	45.43999999999999	0.0
C 	28.284389687599766	44.72999999999999	0.0
C 	29.514145760973673	45.43999999999999	0.0
C 	30.743901834347568	44.72999999999999	0.0
C 	31.97365790772147	45.43999999999999	0.0
C 	33.20341398109537	44.72999999999999	0.0
C 	34.43317005446928	45.43999999999999	0.0
C 	35.662926127843185	44.72999999999999	0.0
C 	36.892682201217085	45.43999999999999	0.0
C 	38.122438274590984	44.72999999999999	0.0
C 	39.35219434796489	45.43999999999999	0.0
C 	40.581950421338796	44.72999999999999	0.0
C 	41.811706494712695	45.43999999999999	0.0
C 	43.0414625680866	44.72999999999999	0.0
C 	44.27121864146051	45.43999999999999	0.0
C 	45.500974714834406	44.72999999999999	0.0
C 	46.730730788208305	45.43999999999999	0.0
C 	47.960486861582204	44.72999999999999	0.0
C 	49.19024293495611	45.43999999999998	0.0
C 	50.41999900833002	44.72999999999999	0.0
C 	51.64975508170391	45.43999999999998	0.0
C 	52.87951115507782	44.72999999999999	0.0
C 	54.10926722845172	45.43999999999999	0.0
C 	55.33902330182562	44.72999999999998	0.0
C 	56.568779375199526	45.43999999999998	0.0
C 	57.798535448573425	44.72999999999998	0.0
C 	59.02829152194734	45.43999999999999	0.0
C 	60.25804759532124	44.72999999999999	0.0
C 	61.48780366869514	45.43999999999999	0.0
C 	62.717559742069035	44.72999999999998	0.0
C 	63.94731581544294	45.43999999999998	0.0
C 	65.17707188881685	44.72999999999999	0.0
C 	66.40682796219075	45.43999999999998	0.0
C 	67.63658403556465	44.72999999999999	0.0
C 	68.86634010893856	45.43999999999999	0.0
C 	70.09609618231245	44.72999999999999	0.0
C 	71.32585225568636	45.43999999999998	0.0
C 	72.55560832906026	44.72999999999998	0.0
C 	73.78536440243417	45.43999999999999	0.0
C 	75.01512047580806	44.72999999999998	0.0
C 	76.24487654918198	45.43999999999999	0.0
C 	77.47463262255587	44.72999999999999	0.0
C 	78.70438869592978	45.43999999999999	0.0
C 	79.93414476930369	44.72999999999999	0.0
C 	81.16390084267758	45.43999999999998	0.0
C 	82.39365691605148	44.72999999999999	0.0
C 	83.62341298942538	45.43999999999998	0.0
C 	84.8531690627993	44.72999999999998	0.0
C 	86.08292513617319	45.43999999999998	0.0
C 	27.054633614225864	46.85999999999999	0.0
C 	28.28438968759977	47.56999999999999	0.0
C 	29.514145760973673	46.85999999999999	0.0
C 	30.74390183434758	47.56999999999999	0.0
C 	31.973657907721474	46.85999999999999	0.0
C 	33.20341398109538	47.56999999999999	0.0
C 	34.43317005446928	46.85999999999999	0.0
C 	35.662926127843185	47.56999999999999	0.0
C 	36.892682201217085	46.85999999999999	0.0
C 	38.122438274590984	47.56999999999999	0.0
C 	39.35219434796489	46.85999999999999	0.0
C 	40.581950421338796	47.56999999999999	0.0
C 	41.8117064947127	46.85999999999999	0.0
C 	43.0414625680866	47.56999999999999	0.0
C 	44.2712186414605	46.85999999999999	0.0
C 	45.500974714834406	47.56999999999999	0.0
C 	46.73073078820831	46.859999999999985	0.0
C 	47.960486861582204	47.569999999999986	0.0
C 	49.19024293495612	46.85999999999999	0.0
C 	50.41999900833002	47.56999999999999	0.0
C 	51.649755081703915	46.859999999999985	0.0
C 	52.87951115507782	47.569999999999986	0.0
C 	54.10926722845172	46.859999999999985	0.0
C 	55.339023301825634	47.56999999999999	0.0
C 	56.56877937519953	46.85999999999999	0.0
C 	57.79853544857344	47.56999999999999	0.0
C 	59.02829152194733	46.859999999999985	0.0
C 	60.25804759532124	47.569999999999986	0.0
C 	61.48780366869515	46.85999999999999	0.0
C 	62.71755974206904	47.569999999999986	0.0
C 	63.94731581544295	46.85999999999999	0.0
C 	65.17707188881685	47.56999999999999	0.0
C 	66.40682796219075	46.859999999999985	0.0
C 	67.63658403556465	47.569999999999986	0.0
C 	68.86634010893856	46.859999999999985	0.0
C 	70.09609618231246	47.56999999999999	0.0
C 	71.32585225568636	46.859999999999985	0.0
C 	72.55560832906028	47.56999999999999	0.0
C 	73.78536440243417	46.859999999999985	0.0
C 	75.01512047580808	47.569999999999986	0.0
C 	76.24487654918197	46.859999999999985	0.0
C 	77.47463262255587	47.569999999999986	0.0
C 	78.70438869592978	46.85999999999999	0.0
C 	79.93414476930367	47.569999999999986	0.0
C 	81.16390084267758	46.85999999999999	0.0
C 	82.39365691605148	47.56999999999999	0.0
C 	83.62341298942539	46.859999999999985	0.0
C 	84.8531690627993	47.569999999999986	0.0
C 	86.08292513617319	46.85999999999998	0.0
C 	87.31268120954711	47.569999999999986	0.0
C 	28.284389687599763	48.98999999999999	0.0
C 	29.51414576097367	49.69999999999999	0.0
C 	30.74390183434757	48.98999999999999	0.0
C 	31.973657907721478	49.69999999999999	0.0
C 	33.20341398109537	48.98999999999999	0.0
C 	34.43317005446928	49.69999999999999	0.0
C 	35.66292612784318	48.98999999999999	0.0
C 	36.892682201217085	49.69999999999999	0.0
C 	38.122438274590984	48.98999999999999	0.0
C 	39.35219434796488	49.69999999999999	0.0
C 	40.58195042133879	48.98999999999999	0.0
C 	41.811706494712695	49.69999999999999	0.0
C 	43.041462568086594	48.98999999999999	0.0
C 	44.2712186414605	49.69999999999999	0.0
C 	45.5009747148344	48.98999999999999	0.0
C 	46.730730788208305	49.69999999999998	0.0
C 	47.96048686158221	48.98999999999999	0.0
C 	49.1902429349561	49.69999999999998	0.0
C 	50.41999900833002	48.98999999999999	0.0
C 	51.64975508170392	49.69999999999999	0.0
C 	52.879511155077815	48.98999999999999	0.0
C 	54.10926722845172	49.69999999999999	0.0
C 	55.33902330182562	48.98999999999998	0.0
C 	56.56877937519953	49.69999999999999	0.0
C 	57.79853544857343	48.98999999999999	0.0
C 	59.02829152194734	49.69999999999999	0.0
C 	60.25804759532124	48.98999999999999	0.0
C 	61.487803668695136	49.69999999999999	0.0
C 	62.71755974206905	48.98999999999999	0.0
C 	63.94731581544294	49.69999999999998	0.0
C 	65.17707188881685	48.98999999999999	0.0
C 	66.40682796219075	49.69999999999999	0.0
C 	67.63658403556465	48.98999999999999	0.0
C 	68.86634010893856	49.69999999999999	0.0
C 	70.09609618231245	48.98999999999998	0.0
C 	71.32585225568637	49.69999999999999	0.0
C 	72.55560832906025	48.98999999999998	0.0
C 	73.78536440243417	49.69999999999999	0.0
C 	75.01512047580806	48.98999999999999	0.0
C 	76.24487654918197	49.69999999999999	0.0
C 	77.47463262255587	48.98999999999998	0.0
C 	78.70438869592978	49.69999999999998	0.0
C 	79.93414476930369	48.98999999999999	0.0
C 	81.16390084267758	49.69999999999998	0.0
C 	82.39365691605148	48.98999999999999	0.0
C 	83.62341298942539	49.69999999999999	0.0
C 	84.85316906279928	48.98999999999998	0.0
C 	86.08292513617319	49.69999999999998	0.0
C 	87.3126812095471	48.98999999999998	0.0
C 	88.542437282921	49.69999999999999	0.0
C 	29.51414576097367	51.11999999999999	0.0
C 	30.74390183434757	51.82999999999999	0.0
C 	31.973657907721474	51.11999999999999	0.0
C 	33.20341398109538	51.82999999999999	0.0
C 	34.43317005446928	51.11999999999999	0.0
C 	35.66292612784318	51.82999999999999	0.0
C 	36.892682201217085	51.11999999999999	0.0
C 	38.12243827459099	51.82999999999999	0.0
C 	39.35219434796489	51.12	0.0
C 	40.581950421338796	51.83	0.0
C 	41.811706494712695	51.11999999999999	0.0
C 	43.041462568086594	51.82999999999999	0.0
C 	44.2712186414605	51.12	0.0
C 	45.5009747148344	51.82999999999999	0.0
C 	46.73073078820831	51.11999999999999	0.0
C 	47.96048686158221	51.82999999999999	0.0
C 	49.19024293495611	51.11999999999999	0.0
C 	50.41999900833002	51.82999999999999	0.0
C 	51.649755081703915	51.11999999999998	0.0
C 	52.879511155077815	51.829999999999984	0.0
C 	54.10926722845171	51.11999999999999	0.0
C 	55.33902330182563	51.83	0.0
C 	56.568779375199526	51.11999999999999	0.0
C 	57.79853544857343	51.82999999999999	0.0
C 	59.02829152194733	51.11999999999999	0.0
C 	60.25804759532124	51.82999999999999	0.0
C 	61.48780366869514	51.11999999999999	0.0
C 	62.717559742069035	51.829999999999984	0.0
C 	63.94731581544295	51.11999999999999	0.0
C 	65.17707188881685	51.82999999999999	0.0
C 	66.40682796219075	51.11999999999999	0.0
C 	67.63658403556465	51.82999999999999	0.0
C 	68.86634010893854	51.11999999999998	0.0
C 	70.09609618231246	51.82999999999999	0.0
C 	71.32585225568636	51.11999999999999	0.0
C 	72.55560832906026	51.82999999999999	0.0
C 	73.78536440243417	51.11999999999999	0.0
C 	75.01512047580806	51.82999999999999	0.0
C 	76.24487654918198	51.11999999999999	0.0
C 	77.47463262255587	51.829999999999984	0.0
C 	78.70438869592978	51.11999999999999	0.0
C 	79.93414476930367	51.829999999999984	0.0
C 	81.16390084267758	51.11999999999999	0.0
C 	82.39365691605148	51.82999999999999	0.0
C 	83.62341298942538	51.11999999999998	0.0
C 	84.8531690627993	51.82999999999999	0.0
C 	86.08292513617319	51.11999999999998	0.0
C 	87.3126812095471	51.82999999999999	0.0
C 	88.542437282921	51.11999999999998	0.0
C 	89.7721933562949	51.829999999999984	0.0
C 	51.66391289944038	-0.7441128402590272	2.15
C 	52.922321981948706	-0.08623247038882305	2.15
C 	52.98178541024417	1.3325219483515578	2.15
C 	54.240194492752494	1.9904023182217552	2.15
C 	54.29965792104796	3.409156736962136	2.15
C 	55.55806700355628	4.06703710683234	2.15
C 	55.61753043185175	5.485791525572721	2.15
C 	56.87593951436007	6.1436718954429255	2.15
C 	56.935402942655536	7.562426314183306	2.15
C 	58.19381202516386	8.220306684053504	2.15
C 	58.253275453459324	9.639061102793884	2.15
C 	59.511684535967646	10.29694147266409	2.15
C 	59.57114796426311	11.71569589140447	2.15
C 	60.829557046771434	12.373576261274675	2.15
C 	60.8890204750669	13.792330680015056	2.15
C 	62.14742955757522	14.450211049885253	2.15
C 	62.20689298587069	15.868965468625634	2.15
C 	63.46530206837901	16.526845838495838	2.15
C 	63.524765496674476	17.94560025723622	2.15
C 	64.7831745791828	18.603480627106425	2.15
C 	64.84263800747827	20.022235045846802	2.15
C 	66.1010470899866	20.680115415717	2.15
C 	66.16051051828205	22.098869834457382	2.15
C 	67.41891960079039	22.756750204327577	2.15
C 	67.47838302908586	24.175504623067958	2.15
C 	68.73679211159417	24.83338499293817	2.15
C 	68.79625553988963	26.252139411678552	2.15
C 	70.05466462239795	26.91001978154875	2.15
C 	70.11412805069342	28.328774200289132	2.15
C 	71.37253713320176	28.986654570159327	2.15
C 	71.43200056149722	30.40540898889971	2.15
C 	72.69040964400553	31.06328935876992	2.15
C 	72.749873072301	32.4820437775103	2.15
C 	74.00828215480932	33.1399241473805	2.15
C 	74.06774558310478	34.55867856612088	2.15
C 	49.2065581627192	-0.6411191612590558	2.15
C 	50.46496724522751	0.016761208611148867	2.15
C 	50.52443067352298	1.4355156273515297	2.15
C 	51.78283975603131	2.093395997221734	2.15
C 	51.842303184326774	3.512150415962115	2.15
C 	53.100712266835096	4.170030785832312	2.15
C 	53.16017569513056	5.588785204572693	2.15
C 	54.41858477763889	6.246665574442897	2.15
C 	54.47804820593436	7.665419993183278	2.15
C 	55.73645728844267	8.323300363053482	2.15
C 	55.79592071673814	9.742054781793863	2.15
C 	57.05432979924646	10.39993515166406	2.15
C 	57.113793227541926	11.818689570404441	2.15
C 	58.37220231005025	12.476569940274645	2.15
C 	58.431665738345714	13.895324359015026	2.15
C 	59.69007482085404	14.55320472888523	2.15
C 	59.74953824914951	15.971959147625611	2.15
C 	61.00794733165782	16.62983951749581	2.15
C 	61.06741075995328	18.04859393623619	2.15
C 	62.32581984246161	18.706474306106394	2.15
C 	62.38528327075708	20.125228724846774	2.15
C 	63.64369235326541	20.78310909471698	2.15
C 	63.703155781560866	22.20186351345736	2.15
C 	64.9615648640692	22.859743883327557	2.15
C 	65.02102829236466	24.278498302067938	2.15
C 	66.279437374873	24.936378671938137	2.15
C 	66.33890080316846	26.355133090678518	2.15
C 	67.59730988567676	27.013013460548727	2.15
C 	67.65677331397224	28.431767879289108	2.15
C 	68.91518239648056	29.089648249159307	2.15
C 	68.97464582477602	30.508402667899688	2.15
C 	70.23305490728434	31.166283037769883	2.15
C 	70.29251833557981	32.585037456510264	2.15
C 	71.55092741808815	33.24291782638048	2.15
C 	71.61039084638361	34.661672245120855	2.15
C 	72.86879992889192	35.31955261499105	2.15
C 	72.92826335718739	36.73830703373144	2.15
C 	74.18667243969571	37.39618740360164	2.15
C 	74.24613586799117	38.814941822342014	2.15
C 	46.749203425998004	-0.5381254822590839	2.15
C 	48.007612508506334	0.11975488761111325	2.15
C 	48.0670759368018	1.538509306351494	2.15
C 	49.32548501931012	2.1963896762216986	2.15
C 	49.38494844760559	3.6151440949620794	2.15
C 	50.6433575301139	4.273024464832284	2.15
C 	50.70282095840937	5.691778883572665	2.15
C 	51.9612300409177	6.349659253442862	2.15
C 	52.020693469213164	7.768413672183243	2.15
C 	53.279102551721486	8.426294042053447	2.15
C 	53.33856598001695	9.845048460793828	2.15
C 	54.59697506252528	10.502928830664032	2.15
C 	54.65643849082075	11.921683249404413	2.15
C 	55.91484757332906	12.57956361927461	2.15
C 	55.97431100162453	13.998318038014991	2.15
C 	57.23272008413285	14.656198407885196	2.15
C 	57.292183512428316	16.074952826625577	2.15
C 	58.55059259493664	16.732833196495783	2.15
C 	58.610056023232104	18.151587615236163	2.15
C 	59.86846510574043	18.80946798510636	2.15
C 	59.92792853403589	20.22822240384674	2.15
C 	61.186337616544215	20.886102773716946	2.15
C 	61.24580104483968	22.304857192457327	2.15
C 	62.50421012734801	22.96273756232753	2.15
C 	62.56367355564347	24.38149198106791	2.15
C 	63.8220826381518	25.03937235093811	2.15
C 	63.88154606644726	26.45812676967849	2.15
C 	65.1399551489556	27.116007139548685	2.15
C 	65.19941857725105	28.534761558289066	2.15
C 	66.45782765975937	29.19264192815928	2.15
C 	66.51729108805483	30.61139634689966	2.15
C 	67.77570017056317	31.269276716769856	2.15
C 	67.83516359885864	32.688031135510236	2.15
C 	69.09357268136695	33.345911505380435	2.15
C 	69.15303610966241	34.76466592412081	2.15
C 	70.41144519217073	35.422546293991026	2.15
C 	70.4709086204662	36.84130071273141	2.15
C 	71.72931770297454	37.4991810826016	2.15
C 	71.78878113127	38.91793550134199	2.15
C 	73.04719021377831	39.575815871212185	2.15
C 	73.10665364207378	40.99457028995256	2.15
C 	44.29184868927682	-0.43513180325911194	2.15
C 	45.55025777178514	0.2227485666110927	2.15
C 	45.60972120008061	1.6415029853514735	2.15
C 	46.86813028258893	2.2993833552216705	2.15
C 	46.927593710884395	3.7181377739620514	2.15
C 	48.186002793392724	4.376018143832256	2.15
C 	48.24546622168819	5.7947725625726365	2.15
C 	49.50387530419651	6.452652932442841	2.15
C 	49.56333873249198	7.871407351183222	2.15
C 	50.82174781500029	8.52928772105342	2.15
C 	50.88121124329576	9.9480421397938	2.15
C 	52.13962032580409	10.605922509664005	2.15
C 	52.199083754099554	12.024676928404386	2.15
C 	53.45749283660788	12.68255729827459	2.15
C 	53.51695626490334	14.10131171701497	2.15
C 	54.77536534741167	14.759192086885168	2.15
C 	54.83482877570714	16.17794650562555	2.15
C 	56.093237858215446	16.835826875495755	2.15
C 	56.15270128651091	18.254581294236136	2.15
C 	57.41111036901924	18.91246166410634	2.15
C 	57.47057379731471	20.33121608284672	2.15
C 	58.72898287982303	20.989096452716915	2.15
C 	58.788446308118495	22.407850871457295	2.15
C 	60.04685539062683	23.0657312413275	2.15
C 	60.10631881892229	24.484485660067882	2.15
C 	61.364727901430605	25.14236602993809	2.15
C 	61.424191329726064	26.56112044867847	2.15
C 	62.6826004122344	27.219000818548665	2.15
C 	62.74206384052986	28.637755237289046	2.15
C 	64.00047292303819	29.295635607159245	2.15
C 	64.05993635133365	30.714390025899625	2.15
C 	65.31834543384198	31.372270395769835	2.15
C 	65.37780886213744	32.791024814510216	2.15
C 	66.63621794464578	33.448905184380415	2.15
C 	66.69568137294124	34.86765960312079	2.15
C 	67.95409045544955	35.52553997299099	2.15
C 	68.01355388374502	36.944294391731376	2.15
C 	69.27196296625334	37.60217476160158	2.15
C 	69.3314263945488	39.020929180341966	2.15
C 	70.58983547705712	39.678809550212165	2.15
C 	70.6492989053526	41.09756396895254	2.15
C 	71.90770798786093	41.75544433882274	2.15
C 	71.96717141615639	43.17419875756312	2.15
C 	41.83449395255563	-0.33213812425914024	2.15
C 	43.09290303506396	0.3257422456110571	2.15
C 	43.15236646335943	1.744496664351438	2.15
C 	44.41077554586774	2.4023770342216424	2.15
C 	44.47023897416321	3.8211314529620233	2.15
C 	45.72864805667153	4.479011822832221	2.15
C 	45.788111484967	5.897766241572602	2.15
C 	47.04652056747532	6.555646611442806	2.15
C 	47.105983995770785	7.974401030183187	2.15
C 	48.364393078279114	8.63228140005339	2.15
C 	48.42385650657458	10.051035818793771	2.15
C 	49.6822655890829	10.708916188663968	2.15
C 	49.74172901737837	12.12767060740435	2.15
C 	51.00013809988669	12.785550977274555	2.15
C 	51.05960152818216	14.204305396014934	2.15
C 	52.31801061069048	14.86218576588514	2.15
C 	52.377474038985945	16.28094018462552	2.15
C 	53.63588312149427	16.938820554495717	2.15
C 	53.69534654978973	18.357574973236098	2.15
C 	54.953755632298055	19.015455343106304	2.15
C 	55.01321906059352	20.434209761846684	2.15
C 	56.27162814310184	21.092090131716887	2.15
C 	56.33109157139731	22.510844550457268	2.15
C 	57.58950065390563	23.168724920327467	2.15
C 	57.6489640822011	24.587479339067848	2.15
C 	58.907373164709426	25.24535970893805	2.15
C 	58.966836593004885	26.66411412767843	2.15
C 	60.225245675513214	27.321994497548637	2.15
C 	60.28470910380867	28.740748916289018	2.15
C 	61.543118186317	29.398629286159217	2.15
C 	61.60258161461246	30.817383704899594	2.15
C 	62.8609906971208	31.475264074769793	2.15
C 	62.920454125416256	32.894018493510174	2.15
C 	64.17886320792458	33.55189886338039	2.15
C 	64.23832663622004	34.970653282120765	2.15
C 	65.49673571872837	35.62853365199096	2.15
C 	65.55619914702383	37.04728807073134	2.15
C 	66.81460822953215	37.70516844060154	2.15
C 	66.87407165782761	39.123922859341924	2.15
C 	68.13248074033595	39.78180322921214	2.15
C 	68.19194416863142	41.200557647952515	2.15
C 	69.45035325113973	41.858438017822714	2.15
C 	69.50981667943519	43.27719243656309	2.15
C 	70.76822576194351	43.93507280643329	2.15
C 	70.82768919023898	45.353827225173674	2.15
C 	39.37713921583445	-0.22914444525916833	2.15
C 	40.63554829834277	0.4287359246110363	2.15
C 	40.695011726638235	1.8474903433514172	2.15
C 	41.95342080914656	2.5053707132216143	2.15
C 	42.01288423744202	3.9241251319619948	2.15
C 	43.27129331995035	4.5820055018321995	2.15
C 	43.33075674824582	6.00075992057258	2.15
C 	44.58916583075413	6.6586402904427775	2.15
C 	44.6486292590496	8.077394709183158	2.15
C 	45.90703834155792	8.735275079053363	2.15
C 	45.96650176985339	10.154029497793744	2.15
C 	47.22491085236171	10.811909867663948	2.15
C 	47.284374280657175	12.230664286404329	2.15
C 	48.542783363165505	12.888544656274526	2.15
C 	48.60224679146097	14.307299075014907	2.15
C 	49.8606558739693	14.965179444885111	2.15
C 	49.920119302264766	16.383933863625494	2.15
C 	51.17852838477308	17.041814233495696	2.15
C 	51.23799181306855	18.460568652236077	2.15
C 	52.49640089557687	19.118449022106276	2.15
C 	52.555864323872335	20.537203440846657	2.15
C 	53.81427340638066	21.19508381071686	2.15
C 	53.87373683467612	22.61383822945724	2.15
C 	55.13214591718446	23.271718599327446	2.15
C 	55.19160934547992	24.690473018067827	2.15
C 	56.45001842798823	25.348353387938023	2.15
C 	56.50948185628369	26.767107806678403	2.15
C 	57.76789093879203	27.42498817654861	2.15
C 	57.82735436708749	28.84374259528899	2.15
C 	59.08576344959582	29.501622965159193	2.15
C 	59.145226877891275	30.920377383899574	2.15
C 	60.40363596039961	31.578257753769773	2.15
C 	60.46309938869507	32.99701217251015	2.15
C 	61.7215084712034	33.65489254238035	2.15
C 	61.78097189949886	35.07364696112073	2.15
C 	63.03938098200718	35.73152733099094	2.15
C 	63.09884441030265	37.15028174973132	2.15
C 	64.35725349281097	37.80816211960152	2.15
C 	64.41671692110643	39.226916538341904	2.15
C 	65.67512600361476	39.884796908212095	2.15
C 	65.73458943191022	41.30355132695248	2.15
C 	66.99299851441856	41.96143169682269	2.15
C 	67.05246194271402	43.38018611556307	2.15
C 	68.31087102522233	44.03806648543327	2.15
C 	68.3703344535178	45.45682090417365	2.15
C 	69.62874353602612	46.114701274043846	2.15
C 	36.91978447911326	-0.1261507662592002	2.15
C 	38.17819356162159	0.5317296036110042	2.15
C 	38.237656989917056	1.9504840223513815	2.15
C 	39.49606607242537	2.60836439222159	2.15
C 	39.55552950072084	4.027118810961967	2.15
C 	40.81393858322916	4.684999180832168	2.15
C 	40.873402011524625	6.103753599572546	2.15
C 	42.13181109403295	6.7616339694427525	2.15
C 	42.19127452232841	8.18038838818313	2.15
C 	43.44968360483674	8.838268758053331	2.15
C 	43.50914703313221	10.257023176793709	2.15
C 	44.767556115640524	10.914903546663917	2.15
C 	44.82701954393599	12.333657965404294	2.15
C 	46.08542862644431	12.991538335274502	2.15
C 	46.14489205473978	14.410292754014879	2.15
C 	47.4033011372481	15.06817312388508	2.15
C 	47.462764565543566	16.486927542625455	2.15
C 	48.721173648051895	17.144807912495665	2.15
C 	48.78063707634736	18.563562331236042	2.15
C 	50.03904615885569	19.221442701106252	2.15
C 	50.098509587151156	20.640197119846626	2.15
C 	51.35691866965947	21.298077489716828	2.15
C 	51.41638209795494	22.716831908457205	2.15
C 	52.67479118046327	23.374712278327415	2.15
C 	52.734254608758725	24.793466697067792	2.15
C 	53.992663691267055	25.451347066938	2.15
C 	54.05212711956251	26.870101485678376	2.15
C 	55.31053620207084	27.52798185554858	2.15
C 	55.3699996303663	28.946736274288956	2.15
C 	56.62840871287463	29.60461664415916	2.15
C 	56.68787214117009	31.02337106289954	2.15
C 	57.94628122367842	31.681251432769745	2.15
C 	58.00574465197388	33.100005851510126	2.15
C 	59.26415373448221	33.757886221380325	2.15
C 	59.323617162777666	35.1766406401207	2.15
C 	60.582026245286	35.8345210099909	2.15
C 	60.64148967358146	37.25327542873128	2.15
C 	61.89989875608978	37.91115579860149	2.15
C 	61.95936218438525	39.329910217341876	2.15
C 	63.21777126689358	39.98779058721207	2.15
C 	63.277234695189044	41.40654500595245	2.15
C 	64.53564377769736	42.06442537582265	2.15
C 	64.59510720599282	43.48317979456303	2.15
C 	65.85351628850115	44.14106016443324	2.15
C 	65.91297971679661	45.55981458317362	2.15
C 	67.17138879930494	46.21769495304382	2.15
C 	34.462429742392075	-0.023157087259224725	2.15
C 	35.7208388249004	0.6347232826109763	2.15
C 	35.78030225319586	2.053477701351357	2.15
C 	37.038711335704186	2.7113580712215577	2.15
C 	37.09817476399965	4.130112489961938	2.15
C 	38.35658384650798	4.787992859832143	2.15
C 	38.41604727480345	6.206747278572524	2.15
C 	39.67445635731176	6.864627648442721	2.15
C 	39.73391978560723	8.283382067183101	2.15
C 	40.99232886811555	8.941262437053307	2.15
C 	41.051792296411016	10.360016855793688	2.15
C 	42.31020137891934	11.017897225663885	2.15
C 	42.369664807214804	12.436651644404265	2.15
C 	43.62807388972313	13.09453201427447	2.15
C 	43.6875373180186	14.51328643301485	2.15
C 	44.945946400526914	15.171166802885056	2.15
C 	45.00540982882238	16.589921221625435	2.15
C 	46.2638189113307	17.247801591495634	2.15
C 	46.32328233962617	18.666556010236015	2.15
C 	47.58169142213449	19.324436380106217	2.15
C 	47.641154850429956	20.743190798846598	2.15
C 	48.899563932938285	21.401071168716804	2.15
C 	48.95902736123375	22.819825587457185	2.15
C 	50.21743644374208	23.47770595732738	2.15
C 	50.276899872037546	24.89646037606776	2.15
C 	51.53530895454586	25.554340745937967	2.15
C 	51.59477238284132	26.973095164678348	2.15
C 	52.85318146534966	27.630975534548554	2.15
C 	52.912644893645115	29.049729953288935	2.15
C 	54.171053976153445	29.70761032315913	2.15
C 	54.230517404448904	31.12636474189951	2.15
C 	55.48892648695724	31.784245111769714	2.15
C 	55.5483899152527	33.2029995305101	2.15
C 	56.806798997761014	33.860879900380304	2.15
C 	56.86626242605647	35.27963431912068	2.15
C 	58.12467150856481	35.93751468899088	2.15
C 	58.18413493686027	37.35626910773126	2.15
C 	59.4425440193686	38.01414947760146	2.15
C 	59.502007447664056	39.43290389634184	2.15
C 	60.76041653017239	40.09078426621205	2.15
C 	60.81987995846786	41.50953868495243	2.15
C 	62.07828904097618	42.16741905482263	2.15
C 	62.137752469271646	43.58617347356301	2.15
C 	63.39616155177996	44.24405384343321	2.15
C 	63.45562498007543	45.662808262173584	2.15
C 	64.71403406258375	46.3206886320438	2.15
C 	32.00507500567089	0.07983659174074696	2.15
C 	33.26348408817922	0.7377169616109513	2.15
C 	33.322947516474684	2.156471380351332	2.15
C 	34.581356598983	2.814351750221533	2.15
C 	34.640820027278465	4.233106168961914	2.15
C 	35.89922910978679	4.890986538832115	2.15
C 	35.95869253808225	6.309740957572496	2.15
C 	37.217101620590576	6.9676213274427	2.15
C 	37.27656504888604	8.38637574618308	2.15
C 	38.53497413139437	9.044256116053278	2.15
C 	38.59443755968984	10.463010534793659	2.15
C 	39.85284664219815	11.120890904663863	2.15
C 	39.91231007049362	12.539645323404244	2.15
C 	41.17071915300194	13.197525693274441	2.15
C 	41.230182581297406	14.616280112014822	2.15
C 	42.48859166380573	15.274160481885026	2.15
C 	42.548055092101194	16.692914900625407	2.15
C 	43.80646417460952	17.350795270495613	2.15
C 	43.86592760290499	18.769549689235994	2.15
C 	45.124336685413304	19.42743005910619	2.15
C 	45.18380011370877	20.84618447784657	2.15
C 	46.4422091962171	21.504064847716776	2.15
C 	46.501672624512565	22.922819266457157	2.15
C 	47.76008170702089	23.58069963632736	2.15
C 	47.819545135316346	24.99945405506774	2.15
C 	49.07795421782468	25.65733442493794	2.15
C 	49.13741764612014	27.07608884367832	2.15
C 	50.39582672862847	27.733969213548523	2.15
C 	50.45529015692393	29.152723632288904	2.15
C 	51.71369923943226	29.81060400215911	2.15
C 	51.77316266772772	31.22935842089949	2.15
C 	53.03157175023605	31.887238790769686	2.15
C 	53.091035178531506	33.30599320951007	2.15
C 	54.349444261039835	33.96387357938027	2.15
C 	54.408907689335294	35.382627998120654	2.15
C 	55.66731677184362	36.04050836799086	2.15
C 	55.72678020013909	37.45926278673124	2.15
C 	56.98518928264741	38.117143156601436	2.15
C 	57.04465271094288	39.535897575341814	2.15
C 	58.30306179345121	40.19377794521201	2.15
C 	58.36252522174667	41.6125323639524	2.15
C 	59.62093430425499	42.2704127338226	2.15
C 	59.68039773255045	43.68916715256299	2.15
C 	60.93880681505878	44.347047522433186	2.15
C 	60.99827024335425	45.765801941173564	2.15
C 	62.256679325862564	46.42368231104376	2.15
C 	29.547720268949703	0.18283027074071534	2.15
C 	30.80612935145803	0.8407106406109197	2.15
C 	30.86559277975349	2.259465059351297	2.15
C 	32.12400186226182	2.917345429221505	2.15
C 	32.18346529055728	4.336099847961882	2.15
C 	33.44187437306561	4.993980217832086	2.15
C 	33.501337801361075	6.412734636572464	2.15
C 	34.75974688386939	7.070615006442669	2.15
C 	34.819210312164856	8.489369425183046	2.15
C 	36.07761939467318	9.147249795053254	2.15
C 	36.137082822968644	10.566004213793631	2.15
C 	37.395491905476966	11.223884583663832	2.15
C 	37.45495533377243	12.64263900240421	2.15
C 	38.71336441628076	13.300519372274417	2.15
C 	38.77282784457623	14.719273791014794	2.15
C 	40.03123692708454	15.377154160884995	2.15
C 	40.09070035538001	16.795908579625372	2.15
C 	41.34910943788833	17.453788949495582	2.15
C 	41.408572866183796	18.87254336823596	2.15
C 	42.66698194869212	19.530423738106165	2.15
C 	42.726445376987584	20.949178156846543	2.15
C 	43.984854459495914	21.607058526716745	2.15
C 	44.04431788779138	23.025812945457123	2.15
C 	45.30272697029971	23.68369331532733	2.15
C 	45.36219039859517	25.102447734067706	2.15
C 	46.6205994811035	25.760328103937916	2.15
C 	46.680062909398956	27.179082522678293	2.15
C 	47.93847199190728	27.83696289254849	2.15
C 	47.99793542020274	29.25571731128887	2.15
C 	49.25634450271107	29.91359768115908	2.15
C 	49.31580793100653	31.332352099899456	2.15
C 	50.57421701351487	31.99023246976966	2.15
C 	50.63368044181033	33.40898688851004	2.15
C 	51.89208952431864	34.066867258380235	2.15
C 	51.9515529526141	35.48562167712062	2.15
C 	53.20996203512244	36.14350204699083	2.15
C 	53.269425463417896	37.5622564657312	2.15
C 	54.527834545926225	38.22013683560141	2.15
C 	54.58729797422169	39.638891254341786	2.15
C 	55.84570705673002	40.296771624211985	2.15
C 	55.90517048502549	41.71552604295237	2.15
C 	57.16357956753381	42.37340641282256	2.15
C 	57.223042995829275	43.792160831562946	2.15
C 	58.48145207833759	44.45004120143316	2.15
C 	58.540915506633056	45.868795620173536	2.15
C 	59.79932458914138	46.526675990043735	2.15
C 	27.090365532228514	0.2858239497406908	2.15
C 	28.34877461473684	0.9437043196108916	2.15
C 	28.408238043032302	2.3624587383512723	2.15
C 	29.66664712554063	3.0203391082214734	2.15
C 	29.726110553836097	4.439093526961854	2.15
C 	30.984519636344416	5.096973896832059	2.15
C 	31.04398306463988	6.5157283155724395	2.15
C 	32.30239214714821	7.17360868544264	2.15
C 	32.36185557544367	8.59236310418302	2.15
C 	33.62026465795199	9.250243474053223	2.15
C 	33.67972808624746	10.668997892793604	2.15
C 	34.93813716875578	11.326878262663808	2.15
C 	34.997600597051246	12.745632681404189	2.15
C 	36.25600967955957	13.403513051274386	2.15
C 	36.315473107855034	14.822267470014767	2.15
C 	37.573882190363356	15.480147839884971	2.15
C 	37.63334561865882	16.898902258625352	2.15
C 	38.891754701167145	17.556782628495547	2.15
C 	38.95121812946261	18.975537047235928	2.15
C 	40.20962721197093	19.633417417106134	2.15
C 	40.2690906402664	21.052171835846515	2.15
C 	41.52749972277472	21.71005220571672	2.15
C 	41.58696315107019	23.1288066244571	2.15
C 	42.84537223357851	23.786686994327297	2.15
C 	42.904835661873975	25.20544141306768	2.15
C 	44.16324474438231	25.86332178293788	2.15
C 	44.22270817267777	27.28207620167826	2.15
C 	45.48111725518609	27.939956571548468	2.15
C 	45.54058068348155	29.35871099028885	2.15
C 	46.79898976598989	30.016591360159047	2.15
C 	46.858453194285346	31.435345778899425	2.15
C 	48.11686227679367	32.09322614876963	2.15
C 	48.17632570508913	33.511980567510015	2.15
C 	49.43473478759746	34.169860937380214	2.15
C 	49.49419821589292	35.5886153561206	2.15
C 	50.75260729840125	36.2464957259908	2.15
C 	50.81207072669671	37.665250144731175	2.15
C 	52.07047980920504	38.32313051460138	2.15
C 	52.129943237500505	39.74188493334176	2.15
C 	53.38835232000883	40.399765303211964	2.15
C 	53.44781574830429	41.81851972195235	2.15
C 	54.706224830812616	42.47640009182254	2.15
C 	54.76568825910808	43.895154510562925	2.15
C 	56.02409734161641	44.553034880433124	2.15
C 	56.08356076991188	45.9717892991735	2.15
C 	57.34196985242019	46.629669669043714	2.15
C 	24.633010795507328	0.3888176287406625	2.15
C 	25.891419878015654	1.046697998610867	2.15
C 	25.95088330631112	2.4654524173512478	2.15
C 	27.209292388819446	3.1233327872214485	2.15
C 	27.26875581711491	4.542087205961829	2.15
C 	28.52716489962323	5.19996757583203	2.15
C 	28.586628327918696	6.618721994572411	2.15
C 	29.84503741042702	7.276602364442615	2.15
C 	29.904500838722488	8.695356783182996	2.15
C 	31.162909921230806	9.353237153053197	2.15
C 	31.222373349526272	10.771991571793578	2.15
C 	32.4807824320346	11.429871941663778	2.15
C 	32.54024586033006	12.84862636040416	2.15
C 	33.79865494283838	13.506506730274364	2.15
C 	33.85811837113385	14.925261149014744	2.15
C 	35.11652745364217	15.583141518884942	2.15
C 	35.175990881937636	17.001895937625324	2.15
C 	36.43439996444596	17.659776307495527	2.15
C 	36.493863392741424	19.078530726235908	2.15
C 	37.75227247524975	19.736411096106107	2.15
C 	37.81173590354521	21.155165514846487	2.15
C 	39.070144986053535	21.81304588471669	2.15
C 	39.129608414349	23.23180030345707	2.15
C 	40.38801749685733	23.889680673327277	2.15
C 	40.44748092515279	25.308435092067658	2.15
C 	41.70589000766112	25.966315461937853	2.15
C 	41.76535343595658	27.385069880678234	2.15
C 	43.023762518464906	28.04295025054844	2.15
C 	43.083225946760365	29.46170466928882	2.15
C 	44.3416350292687	30.119585039159023	2.15
C 	44.40109845756416	31.538339457899404	2.15
C 	45.65950754007248	32.1962198277696	2.15
C 	45.71897096836794	33.61497424650998	2.15
C 	46.97738005087627	34.27285461638019	2.15
C 	47.03684347917173	35.69160903512057	2.15
C 	48.29525256168006	36.34948940499077	2.15
C 	48.354715989975524	37.768243823731154	2.15
C 	49.61312507248385	38.42612419360135	2.15
C 	49.67258850077931	39.84487861234173	2.15
C 	50.93099758328764	40.50275898221194	2.15
C 	50.99046101158311	41.921513400952314	2.15
C 	52.24887009409142	42.57939377082252	2.15
C 	52.30833352238689	43.998148189562905	2.15
C 	53.56674260489522	44.6560285594331	2.15
C 	53.626206033190684	46.07478297817348	2.15
C 	54.884615115699006	46.73266334804368	2.15
C 	22.17565605878614	0.49181130774063087	2.15
C 	23.434065141294464	1.1496916776108352	2.15
C 	23.493528569589927	2.5684460963512126	2.15
C 	24.751937652098256	3.2263264662214204	2.15
C 	24.811401080393722	4.645080884961797	2.15
C 	26.069810162902044	5.302961254832002	2.15
C 	26.12927359119751	6.72171567357238	2.15
C 	27.387682673705836	7.379596043442584	2.15
C 	27.4471461020013	8.798350462182961	2.15
C 	28.70555518450962	9.45623083205317	2.15
C 	28.765018612805086	10.874985250793546	2.15
C 	30.023427695313416	11.53286562066375	2.15
C 	30.082891123608878	12.951620039404128	2.15
C 	31.3413002061172	13.609500409274332	2.15
C 	31.400763634412662	15.02825482801471	2.15
C 	32.65917271692099	15.686135197884918	2.15
C 	32.71863614521646	17.104889616625297	2.15
C 	33.97704522772477	17.762769986495496	2.15
C 	34.03650865602024	19.181524405235873	2.15
C 	35.29491773852856	19.839404775106082	2.15
C 	35.35438116682403	21.25815919384646	2.15
C 	36.61279024933235	21.91603956371666	2.15
C 	36.672253677627815	23.334793982457036	2.15
C 	37.930662760136144	23.992674352327246	2.15
C 	37.9901261884316	25.411428771067623	2.15
C 	39.24853527093993	26.06930914093783	2.15
C 	39.30799869923539	27.488063559678206	2.15
C 	40.56640778174372	28.14594392954841	2.15
C 	40.62587121003918	29.564698348288786	2.15
C 	41.884280292547516	30.222578718158992	2.15
C 	41.943743720842974	31.64133313689937	2.15
C 	43.2021528033513	32.299213506769576	2.15
C 	43.261616231646755	33.71796792550995	2.15
C 	44.52002531415509	34.37584829538015	2.15
C 	44.57948874245055	35.794602714120536	2.15
C 	45.83789782495887	36.45248308399074	2.15
C 	45.89736125325433	37.87123750273112	2.15
C 	47.15577033576267	38.529117872601326	2.15
C 	47.215233764058134	39.9478722913417	2.15
C 	48.47364284656645	40.6057526612119	2.15
C 	48.533106274861915	42.02450707995228	2.15
C 	49.791515357370244	42.68238744982249	2.15
C 	49.85097878566571	44.10114186856287	2.15
C 	51.10938786817403	44.75902223843307	2.15
C 	51.1688512964695	46.17777665717345	2.15
C 	52.42726037897782	46.83565702704365	2.15
C 	19.718301322064953	0.5948049867406044	2.15
C 	20.97671040457328	1.2526853566108072	2.15
C 	21.03617383286874	2.6714397753511863	2.15
C 	22.294582915377067	3.3293201452213887	2.15
C 	22.354046343672533	4.748074563961768	2.15
C 	23.612455426180855	5.405954933831974	2.15
C 	23.67191885447632	6.824709352572353	2.15
C 	24.93032793698465	7.4825897224425555	2.15
C 	24.989791365280116	8.901344141182935	2.15
C 	26.248200447788435	9.559224511053138	2.15
C 	26.3076638760839	10.977978929793517	2.15
C 	27.56607295859223	11.635859299663723	2.15
C 	27.625536386887692	13.054613718404102	2.15
C 	28.883945469396014	13.712494088274305	2.15
C 	28.943408897691477	15.131248507014682	2.15
C 	30.201817980199806	15.789128876884886	2.15
C 	30.261281408495268	17.207883295625265	2.15
C 	31.51969049100359	17.86576366549547	2.15
C 	31.579153919299053	19.284518084235852	2.15
C 	32.83756300180738	19.942398454106048	2.15
C 	32.89702643010285	21.36115287284643	2.15
C 	34.15543551261116	22.019033242716635	2.15
C 	34.21489894090663	23.437787661457016	2.15
C 	35.47330802341495	24.095668031327214	2.15
C 	35.53277145171042	25.514422450067592	2.15
C 	36.791180534218746	26.172302819937798	2.15
C 	36.850643962514205	27.59105723867818	2.15
C 	38.109053045022534	28.248937608548385	2.15
C 	38.16851647331799	29.667692027288766	2.15
C 	39.42692555582632	30.32557239715896	2.15
C 	39.48638898412178	31.744326815899342	2.15
C 	40.74479806663011	32.40220718576955	2.15
C 	40.80426149492557	33.820961604509925	2.15
C 	42.062670577433906	34.47884197438013	2.15
C 	42.122134005729365	35.897596393120516	2.15
C 	43.38054308823769	36.55547676299071	2.15
C 	43.440006516533145	37.97423118173109	2.15
C 	44.698415599041475	38.6321115516013	2.15
C 	44.75787902733694	40.050865970341675	2.15
C 	46.01628810984526	40.70874634021188	2.15
C 	46.07575153814073	42.12750075895226	2.15
C 	47.33416062064905	42.78538112882246	2.15
C 	47.39362404894452	44.20413554756284	2.15
C 	48.65203313145284	44.86201591743304	2.15
C 	17.260946585343767	0.6977986657405763	2.15
C 	18.519355667852093	1.3556790356107788	2.15
C 	18.578819096147555	2.7744334543511577	2.15
C 	19.83722817865588	3.4323138242213607	2.15
C 	19.896691606951347	4.851068242961739	2.15
C 	21.15510068945967	5.508948612831943	2.15
C 	21.214564117755135	6.927703031572321	2.15
C 	22.472973200263457	7.585583401442528	2.15
C 	22.532436628558923	9.004337820182906	2.15
C 	23.790845711067245	9.662218190053109	2.15
C 	23.85030913936271	11.080972608793488	2.15
C 	25.10871822187104	11.73885297866369	2.15
C 	25.168181650166506	13.15760739740407	2.15
C 	26.42659073267483	13.815487767274277	2.15
C 	26.48605416097029	15.234242186014653	2.15
C 	27.74446324347862	15.892122555884857	2.15
C 	27.803926671774082	17.310876974625238	2.15
C 	29.062335754282405	17.96875734449544	2.15
C 	29.121799182577867	19.387511763235818	2.15
C 	30.380208265086196	20.045392133106024	2.15
C 	30.43967169338166	21.4641465518464	2.15
C 	31.69808077588998	22.122026921716603	2.15
C 	31.757544204185443	23.54078134045698	2.15
C 	33.01595328669377	24.198661710327187	2.15
C 	33.07541671498924	25.617416129067564	2.15
C 	34.33382579749756	26.275296498937767	2.15
C 	34.39328922579302	27.694050917678144	2.15
C 	35.65169830830135	28.35193128754835	2.15
C 	35.71116173659681	29.770685706288727	2.15
C 	36.96957081910514	30.428566076158937	2.15
C 	37.029034247400595	31.847320494899314	2.15
C 	38.287443329908925	32.50520086476952	2.15
C 	38.34690675820438	33.92395528350989	2.15
C 	39.60531584071272	34.5818356533801	2.15
C 	39.66477926900818	36.000590072120474	2.15
C 	40.9231883515165	36.65847044199069	2.15
C 	40.98265177981196	38.077224860731064	2.15
C 	42.241060862320296	38.73510523060126	2.15
C 	42.300524290615755	40.15385964934164	2.15
C 	43.55893337312408	40.81174001921185	2.15
C 	43.61839680141954	42.230494437952224	2.15
C 	44.87680588392787	42.88837480782244	2.15
C 	44.93626931222334	44.307129226562814	2.15
C 	46.19467839473165	44.96500959643301	2.15
C 	14.803591848622585	0.8007923447405481	2.15
C 	16.06200093113091	1.4586727146107525	2.15
C 	16.121464359426373	2.8774271333511314	2.15
C 	17.379873441934695	3.5353075032213344	2.15
C 	17.43933687023016	4.9540619219617135	2.15
C 	18.697745952738483	5.611942291831916	2.15
C 	18.75720938103395	7.030696710572295	2.15
C 	20.01561846354227	7.6885770804424975	2.15
C 	20.075081891837737	9.107331499182877	2.15
C 	21.33349097434606	9.765211869053083	2.15
C 	21.392954402641525	11.183966287793462	2.15
C 	22.651363485149854	11.841846657663664	2.15
C 	22.710826913445317	13.260601076404043	2.15
C 	23.96923599595364	13.918481446274246	2.15
C 	24.0286994242491	15.337235865014625	2.15
C 	25.287108506757434	15.99511623488483	2.15
C 	25.346571935052896	17.41387065362521	2.15
C 	26.60498101756122	18.071751023495416	2.15
C 	26.66444444585668	19.490505442235794	2.15
C 	27.92285352836501	20.148385812105992	2.15
C 	27.982316956660473	21.567140230846373	2.15
C 	29.240726039168795	22.22502060071658	2.15
C 	29.300189467464257	23.64377501945696	2.15
C 	30.558598549972587	24.301655389327156	2.15
C 	30.61806197826805	25.720409808067537	2.15
C 	31.87647106077637	26.378290177937743	2.15
C 	31.935934489071837	27.797044596678123	2.15
C 	33.19434357158016	28.45492496654832	2.15
C 	33.25380699987563	29.8736793852887	2.15
C 	34.51221608238395	30.531559755158906	2.15
C 	34.57167951067941	31.950314173899287	2.15
C 	35.83008859318774	32.60819454376949	2.15
C 	35.8895520214832	34.02694896250987	2.15
C 	37.14796110399153	34.68482933238007	2.15
C 	37.207424532286986	36.103583751120446	2.15
C 	38.465833614795315	36.76146412099065	2.15
C 	38.525297043090774	38.18021853973104	2.15
C 	39.78370612559911	38.838098909601236	2.15
C 	39.843169553894576	40.25685332834162	2.15
C 	41.10157863640289	40.91473369821182	2.15
C 	41.16104206469836	42.333488116952196	2.15
C 	42.41945114720668	42.9913684868224	2.15
C 	42.478914575502145	44.41012290556278	2.15
C 	43.73732365801047	45.068003275432986	2.15
C 	12.346237111901397	0.9037860237405199	2.15
C 	13.604646194409723	1.5616663936107242	2.15
C 	13.664109622705187	2.9804208123511033	2.15
C 	14.92251870521351	3.6383011822213076	2.15
C 	14.981982133508975	5.057055600961687	2.15
C 	16.2403912160173	5.714935970831889	2.15
C 	16.299854644312763	7.133690389572268	2.15
C 	17.558263726821085	7.791570759442471	2.15
C 	17.61772715511655	9.21032517818285	2.15
C 	18.876136237624873	9.868205548053053	2.15
C 	18.93559966592034	11.286959966793432	2.15
C 	20.194008748428665	11.944840336663638	2.15
C 	20.253472176724127	13.363594755404018	2.15
C 	21.511881259232453	14.02147512527422	2.15
C 	21.571344687527915	15.440229544014597	2.15
C 	22.82975377003624	16.0981099138848	2.15
C 	22.889217198331703	17.516864332625182	2.15
C 	24.14762628084003	18.174744702495385	2.15
C 	24.20708970913549	19.593499121235766	2.15
C 	25.46549879164382	20.25137949110597	2.15
C 	25.524962219939283	21.670133909846346	2.15
C 	26.78337130244761	22.32801427971655	2.15
C 	26.84283473074307	23.746768698456933	2.15
C 	28.101243813251397	24.404649068327135	2.15
C 	28.16070724154686	25.823403487067516	2.15
C 	29.419116324055185	26.481283856937715	2.15
C 	29.47857975235065	27.900038275678096	2.15
C 	30.736988834858973	28.5579186455483	2.15
C 	30.79645226315444	29.97667306428868	2.15
C 	32.054861345662765	30.634553434158878	2.15
C 	32.114324773958224	32.05330785289926	2.15
C 	33.37273385646655	32.711188222769465	2.15
C 	33.43219728476201	34.12994264150984	2.15
C 	34.69060636727034	34.78782301138005	2.15
C 	34.7500697955658	36.206577430120426	2.15
C 	36.00847887807413	36.864457799990625	2.15
C 	36.06794230636959	38.28321221873101	2.15
C 	37.326351388877924	38.94109258860121	2.15
C 	37.38581481717339	40.35984700734159	2.15
C 	38.644223899681705	41.0177273772118	2.15
C 	38.70368732797717	42.436481795952176	2.15
C 	39.9620964104855	43.094362165822375	2.15
C 	40.021559838780966	44.51311658456275	2.15
C 	41.27996892128928	45.17099695443296	2.15
C 	9.88888237518021	1.0067797027404917	2.15
C 	11.147291457688533	1.6646600726106944	2.15
C 	11.206754885983997	3.0834144913510735	2.15
C 	12.465163968492325	3.7412948612212777	2.15
C 	12.524627396787789	5.160049279961656	2.15
C 	13.783036479296115	5.817929649831862	2.15
C 	13.842499907591577	7.236684068572241	2.15
C 	15.100908990099903	7.894564438442443	2.15
C 	15.160372418395365	9.313318857182821	2.15
C 	16.41878150090369	9.971199227053024	2.15
C 	16.478244929199153	11.389953645793403	2.15
C 	17.736654011707476	12.047834015663607	2.15
C 	17.79611744000294	13.466588434403985	2.15
C 	19.054526522511267	14.124468804274192	2.15
C 	19.11398995080673	15.543223223014568	2.15
C 	20.372399033315055	16.201103592884774	2.15
C 	20.431862461610518	17.619858011625155	2.15
C 	21.690271544118843	18.277738381495354	2.15
C 	21.749734972414306	19.69649280023573	2.15
C 	23.00814405492263	20.35437317010594	2.15
C 	23.067607483218094	21.773127588846318	2.15
C 	24.32601656572642	22.43100795871652	2.15
C 	24.385479994021882	23.8497623774569	2.15
C 	25.64388907653021	24.507642747327104	2.15
C 	25.703352504825673	25.92639716606748	2.15
C 	26.961761587334	26.584277535937687	2.15
C 	27.021225015629465	28.003031954678065	2.15
C 	28.279634098137787	28.660912324548267	2.15
C 	28.339097526433253	30.079666743288644	2.15
C 	29.597506608941575	30.737547113158854	2.15
C 	29.65697003723704	32.15630153189923	2.15
C 	30.915379119745364	32.81418190176944	2.15
C 	30.97484254804083	34.23293632050981	2.15
C 	32.233251630549155	34.890816690380014	2.15
C 	32.292715058844614	36.30957110912039	2.15
C 	33.55112414135294	36.967451478990604	2.15
C 	33.6105875696484	38.38620589773098	2.15
C 	34.86899665215673	39.04408626760118	2.15
C 	34.92846008045219	40.46284068634156	2.15
C 	36.18686916296052	41.120721056211764	2.15
C 	36.246332591255985	42.53947547495214	2.15
C 	37.504741673764315	43.197355844822354	2.15
C 	37.56420510205978	44.616110263562724	2.15
C 	38.822614184568096	45.27399063343293	2.15
C 	6.113655127655235	-0.966861406870119	2.15
C 	7.37206421016356	-0.30898103699991547	2.15
C 	7.431527638459024	1.1097733817404636	2.15
C 	8.689936720967347	1.7676537516106672	2.15
C 	8.749400149262812	3.1864081703510463	2.15
C 	10.007809231771136	3.8442885402212488	2.15
C 	10.0672726600666	5.263042958961628	2.15
C 	11.325681742574927	5.920923328831832	2.15
C 	11.38514517087039	7.339677747572211	2.15
C 	12.643554253378717	7.997558117442415	2.15
C 	12.703017681674181	9.416312536182796	2.15
C 	13.961426764182505	10.074192906052996	2.15
C 	14.02089019247797	11.492947324793377	2.15
C 	15.279299274986293	12.150827694663578	2.15
C 	15.338762703281757	13.569582113403959	2.15
C 	16.59717178579008	14.22746248327416	2.15
C 	16.656635214085544	15.64621690201454	2.15
C 	17.91504429659387	16.304097271884746	2.15
C 	17.97450772488933	17.722851690625127	2.15
C 	19.232916807397658	18.380732060495326	2.15
C 	19.29238023569312	19.799486479235707	2.15
C 	20.550789318201446	20.45736684910591	2.15
C 	20.610252746496908	21.87612126784629	2.15
C 	21.868661829005234	22.534001637716493	2.15
C 	21.928125257300696	23.952756056456874	2.15
C 	23.186534339809022	24.610636426327076	2.15
C 	23.245997768104484	26.029390845067457	2.15
C 	24.50440685061281	26.687271214937656	2.15
C 	24.563870278908276	28.106025633678037	2.15
C 	25.8222793614166	28.763906003548243	2.15
C 	25.881742789712067	30.182660422288624	2.15
C 	27.14015187222039	30.84054079215882	2.15
C 	27.199615300515855	32.259295210899204	2.15
C 	28.458024383024178	32.9171755807694	2.15
C 	28.517487811319643	34.33592999950979	2.15
C 	29.775896893827966	34.993810369379986	2.15
C 	29.83536032212343	36.41256478812036	2.15
C 	31.093769404631757	37.07044515799057	2.15
C 	31.15323283292722	38.48919957673095	2.15
C 	32.411641915435546	39.14707994660115	2.15
C 	32.47110534373101	40.56583436534154	2.15
C 	33.729514426239334	41.223714735211736	2.15
C 	33.7889778545348	42.64246915395211	2.15
C 	35.04738693704313	43.30034952382232	2.15
C 	35.106850365338595	44.7191039425627	2.15
C 	36.36525944784691	45.3769843124329	2.15
C 	3.656300390934048	-0.8638677278701472	2.15
C 	4.914709473442373	-0.20598735799994364	2.15
C 	4.974172901737837	1.2127670607404353	2.15
C 	6.2325819842461625	1.8706474306106389	2.15
C 	6.2920454125416265	3.2894018493510178	2.15
C 	7.5504544950499515	3.9472822192212216	2.15
C 	7.609917923345415	5.3660366379616	2.15
C 	8.868327005853738	6.023917007831804	2.15
C 	8.927790434149202	7.442671426572182	2.15
C 	10.186199516657528	8.100551796442387	2.15
C 	10.24566294495299	9.519306215182766	2.15
C 	11.504072027461316	10.17718658505297	2.15
C 	11.56353545575678	11.59594100379335	2.15
C 	12.821944538265106	12.253821373663552	2.15
C 	12.88140796656057	13.672575792403931	2.15
C 	14.139817049068894	14.330456162274134	2.15
C 	14.199280477364358	15.749210581014513	2.15
C 	15.457689559872682	16.40709095088472	2.15
C 	15.517152988168146	17.825845369625092	2.15
C 	16.77556207067647	18.483725739495302	2.15
C 	16.835025498971934	19.90248015823568	2.15
C 	18.09343458148026	20.560360528105882	2.15
C 	18.152898009775722	21.979114946846263	2.15
C 	19.411307092284048	22.636995316716465	2.15
C 	19.47077052057951	24.055749735456843	2.15
C 	20.729179603087836	24.713630105327052	2.15
C 	20.788643031383298	26.13238452406743	2.15
C 	22.047052113891624	26.79026489393763	2.15
C 	22.10651554218709	28.20901931267801	2.15
C 	23.364924624695412	28.866899682548215	2.15
C 	23.424388052990878	30.285654101288593	2.15
C 	24.6827971354992	30.9435344711588	2.15
C 	24.742260563794666	32.36228888989918	2.15
C 	26.000669646302992	33.020169259769375	2.15
C 	26.060133074598458	34.43892367850976	2.15
C 	27.31854215710678	35.096804048379965	2.15
C 	27.378005585402246	36.515558467120336	2.15
C 	28.63641466791057	37.17343883699054	2.15
C 	28.695878096206034	38.59219325573091	2.15
C 	29.95428717871436	39.250073625601125	2.15
C 	30.013750607009822	40.66882804434151	2.15
C 	31.272159689518148	41.32670841421171	2.15
C 	31.33162311781361	42.745462832952086	2.15
C 	32.590032200321936	43.40334320282229	2.15
C 	32.6494956286174	44.82209762156266	2.15
C 	33.907904711125724	45.479977991432875	2.15
C 	2.4573547367211863	-0.10299367899997182	2.15
C 	2.51681816501665	1.3157607397404072	2.15
C 	3.7752272475249757	1.9736411096106108	2.15
C 	3.8346906758204393	3.3923955283509897	2.15
C 	5.093099758328764	4.0502758982211935	2.15
C 	5.152563186624227	5.469030316961573	2.15
C 	6.410972269132553	6.126910686831776	2.15
C 	6.470435697428017	7.545665105572155	2.15
C 	7.728844779936341	8.20354547544236	2.15
C 	7.788308208231805	9.622299894182735	2.15
C 	9.04671729074013	10.280180264052941	2.15
C 	9.106180719035594	11.69893468279332	2.15
C 	10.364589801543918	12.356815052663526	2.15
C 	10.424053229839382	13.775569471403903	2.15
C 	11.682462312347706	14.433449841274108	2.15
C 	11.74192574064317	15.852204260014485	2.15
C 	13.000334823151496	16.510084629884688	2.15
C 	13.05979825144696	17.928839048625065	2.15
C 	14.318207333955286	18.58671941849527	2.15
C 	14.377670762250748	20.005473837235648	2.15
C 	15.636079844759074	20.663354207105854	2.15
C 	15.695543273054538	22.08210862584623	2.15
C 	16.953952355562862	22.739988995716438	2.15
C 	17.013415783858328	24.158743414456815	2.15
C 	18.27182486636665	24.816623784327017	2.15
C 	18.331288294662112	26.235378203067395	2.15
C 	19.589697377170438	26.893258572937604	2.15
C 	19.649160805465904	28.31201299167798	2.15
C 	20.907569887974226	28.969893361548188	2.15
C 	20.967033316269692	30.38864778028856	2.15
C 	22.225442398778014	31.046528150158768	2.15
C 	22.28490582707348	32.46528256889915	2.15
C 	23.543314909581802	33.12316293876935	2.15
C 	23.602778337877268	34.54191735750973	2.15
C 	24.86118742038559	35.19979772737993	2.15
C 	24.920650848681056	36.61855214612031	2.15
C 	26.179059931189386	37.276432515990514	2.15
C 	26.238523359484848	38.69518693473089	2.15
C 	27.496932441993174	39.35306730460109	2.15
C 	27.556395870288636	40.771821723341475	2.15
C 	28.814804952796962	41.429702093211674	2.15
C 	28.874268381092424	42.84845651195206	2.15
C 	30.13267746360075	43.506336881822264	2.15
C 	30.192140891896212	44.92509130056264	2.15
C 	31.450549974404538	45.58297167043284	2.15
C 	3.9536175324113665	6.2299043658317474	2.15
C 	4.01308096070683	7.648658784572127	2.15
C 	5.271490043215154	8.30653915444233	2.15
C 	5.330953471510618	9.725293573182709	2.15
C 	6.589362554018944	10.383173943052912	2.15
C 	6.648825982314407	11.80192836179329	2.15
C 	7.907235064822733	12.459808731663495	2.15
C 	7.966698493118197	13.878563150403874	2.15
C 	9.22510757562652	14.536443520274078	2.15
C 	9.284571003921984	15.955197939014456	2.15
C 	10.542980086430308	16.61307830888466	2.15
C 	10.602443514725772	18.03183272762504	2.15
C 	11.860852597234098	18.689713097495243	2.15
C 	11.92031602552956	20.10846751623562	2.15
C 	13.178725108037888	20.766347886105823	2.15
C 	13.238188536333352	22.185102304846204	2.15
C 	14.496597618841676	22.84298267471641	2.15
C 	14.55606104713714	24.26173709345679	2.15
C 	15.814470129645466	24.91961746332699	2.15
C 	15.87393355794093	26.338371882067367	2.15
C 	17.132342640449256	26.996252251937573	2.15
C 	17.191806068744718	28.415006670677954	2.15
C 	18.45021515125304	29.072887040548157	2.15
C 	18.509678579548506	30.491641459288537	2.15
C 	19.76808766205683	31.14952182915874	2.15
C 	19.827551090352294	32.568276247899114	2.15
C 	21.085960172860617	33.22615661776932	2.15
C 	21.145423601156082	34.644911036509704	2.15
C 	22.403832683664405	35.3027914063799	2.15
C 	22.46329611195987	36.72154582512029	2.15
C 	23.721705194468196	37.37942619499049	2.15
C 	23.78116862276366	38.798180613730864	2.15
C 	25.039577705271984	39.45606098360107	2.15
C 	25.099041133567447	40.87481540234145	2.15
C 	26.357450216075776	41.532695772211646	2.15
C 	26.41691364437124	42.95145019095203	2.15
C 	27.675322726879564	43.60933056082224	2.15
C 	27.734786155175026	45.028084979562614	2.15
C 	28.993195237683352	45.68596534943282	2.15
H 	51.61826843687557	-1.8331567250667833	2.15
H 	53.842639420745904	-0.6702836769159296	2.15
H 	55.160511931549685	1.4063511116946399	2.15
H 	56.47838444235348	3.482985900305234	2.15
H 	57.79625695315726	5.559620688915814	2.15
H 	59.11412946396105	7.6362554775263956	2.15
H 	60.43200197476484	9.712890266136979	2.15
H 	61.74987448556863	11.789525054747568	2.15
H 	63.06774699637241	13.866159843358139	2.15
H 	64.3856195071762	15.94279463196873	2.15
H 	65.70349201798	18.019429420579318	2.15
H 	67.02136452878379	20.096064209189894	2.15
H 	68.33923703958759	22.17269899780047	2.15
H 	69.65710955039137	24.249333786411068	2.15
H 	70.97498206119513	26.325968575021633	2.15
H 	72.29285457199896	28.40260336363222	2.15
H 	73.61072708280273	30.479238152242818	2.15
H 	74.9285995936065	32.55587294085338	2.15
H 	75.0337074844668	35.06367124440153	2.15
H 	49.16091370015438	-1.7301630460668123	2.15
H 	75.10698987849291	36.81213619707454	2.15
H 	75.21209776935319	39.319934500622665	2.15
H 	46.70355896343318	-1.6271693670668395	2.15
H 	74.0726155434358	41.499562968233214	2.15
H 	44.246204226711995	-1.5241756880668675	2.15
H 	72.93313331751841	43.67919143584377	2.15
H 	41.78884948999081	-1.421182009066896	2.15
H 	71.793651091601	45.858819903454325	2.15
H 	39.331494753269624	-1.3181883300669242	2.15
H 	69.67438799859094	47.2037451588516	2.15
H 	36.87414001654844	-1.2151946510669558	2.15
H 	67.21703326186976	47.306738837851576	2.15
H 	34.41678527982725	-1.1122009720669805	2.15
H 	64.75967852514857	47.409732516851555	2.15
H 	31.959430543106055	-1.0092072930670084	2.15
H 	62.30232378842739	47.51272619585152	2.15
H 	29.50207580638488	-0.9062136140670406	2.15
H 	59.8449690517062	47.61571987485149	2.15
H 	27.044721069663684	-0.8032199350670647	2.15
H 	57.387614314985015	47.71871355385147	2.15
H 	24.587366332942498	-0.700226256067093	2.15
H 	54.93025957826383	47.82170723285144	2.15
H 	22.13001159622131	-0.5972325770671248	2.15
H 	50.248533857672314	46.761827863700574	2.15
H 	52.47290484154264	47.92470091185141	2.15
H 	19.672656859500123	-0.49423889806715104	2.15
H 	48.69767759401766	45.9510598022408	2.15
H 	17.215302122778933	-0.39124521906717924	2.15
H 	46.240322857296476	46.05405348124077	2.15
H 	14.757947386057756	-0.28825154006720766	2.15
H 	43.78296812057529	46.157047160240744	2.15
H 	12.30059264933657	-0.18525786106723585	2.15
H 	41.325613383854105	46.260040839240716	2.15
H 	9.843237912615383	-0.08226418206726405	2.15
H 	38.86825864713291	46.36303451824069	2.15
H 	6.068010665090409	-2.055905291677875	2.15
H 	8.292381648960756	-0.8930322435270219	2.15
H 	36.410903910411726	46.46602819724066	2.15
H 	3.610655928369221	-1.952911612677903	2.15
H 	33.95354917369055	46.56902187624063	2.15
H 	1.4913928353591621	-0.6079863572806211	2.15
H 	1.5965007262194535	1.8998119462675134	2.15
H 	2.914373237023243	3.9764467348780963	2.15
H 	31.49619443696936	46.6720155552406	2.15
H 	2.9876556310493427	5.7249116875510975	2.15
H 	3.0927635219096343	8.232709991099235	2.15
H 	4.4106360327134215	10.309344779709814	2.15
H 	5.7285085435172105	12.385979568320396	2.15
H 	7.046381054321001	14.462614356930981	2.15
H 	8.364253565124788	16.53924914554156	2.15
H 	9.682126075928577	18.615883934152148	2.15
H 	10.999998586732364	20.692518722762728	2.15
H 	12.317871097536157	22.76915351137331	2.15
H 	13.635743608339947	24.845788299983905	2.15
H 	14.953616119143732	26.92242308859447	2.15
H 	16.271488629947523	28.99905787720506	2.15
H 	17.58936114075131	31.075692665815648	2.15
H 	18.907233651555096	33.152327454426214	2.15
H 	20.225106162358887	35.22896224303681	2.15
H 	21.54297867316268	37.3055970316474	2.15
H 	22.860851183966457	39.382231820257964	2.15
H 	24.17872369477025	41.458866608868554	2.15
H 	25.496596205574043	43.53550139747914	2.15
H 	26.81446871637783	45.61213618608972	2.15
H 	29.038839700248182	46.77500923424058	2.15
