2322

C 	0.0	0.0	0.0
C 	1.2297560733739028	0.7099999999999999	0.0
C 	2.4595121467478056	-2.3647750424515833e-16	0.0
C 	3.689268220121708	0.7099999999999995	0.0
C 	4.919024293495611	-4.729550084903167e-16	0.0
C 	6.148780366869514	0.7099999999999993	0.0
C 	7.378536440243416	-7.09432512735475e-16	0.0
C 	8.60829251361732	0.7099999999999991	0.0
C 	9.838048586991222	-9.459100169806333e-16	0.0
C 	11.067804660365125	0.7099999999999989	0.0
C 	12.297560733739026	-1.1823875212257916e-15	0.0
C 	13.527316807112928	0.7099999999999986	0.0
C 	14.757072880486833	-1.41886502547095e-15	0.0
C 	15.986828953860735	0.7099999999999984	0.0
C 	17.21658502723464	-7.671641100159832e-16	0.0
C 	18.44634110060854	0.7099999999999982	0.0
C 	19.676097173982445	-1.8918200339612667e-15	0.0
C 	20.905853247356347	0.7099999999999989	0.0
C 	22.135609320730246	-2.128297538206425e-15	0.0
C 	23.36536539410415	0.7099999999999967	0.0
C 	24.59512146747805	-2.364775042451583e-15	0.0
C 	25.824877540851954	0.7099999999999983	0.0
C 	27.05463361422586	-8.248957072964913e-16	0.0
C 	28.284389687599763	0.7099999999999999	0.0
C 	29.514145760973665	-2.8377300509419e-15	0.0
C 	30.743901834347565	0.7099999999999961	0.0
C 	31.97365790772147	-3.0742075551870582e-15	0.0
C 	33.20341398109537	0.7099999999999976	0.0
C 	34.43317005446928	-1.5343282200319664e-15	0.0
C 	35.66292612784318	0.7099999999999992	0.0
C 	36.892682201217085	-1.7708057242771246e-15	0.0
C 	38.122438274590984	0.7099999999999972	0.0
C 	39.35219434796489	-3.783640067922533e-15	0.0
C 	40.58195042133879	0.7099999999999969	0.0
C 	41.811706494712695	-4.67403893367191e-16	0.0
C 	43.0414625680866	0.7100000000000002	0.0
C 	44.27121864146049	-4.25659507641285e-15	0.0
C 	45.5009747148344	0.7099999999999964	0.0
C 	46.730730788208305	-9.403589018575075e-16	0.0
C 	47.96048686158221	0.7099999999999997	0.0
C 	49.1902429349561	-4.729550084903166e-15	0.0
C 	50.41999900833001	0.709999999999996	0.0
C 	51.64975508170391	-1.413313910347824e-15	0.0
C 	52.879511155077815	0.7099999999999993	0.0
C 	54.10926722845172	-1.6497914145929826e-15	0.0
C 	55.33902330182562	0.7099999999999991	0.0
C 	56.56877937519952	-5.438982597638641e-15	0.0
C 	57.798535448573425	0.7099999999999953	0.0
C 	59.02829152194733	-5.6754601018838e-15	0.0
C 	60.25804759532124	0.709999999999995	0.0
C 	1.2297560733739028	2.1299999999999994	0.0
C 	2.4595121467478056	2.8399999999999994	0.0
C 	3.689268220121708	2.1299999999999994	0.0
C 	4.919024293495611	2.8399999999999994	0.0
C 	6.148780366869514	2.129999999999999	0.0
C 	7.378536440243416	2.839999999999999	0.0
C 	8.60829251361732	2.1299999999999986	0.0
C 	9.838048586991222	2.8399999999999985	0.0
C 	11.067804660365123	2.129999999999998	0.0
C 	12.297560733739028	2.839999999999999	0.0
C 	13.527316807112928	2.1299999999999977	0.0
C 	14.757072880486833	2.839999999999998	0.0
C 	15.986828953860735	2.129999999999998	0.0
C 	17.216585027234636	2.839999999999997	0.0
C 	18.446341100608542	2.129999999999998	0.0
C 	19.676097173982445	2.8399999999999985	0.0
C 	20.905853247356344	2.1299999999999977	0.0
C 	22.13560932073025	2.8399999999999985	0.0
C 	23.36536539410415	2.129999999999997	0.0
C 	24.595121467478055	2.839999999999997	0.0
C 	25.824877540851954	2.1299999999999963	0.0
C 	27.05463361422586	2.839999999999997	0.0
C 	28.284389687599763	2.129999999999998	0.0
C 	29.514145760973665	2.8399999999999985	0.0
C 	30.743901834347568	2.129999999999996	0.0
C 	31.97365790772147	2.8399999999999967	0.0
C 	33.20341398109537	2.129999999999996	0.0
C 	34.43317005446928	2.8399999999999963	0.0
C 	35.66292612784318	2.1299999999999972	0.0
C 	36.89268220121708	2.8399999999999963	0.0
C 	38.122438274590984	2.129999999999997	0.0
C 	39.35219434796489	2.8399999999999976	0.0
C 	40.58195042133879	2.1299999999999986	0.0
C 	41.81170649471269	2.839999999999996	0.0
C 	43.0414625680866	2.129999999999998	0.0
C 	44.2712186414605	2.8399999999999954	0.0
C 	45.5009747148344	2.129999999999998	0.0
C 	46.7307307882083	2.8399999999999954	0.0
C 	47.96048686158221	2.1299999999999977	0.0
C 	49.19024293495611	2.839999999999995	0.0
C 	50.41999900833001	2.1299999999999977	0.0
C 	51.64975508170391	2.8399999999999945	0.0
C 	52.879511155077815	2.1299999999999972	0.0
C 	54.10926722845171	2.8399999999999945	0.0
C 	55.33902330182563	2.130000000000001	0.0
C 	56.56877937519952	2.8399999999999976	0.0
C 	57.798535448573425	2.129999999999997	0.0
C 	59.028291521947324	2.839999999999994	0.0
C 	60.25804759532124	2.129999999999997	0.0
C 	61.487803668695136	2.8399999999999936	0.0
C 	2.4595121467478056	4.259999999999999	0.0
C 	3.689268220121708	4.969999999999999	0.0
C 	4.919024293495611	4.259999999999999	0.0
C 	6.148780366869514	4.969999999999999	0.0
C 	7.378536440243416	4.259999999999999	0.0
C 	8.60829251361732	4.969999999999999	0.0
C 	9.83804858699122	4.259999999999998	0.0
C 	11.067804660365125	4.969999999999999	0.0
C 	12.297560733739028	4.259999999999998	0.0
C 	13.52731680711293	4.969999999999998	0.0
C 	14.757072880486831	4.259999999999998	0.0
C 	15.986828953860735	4.969999999999998	0.0
C 	17.21658502723464	4.259999999999997	0.0
C 	18.446341100608542	4.969999999999998	0.0
C 	19.676097173982445	4.259999999999999	0.0
C 	20.905853247356347	4.969999999999997	0.0
C 	22.135609320730246	4.259999999999996	0.0
C 	23.365365394104153	4.969999999999997	0.0
C 	24.595121467478055	4.259999999999998	0.0
C 	25.824877540851958	4.969999999999997	0.0
C 	27.054633614225857	4.259999999999995	0.0
C 	28.28438968759976	4.969999999999996	0.0
C 	29.514145760973665	4.259999999999997	0.0
C 	30.743901834347568	4.969999999999997	0.0
C 	31.97365790772147	4.259999999999996	0.0
C 	33.20341398109537	4.969999999999995	0.0
C 	34.43317005446927	4.2599999999999945	0.0
C 	35.66292612784318	4.969999999999995	0.0
C 	36.892682201217085	4.259999999999996	0.0
C 	38.122438274590984	4.969999999999997	0.0
C 	39.35219434796489	4.259999999999997	0.0
C 	40.58195042133879	4.969999999999994	0.0
C 	41.81170649471269	4.259999999999995	0.0
C 	43.041462568086594	4.969999999999996	0.0
C 	44.2712186414605	4.259999999999997	0.0
C 	45.500974714834406	4.969999999999998	0.0
C 	46.7307307882083	4.259999999999994	0.0
C 	47.960486861582204	4.9699999999999935	0.0
C 	49.19024293495611	4.259999999999996	0.0
C 	50.41999900833001	4.969999999999997	0.0
C 	51.64975508170391	4.259999999999993	0.0
C 	52.879511155077815	4.9699999999999935	0.0
C 	54.10926722845171	4.259999999999996	0.0
C 	55.33902330182562	4.969999999999997	0.0
C 	56.568779375199526	4.259999999999996	0.0
C 	57.798535448573425	4.969999999999996	0.0
C 	59.028291521947324	4.259999999999995	0.0
C 	60.25804759532123	4.969999999999996	0.0
C 	61.487803668695136	4.259999999999992	0.0
C 	62.717559742069035	4.969999999999993	0.0
C 	3.6892682201217086	6.389999999999999	0.0
C 	4.919024293495611	7.099999999999999	0.0
C 	6.148780366869514	6.389999999999999	0.0
C 	7.378536440243416	7.099999999999999	0.0
C 	8.608292513617318	6.389999999999998	0.0
C 	9.838048586991222	7.099999999999999	0.0
C 	11.067804660365125	6.389999999999998	0.0
C 	12.297560733739028	7.099999999999998	0.0
C 	13.52731680711293	6.389999999999999	0.0
C 	14.757072880486833	7.099999999999998	0.0
C 	15.986828953860735	6.389999999999998	0.0
C 	17.216585027234636	7.099999999999997	0.0
C 	18.44634110060854	6.389999999999997	0.0
C 	19.676097173982445	7.099999999999998	0.0
C 	20.905853247356347	6.389999999999998	0.0
C 	22.13560932073025	7.099999999999997	0.0
C 	23.365365394104153	6.389999999999998	0.0
C 	24.59512146747805	7.099999999999997	0.0
C 	25.824877540851958	6.389999999999998	0.0
C 	27.054633614225857	7.099999999999997	0.0
C 	28.28438968759976	6.389999999999999	0.0
C 	29.514145760973662	7.099999999999997	0.0
C 	30.743901834347568	6.389999999999999	0.0
C 	31.97365790772147	7.099999999999998	0.0
C 	33.20341398109537	6.389999999999995	0.0
C 	34.43317005446928	7.099999999999994	0.0
C 	35.66292612784318	6.389999999999995	0.0
C 	36.892682201217085	7.099999999999996	0.0
C 	38.122438274590984	6.389999999999996	0.0
C 	39.35219434796489	7.099999999999997	0.0
C 	40.58195042133879	6.389999999999994	0.0
C 	41.811706494712695	7.099999999999995	0.0
C 	43.041462568086594	6.389999999999996	0.0
C 	44.2712186414605	7.099999999999997	0.0
C 	45.500974714834406	6.389999999999998	0.0
C 	46.730730788208305	7.099999999999998	0.0
C 	47.960486861582204	6.389999999999995	0.0
C 	49.19024293495611	7.099999999999996	0.0
C 	50.41999900833001	6.389999999999995	0.0
C 	51.649755081703915	7.099999999999996	0.0
C 	52.879511155077815	6.389999999999995	0.0
C 	54.10926722845172	7.099999999999996	0.0
C 	55.33902330182562	6.389999999999995	0.0
C 	56.568779375199526	7.099999999999995	0.0
C 	57.79853544857343	6.389999999999998	0.0
C 	59.02829152194733	7.099999999999999	0.0
C 	60.25804759532123	6.389999999999994	0.0
C 	61.487803668695136	7.099999999999995	0.0
C 	62.71755974206904	6.389999999999994	0.0
C 	63.94731581544294	7.099999999999995	0.0
C 	4.919024293495611	8.519999999999998	0.0
C 	6.148780366869514	9.229999999999999	0.0
C 	7.378536440243416	8.519999999999998	0.0
C 	8.60829251361732	9.229999999999999	0.0
C 	9.838048586991222	8.519999999999998	0.0
C 	11.067804660365125	9.229999999999999	0.0
C 	12.297560733739028	8.519999999999998	0.0
C 	13.52731680711293	9.229999999999997	0.0
C 	14.757072880486833	8.519999999999998	0.0
C 	15.986828953860737	9.229999999999999	0.0
C 	17.216585027234636	8.519999999999998	0.0
C 	18.44634110060854	9.229999999999997	0.0
C 	19.67609717398244	8.519999999999996	0.0
C 	20.905853247356347	9.229999999999997	0.0
C 	22.13560932073025	8.519999999999998	0.0
C 	23.365365394104153	9.229999999999999	0.0
C 	24.595121467478055	8.519999999999996	0.0
C 	25.824877540851954	9.229999999999995	0.0
C 	27.05463361422586	8.519999999999996	0.0
C 	28.284389687599763	9.229999999999997	0.0
C 	29.514145760973662	8.519999999999996	0.0
C 	30.743901834347565	9.229999999999995	0.0
C 	31.97365790772147	8.52	0.0
C 	33.20341398109537	9.229999999999997	0.0
C 	34.43317005446928	8.519999999999994	0.0
C 	35.66292612784318	9.229999999999995	0.0
C 	36.89268220121708	8.519999999999992	0.0
C 	38.122438274590984	9.229999999999993	0.0
C 	39.35219434796489	8.519999999999998	0.0
C 	40.58195042133879	9.229999999999995	0.0
C 	41.811706494712695	8.519999999999994	0.0
C 	43.0414625680866	9.229999999999995	0.0
C 	44.27121864146049	8.519999999999992	0.0
C 	45.5009747148344	9.229999999999993	0.0
C 	46.730730788208305	8.519999999999998	0.0
C 	47.960486861582204	9.229999999999995	0.0
C 	49.19024293495611	8.519999999999996	0.0
C 	50.41999900833001	9.229999999999993	0.0
C 	51.64975508170391	8.519999999999994	0.0
C 	52.879511155077815	9.229999999999995	0.0
C 	54.10926722845171	8.51999999999999	0.0
C 	55.33902330182562	9.229999999999992	0.0
C 	56.568779375199526	8.519999999999998	0.0
C 	57.798535448573425	9.229999999999995	0.0
C 	59.02829152194733	8.519999999999994	0.0
C 	60.25804759532123	9.229999999999993	0.0
C 	61.48780366869513	8.519999999999992	0.0
C 	62.717559742069035	9.229999999999993	0.0
C 	63.94731581544294	8.519999999999992	0.0
C 	65.17707188881684	9.22999999999999	0.0
C 	6.148780366869514	10.649999999999997	0.0
C 	7.378536440243416	11.359999999999998	0.0
C 	8.608292513617318	10.649999999999997	0.0
C 	9.838048586991222	11.359999999999998	0.0
C 	11.067804660365125	10.649999999999997	0.0
C 	12.297560733739028	11.359999999999996	0.0
C 	13.52731680711293	10.649999999999997	0.0
C 	14.757072880486831	11.359999999999996	0.0
C 	15.986828953860735	10.649999999999997	0.0
C 	17.216585027234636	11.359999999999996	0.0
C 	18.44634110060854	10.649999999999997	0.0
C 	19.676097173982445	11.359999999999998	0.0
C 	20.905853247356347	10.649999999999997	0.0
C 	22.13560932073025	11.359999999999996	0.0
C 	23.365365394104153	10.649999999999997	0.0
C 	24.595121467478055	11.359999999999996	0.0
C 	25.824877540851958	10.649999999999997	0.0
C 	27.05463361422586	11.359999999999996	0.0
C 	28.284389687599763	10.649999999999995	0.0
C 	29.514145760973662	11.359999999999994	0.0
C 	30.743901834347565	10.649999999999995	0.0
C 	31.97365790772147	11.359999999999996	0.0
C 	33.20341398109537	10.649999999999997	0.0
C 	34.43317005446928	11.359999999999998	0.0
C 	35.66292612784318	10.649999999999991	0.0
C 	36.89268220121708	11.359999999999992	0.0
C 	38.122438274590984	10.649999999999993	0.0
C 	39.35219434796489	11.359999999999994	0.0
C 	40.58195042133879	10.649999999999993	0.0
C 	41.811706494712695	11.359999999999994	0.0
C 	43.041462568086594	10.649999999999991	0.0
C 	44.2712186414605	11.359999999999992	0.0
C 	45.5009747148344	10.649999999999993	0.0
C 	46.730730788208305	11.359999999999994	0.0
C 	47.960486861582204	10.649999999999995	0.0
C 	49.19024293495611	11.359999999999996	0.0
C 	50.41999900833001	10.649999999999993	0.0
C 	51.649755081703915	11.359999999999994	0.0
C 	52.879511155077815	10.649999999999995	0.0
C 	54.10926722845172	11.359999999999996	0.0
C 	55.33902330182562	10.649999999999993	0.0
C 	56.568779375199526	11.359999999999994	0.0
C 	57.798535448573425	10.649999999999993	0.0
C 	59.02829152194733	11.359999999999992	0.0
C 	60.25804759532124	10.649999999999995	0.0
C 	61.487803668695136	11.359999999999996	0.0
C 	62.717559742069035	10.649999999999991	0.0
C 	63.94731581544294	11.359999999999992	0.0
C 	65.17707188881684	10.649999999999991	0.0
C 	66.40682796219075	11.359999999999992	0.0
C 	7.378536440243417	12.779999999999998	0.0
C 	8.60829251361732	13.489999999999998	0.0
C 	9.838048586991222	12.78	0.0
C 	11.067804660365125	13.489999999999997	0.0
C 	12.297560733739028	12.779999999999998	0.0
C 	13.527316807112932	13.489999999999998	0.0
C 	14.757072880486833	12.779999999999998	0.0
C 	15.986828953860737	13.489999999999997	0.0
C 	17.216585027234636	12.779999999999996	0.0
C 	18.446341100608542	13.489999999999997	0.0
C 	19.676097173982445	12.779999999999998	0.0
C 	20.905853247356347	13.489999999999997	0.0
C 	22.13560932073025	12.779999999999996	0.0
C 	23.36536539410415	13.489999999999995	0.0
C 	24.595121467478055	12.779999999999996	0.0
C 	25.824877540851958	13.489999999999997	0.0
C 	27.05463361422586	12.779999999999998	0.0
C 	28.284389687599763	13.489999999999997	0.0
C 	29.514145760973662	12.779999999999996	0.0
C 	30.743901834347568	13.489999999999997	0.0
C 	31.97365790772147	12.779999999999996	0.0
C 	33.20341398109537	13.489999999999997	0.0
C 	34.43317005446928	12.779999999999998	0.0
C 	35.66292612784318	13.489999999999995	0.0
C 	36.89268220121708	12.779999999999994	0.0
C 	38.122438274590984	13.489999999999995	0.0
C 	39.35219434796489	12.779999999999996	0.0
C 	40.581950421338796	13.489999999999997	0.0
C 	41.811706494712695	12.779999999999996	0.0
C 	43.041462568086594	13.489999999999993	0.0
C 	44.2712186414605	12.779999999999994	0.0
C 	45.5009747148344	13.489999999999995	0.0
C 	46.730730788208305	12.779999999999996	0.0
C 	47.96048686158221	13.489999999999997	0.0
C 	49.19024293495611	12.779999999999998	0.0
C 	50.41999900833001	13.489999999999995	0.0
C 	51.649755081703915	12.779999999999996	0.0
C 	52.879511155077815	13.489999999999993	0.0
C 	54.10926722845172	12.779999999999998	0.0
C 	55.33902330182563	13.489999999999998	0.0
C 	56.56877937519952	12.779999999999998	0.0
C 	57.798535448573425	13.489999999999997	0.0
C 	59.02829152194733	12.779999999999994	0.0
C 	60.25804759532123	13.489999999999991	0.0
C 	61.487803668695136	12.779999999999998	0.0
C 	62.71755974206904	13.489999999999998	0.0
C 	63.94731581544294	12.779999999999994	0.0
C 	65.17707188881684	13.489999999999995	0.0
C 	66.40682796219075	12.77999999999999	0.0
C 	67.63658403556465	13.489999999999988	0.0
C 	8.60829251361732	14.909999999999998	0.0
C 	9.838048586991222	15.619999999999996	0.0
C 	11.067804660365125	14.909999999999997	0.0
C 	12.297560733739026	15.619999999999996	0.0
C 	13.527316807112934	14.909999999999998	0.0
C 	14.757072880486831	15.619999999999996	0.0
C 	15.986828953860737	14.909999999999998	0.0
C 	17.21658502723464	15.619999999999997	0.0
C 	18.446341100608542	14.909999999999997	0.0
C 	19.676097173982445	15.619999999999996	0.0
C 	20.905853247356347	14.909999999999997	0.0
C 	22.135609320730246	15.619999999999996	0.0
C 	23.365365394104153	14.909999999999995	0.0
C 	24.595121467478055	15.619999999999996	0.0
C 	25.824877540851958	14.909999999999997	0.0
C 	27.05463361422586	15.619999999999996	0.0
C 	28.284389687599763	14.909999999999997	0.0
C 	29.514145760973665	15.619999999999996	0.0
C 	30.743901834347568	14.909999999999997	0.0
C 	31.973657907721474	15.619999999999997	0.0
C 	33.203413981095366	14.909999999999993	0.0
C 	34.43317005446927	15.619999999999994	0.0
C 	35.662926127843185	14.909999999999998	0.0
C 	36.892682201217085	15.619999999999996	0.0
C 	38.122438274590984	14.909999999999995	0.0
C 	39.35219434796489	15.619999999999996	0.0
C 	40.58195042133879	14.909999999999993	0.0
C 	41.811706494712695	15.619999999999994	0.0
C 	43.0414625680866	14.909999999999998	0.0
C 	44.2712186414605	15.619999999999996	0.0
C 	45.5009747148344	14.909999999999995	0.0
C 	46.730730788208305	15.619999999999996	0.0
C 	47.960486861582204	14.909999999999993	0.0
C 	49.19024293495611	15.619999999999994	0.0
C 	50.41999900833002	14.909999999999998	0.0
C 	51.649755081703915	15.619999999999996	0.0
C 	52.87951115507782	14.909999999999997	0.0
C 	54.10926722845171	15.619999999999994	0.0
C 	55.33902330182562	14.909999999999995	0.0
C 	56.568779375199526	15.619999999999994	0.0
C 	57.798535448573425	14.909999999999991	0.0
C 	59.028291521947324	15.619999999999992	0.0
C 	60.25804759532124	14.909999999999998	0.0
C 	61.487803668695136	15.619999999999996	0.0
C 	62.717559742069035	14.909999999999993	0.0
C 	63.94731581544294	15.619999999999994	0.0
C 	65.17707188881684	14.909999999999993	0.0
C 	66.40682796219075	15.619999999999994	0.0
C 	67.63658403556465	14.909999999999997	0.0
C 	68.86634010893854	15.61999999999999	0.0
C 	9.838048586991222	17.039999999999996	0.0
C 	11.067804660365127	17.749999999999996	0.0
C 	12.297560733739028	17.039999999999996	0.0
C 	13.527316807112932	17.749999999999996	0.0
C 	14.757072880486833	17.039999999999996	0.0
C 	15.986828953860735	17.749999999999996	0.0
C 	17.21658502723464	17.039999999999996	0.0
C 	18.446341100608546	17.749999999999996	0.0
C 	19.676097173982445	17.039999999999996	0.0
C 	20.905853247356347	17.749999999999996	0.0
C 	22.13560932073025	17.039999999999996	0.0
C 	23.365365394104153	17.749999999999996	0.0
C 	24.595121467478055	17.039999999999996	0.0
C 	25.82487754085196	17.749999999999996	0.0
C 	27.05463361422586	17.039999999999996	0.0
C 	28.28438968759977	17.75	0.0
C 	29.514145760973665	17.039999999999996	0.0
C 	30.74390183434757	17.749999999999996	0.0
C 	31.973657907721467	17.039999999999992	0.0
C 	33.20341398109537	17.749999999999993	0.0
C 	34.43317005446927	17.039999999999996	0.0
C 	35.66292612784318	17.749999999999996	0.0
C 	36.892682201217085	17.039999999999996	0.0
C 	38.122438274590984	17.749999999999996	0.0
C 	39.35219434796488	17.039999999999992	0.0
C 	40.58195042133879	17.749999999999993	0.0
C 	41.811706494712695	17.039999999999992	0.0
C 	43.041462568086594	17.749999999999993	0.0
C 	44.2712186414605	17.039999999999996	0.0
C 	45.500974714834406	17.749999999999996	0.0
C 	46.7307307882083	17.039999999999992	0.0
C 	47.960486861582204	17.749999999999993	0.0
C 	49.19024293495611	17.039999999999992	0.0
C 	50.41999900833002	17.749999999999993	0.0
C 	51.649755081703915	17.039999999999996	0.0
C 	52.87951115507782	17.749999999999996	0.0
C 	54.10926722845172	17.039999999999992	0.0
C 	55.33902330182562	17.749999999999993	0.0
C 	56.568779375199526	17.039999999999996	0.0
C 	57.79853544857343	17.749999999999996	0.0
C 	59.028291521947324	17.039999999999992	0.0
C 	60.25804759532123	17.749999999999993	0.0
C 	61.487803668695136	17.039999999999996	0.0
C 	62.71755974206904	17.749999999999996	0.0
C 	63.94731581544294	17.04	0.0
C 	65.17707188881684	17.749999999999993	0.0
C 	66.40682796219075	17.039999999999996	0.0
C 	67.63658403556464	17.74999999999999	0.0
C 	68.86634010893856	17.03999999999999	0.0
C 	70.09609618231246	17.74999999999999	0.0
C 	11.067804660365125	19.169999999999995	0.0
C 	12.297560733739026	19.879999999999995	0.0
C 	13.52731680711293	19.169999999999995	0.0
C 	14.757072880486831	19.879999999999995	0.0
C 	15.986828953860737	19.169999999999998	0.0
C 	17.216585027234636	19.879999999999992	0.0
C 	18.446341100608542	19.169999999999995	0.0
C 	19.676097173982445	19.879999999999995	0.0
C 	20.905853247356347	19.169999999999995	0.0
C 	22.135609320730246	19.879999999999995	0.0
C 	23.365365394104153	19.169999999999995	0.0
C 	24.59512146747805	19.879999999999995	0.0
C 	25.824877540851958	19.169999999999995	0.0
C 	27.05463361422586	19.879999999999995	0.0
C 	28.284389687599763	19.169999999999995	0.0
C 	29.51414576097367	19.879999999999995	0.0
C 	30.743901834347565	19.16999999999999	0.0
C 	31.97365790772147	19.879999999999992	0.0
C 	33.20341398109537	19.169999999999995	0.0
C 	34.43317005446927	19.879999999999992	0.0
C 	35.66292612784318	19.169999999999995	0.0
C 	36.89268220121708	19.879999999999992	0.0
C 	38.122438274590984	19.169999999999995	0.0
C 	39.35219434796488	19.879999999999992	0.0
C 	40.58195042133879	19.16999999999999	0.0
C 	41.81170649471269	19.87999999999999	0.0
C 	43.0414625680866	19.169999999999995	0.0
C 	44.27121864146049	19.879999999999992	0.0
C 	45.5009747148344	19.16999999999999	0.0
C 	46.730730788208305	19.879999999999992	0.0
C 	47.960486861582204	19.169999999999995	0.0
C 	49.1902429349561	19.879999999999992	0.0
C 	50.41999900833002	19.169999999999995	0.0
C 	51.649755081703915	19.879999999999992	0.0
C 	52.879511155077815	19.16999999999999	0.0
C 	54.10926722845172	19.879999999999992	0.0
C 	55.33902330182562	19.16999999999999	0.0
C 	56.56877937519952	19.879999999999992	0.0
C 	57.79853544857343	19.169999999999995	0.0
C 	59.02829152194733	19.879999999999992	0.0
C 	60.25804759532123	19.169999999999995	0.0
C 	61.48780366869513	19.879999999999992	0.0
C 	62.717559742069035	19.16999999999999	0.0
C 	63.94731581544294	19.879999999999992	0.0
C 	65.17707188881684	19.169999999999995	0.0
C 	66.40682796219075	19.87999999999999	0.0
C 	67.63658403556465	19.169999999999995	0.0
C 	68.86634010893854	19.87999999999999	0.0
C 	70.09609618231245	19.16999999999999	0.0
C 	71.32585225568636	19.879999999999992	0.0
C 	12.297560733739028	21.299999999999994	0.0
C 	13.527316807112932	22.009999999999994	0.0
C 	14.757072880486831	21.299999999999994	0.0
C 	15.986828953860735	22.009999999999994	0.0
C 	17.216585027234636	21.299999999999994	0.0
C 	18.44634110060854	22.009999999999994	0.0
C 	19.676097173982445	21.299999999999994	0.0
C 	20.905853247356347	22.009999999999994	0.0
C 	22.13560932073025	21.299999999999994	0.0
C 	23.365365394104153	22.009999999999994	0.0
C 	24.595121467478055	21.299999999999994	0.0
C 	25.824877540851958	22.009999999999994	0.0
C 	27.05463361422586	21.299999999999994	0.0
C 	28.284389687599766	22.009999999999994	0.0
C 	29.514145760973662	21.29999999999999	0.0
C 	30.743901834347568	22.00999999999999	0.0
C 	31.97365790772147	21.299999999999994	0.0
C 	33.20341398109537	22.009999999999994	0.0
C 	34.43317005446928	21.299999999999994	0.0
C 	35.662926127843185	22.009999999999994	0.0
C 	36.89268220121708	21.299999999999994	0.0
C 	38.122438274590984	22.009999999999994	0.0
C 	39.35219434796489	21.299999999999994	0.0
C 	40.58195042133879	22.009999999999994	0.0
C 	41.811706494712695	21.299999999999994	0.0
C 	43.0414625680866	22.009999999999994	0.0
C 	44.2712186414605	21.29999999999999	0.0
C 	45.5009747148344	22.00999999999999	0.0
C 	46.730730788208305	21.299999999999994	0.0
C 	47.96048686158221	22.009999999999994	0.0
C 	49.19024293495611	21.299999999999994	0.0
C 	50.41999900833002	22.009999999999994	0.0
C 	51.649755081703915	21.299999999999994	0.0
C 	52.879511155077815	22.00999999999999	0.0
C 	54.10926722845172	21.299999999999994	0.0
C 	55.33902330182563	22.009999999999994	0.0
C 	56.568779375199526	21.29999999999999	0.0
C 	57.798535448573425	22.00999999999999	0.0
C 	59.02829152194733	21.299999999999994	0.0
C 	60.25804759532124	22.009999999999994	0.0
C 	61.48780366869513	21.29999999999999	0.0
C 	62.717559742069035	22.00999999999999	0.0
C 	63.94731581544294	21.299999999999994	0.0
C 	65.17707188881684	22.009999999999987	0.0
C 	66.40682796219075	21.299999999999994	0.0
C 	67.63658403556465	22.009999999999994	0.0
C 	68.86634010893854	21.29999999999999	0.0
C 	70.09609618231245	22.00999999999999	0.0
C 	71.32585225568636	21.299999999999983	0.0
C 	72.55560832906026	22.00999999999999	0.0
C 	13.527316807112932	23.429999999999996	0.0
C 	14.757072880486836	24.139999999999997	0.0
C 	15.986828953860737	23.429999999999996	0.0
C 	17.216585027234643	24.139999999999997	0.0
C 	18.446341100608542	23.429999999999996	0.0
C 	19.676097173982445	24.139999999999997	0.0
C 	20.90585324735635	23.429999999999996	0.0
C 	22.135609320730254	24.139999999999997	0.0
C 	23.365365394104156	23.429999999999993	0.0
C 	24.595121467478062	24.139999999999997	0.0
C 	25.824877540851958	23.429999999999993	0.0
C 	27.054633614225864	24.139999999999993	0.0
C 	28.284389687599766	23.429999999999996	0.0
C 	29.514145760973673	24.139999999999997	0.0
C 	30.743901834347575	23.429999999999996	0.0
C 	31.973657907721478	24.139999999999997	0.0
C 	33.20341398109537	23.429999999999993	0.0
C 	34.43317005446928	24.139999999999993	0.0
C 	35.66292612784318	23.429999999999993	0.0
C 	36.892682201217085	24.139999999999993	0.0
C 	38.122438274590984	23.429999999999993	0.0
C 	39.35219434796489	24.139999999999993	0.0
C 	40.58195042133879	23.429999999999996	0.0
C 	41.811706494712695	24.139999999999993	0.0
C 	43.041462568086594	23.42999999999999	0.0
C 	44.2712186414605	24.13999999999999	0.0
C 	45.5009747148344	23.429999999999993	0.0
C 	46.730730788208305	24.139999999999993	0.0
C 	47.96048686158221	23.429999999999993	0.0
C 	49.19024293495611	24.139999999999993	0.0
C 	50.41999900833001	23.429999999999993	0.0
C 	51.649755081703915	24.13999999999999	0.0
C 	52.87951115507782	23.429999999999993	0.0
C 	54.10926722845172	24.139999999999993	0.0
C 	55.33902330182563	23.429999999999993	0.0
C 	56.56877937519953	24.139999999999993	0.0
C 	57.798535448573425	23.429999999999993	0.0
C 	59.02829152194733	24.139999999999993	0.0
C 	60.25804759532124	23.429999999999993	0.0
C 	61.487803668695136	24.13999999999999	0.0
C 	62.71755974206904	23.429999999999993	0.0
C 	63.947315815442934	24.139999999999986	0.0
C 	65.17707188881684	23.429999999999993	0.0
C 	66.40682796219075	24.139999999999993	0.0
C 	67.63658403556464	23.42999999999999	0.0
C 	68.86634010893856	24.139999999999997	0.0
C 	70.09609618231245	23.42999999999999	0.0
C 	71.32585225568636	24.139999999999997	0.0
C 	72.55560832906026	23.42999999999999	0.0
C 	73.78536440243417	24.13999999999999	0.0
C 	14.757072880486835	25.559999999999995	0.0
C 	15.986828953860735	26.269999999999996	0.0
C 	17.21658502723464	25.559999999999995	0.0
C 	18.44634110060854	26.269999999999996	0.0
C 	19.676097173982445	25.56	0.0
C 	20.905853247356344	26.269999999999996	0.0
C 	22.13560932073025	25.56	0.0
C 	23.365365394104153	26.269999999999996	0.0
C 	24.595121467478055	25.559999999999995	0.0
C 	25.824877540851958	26.269999999999996	0.0
C 	27.054633614225857	25.559999999999995	0.0
C 	28.28438968759976	26.269999999999996	0.0
C 	29.514145760973665	25.559999999999995	0.0
C 	30.743901834347568	26.269999999999996	0.0
C 	31.973657907721474	25.559999999999995	0.0
C 	33.20341398109538	26.269999999999996	0.0
C 	34.43317005446927	25.55999999999999	0.0
C 	35.66292612784318	26.269999999999992	0.0
C 	36.892682201217085	25.559999999999995	0.0
C 	38.12243827459098	26.269999999999992	0.0
C 	39.35219434796489	25.559999999999995	0.0
C 	40.58195042133879	26.269999999999992	0.0
C 	41.81170649471269	25.55999999999999	0.0
C 	43.041462568086594	26.269999999999992	0.0
C 	44.2712186414605	25.55999999999999	0.0
C 	45.5009747148344	26.26999999999999	0.0
C 	46.730730788208305	25.559999999999995	0.0
C 	47.960486861582204	26.269999999999992	0.0
C 	49.19024293495611	25.55999999999999	0.0
C 	50.41999900833001	26.269999999999992	0.0
C 	51.649755081703915	25.559999999999995	0.0
C 	52.879511155077815	26.269999999999992	0.0
C 	54.10926722845172	25.559999999999995	0.0
C 	55.33902330182562	26.269999999999992	0.0
C 	56.568779375199526	25.55999999999999	0.0
C 	57.79853544857343	26.269999999999992	0.0
C 	59.028291521947324	25.55999999999999	0.0
C 	60.25804759532123	26.269999999999992	0.0
C 	61.487803668695136	25.559999999999995	0.0
C 	62.717559742069035	26.26999999999999	0.0
C 	63.94731581544294	25.55999999999999	0.0
C 	65.17707188881683	26.269999999999985	0.0
C 	66.40682796219075	25.55999999999999	0.0
C 	67.63658403556465	26.269999999999992	0.0
C 	68.86634010893856	25.559999999999995	0.0
C 	70.09609618231246	26.269999999999996	0.0
C 	71.32585225568636	25.559999999999995	0.0
C 	72.55560832906026	26.269999999999996	0.0
C 	73.78536440243415	25.559999999999988	0.0
C 	75.01512047580806	26.26999999999999	0.0
C 	15.986828953860735	27.689999999999994	0.0
C 	17.21658502723464	28.399999999999995	0.0
C 	18.446341100608542	27.689999999999994	0.0
C 	19.676097173982445	28.399999999999995	0.0
C 	20.905853247356344	27.689999999999994	0.0
C 	22.13560932073025	28.399999999999995	0.0
C 	23.365365394104153	27.689999999999994	0.0
C 	24.59512146747806	28.399999999999995	0.0
C 	25.824877540851954	27.689999999999994	0.0
C 	27.054633614225857	28.399999999999995	0.0
C 	28.284389687599763	27.689999999999994	0.0
C 	29.514145760973665	28.399999999999995	0.0
C 	30.74390183434757	27.689999999999994	0.0
C 	31.973657907721474	28.399999999999995	0.0
C 	33.20341398109537	27.68999999999999	0.0
C 	34.43317005446928	28.39999999999999	0.0
C 	35.66292612784318	27.689999999999994	0.0
C 	36.892682201217085	28.399999999999995	0.0
C 	38.122438274590984	27.689999999999994	0.0
C 	39.35219434796489	28.399999999999995	0.0
C 	40.58195042133879	27.689999999999994	0.0
C 	41.811706494712695	28.399999999999995	0.0
C 	43.041462568086594	27.689999999999994	0.0
C 	44.2712186414605	28.399999999999995	0.0
C 	45.500974714834406	27.689999999999994	0.0
C 	46.730730788208305	28.399999999999995	0.0
C 	47.960486861582204	27.68999999999999	0.0
C 	49.19024293495611	28.39999999999999	0.0
C 	50.41999900833002	27.689999999999994	0.0
C 	51.649755081703915	28.399999999999995	0.0
C 	52.87951115507782	27.689999999999994	0.0
C 	54.10926722845173	28.399999999999995	0.0
C 	55.33902330182562	27.68999999999999	0.0
C 	56.568779375199526	28.39999999999999	0.0
C 	57.79853544857343	27.689999999999994	0.0
C 	59.02829152194733	28.39999999999999	0.0
C 	60.25804759532124	27.689999999999994	0.0
C 	61.48780366869513	28.399999999999988	0.0
C 	62.717559742069035	27.689999999999994	0.0
C 	63.94731581544294	28.399999999999995	0.0
C 	65.17707188881684	27.68999999999999	0.0
C 	66.40682796219075	28.39999999999999	0.0
C 	67.63658403556464	27.689999999999987	0.0
C 	68.86634010893856	28.399999999999995	0.0
C 	70.09609618231245	27.689999999999994	0.0
C 	71.32585225568636	28.399999999999995	0.0
C 	72.55560832906026	27.68999999999999	0.0
C 	73.78536440243415	28.39999999999999	0.0
C 	75.01512047580808	27.689999999999994	0.0
C 	76.24487654918197	28.399999999999984	0.0
C 	17.21658502723464	29.819999999999997	0.0
C 	18.446341100608546	30.529999999999998	0.0
C 	19.676097173982445	29.819999999999997	0.0
C 	20.905853247356355	30.529999999999998	0.0
C 	22.13560932073025	29.819999999999993	0.0
C 	23.365365394104156	30.529999999999994	0.0
C 	24.59512146747806	29.819999999999997	0.0
C 	25.82487754085196	30.529999999999998	0.0
C 	27.054633614225867	29.819999999999997	0.0
C 	28.28438968759977	30.529999999999998	0.0
C 	29.514145760973665	29.819999999999997	0.0
C 	30.74390183434757	30.529999999999998	0.0
C 	31.973657907721474	29.819999999999997	0.0
C 	33.20341398109538	30.529999999999998	0.0
C 	34.43317005446928	29.819999999999997	0.0
C 	35.662926127843185	30.529999999999998	0.0
C 	36.892682201217085	29.819999999999993	0.0
C 	38.12243827459099	30.529999999999994	0.0
C 	39.35219434796488	29.819999999999993	0.0
C 	40.58195042133879	30.529999999999994	0.0
C 	41.811706494712695	29.819999999999993	0.0
C 	43.0414625680866	30.529999999999994	0.0
C 	44.2712186414605	29.819999999999993	0.0
C 	45.500974714834406	30.529999999999994	0.0
C 	46.730730788208305	29.81999999999999	0.0
C 	47.960486861582204	30.52999999999999	0.0
C 	49.19024293495611	29.819999999999993	0.0
C 	50.41999900833002	30.529999999999994	0.0
C 	51.649755081703915	29.819999999999993	0.0
C 	52.87951115507782	30.529999999999994	0.0
C 	54.10926722845172	29.819999999999993	0.0
C 	55.33902330182563	30.52999999999999	0.0
C 	56.568779375199526	29.819999999999993	0.0
C 	57.798535448573425	30.52999999999999	0.0
C 	59.02829152194734	29.819999999999993	0.0
C 	60.25804759532124	30.529999999999994	0.0
C 	61.487803668695136	29.819999999999993	0.0
C 	62.71755974206904	30.529999999999994	0.0
C 	63.947315815442934	29.81999999999999	0.0
C 	65.17707188881685	30.529999999999998	0.0
C 	66.40682796219073	29.819999999999986	0.0
C 	67.63658403556465	30.529999999999994	0.0
C 	68.86634010893856	29.819999999999993	0.0
C 	70.09609618231245	30.529999999999994	0.0
C 	71.32585225568637	29.819999999999997	0.0
C 	72.55560832906026	30.52999999999999	0.0
C 	73.78536440243417	29.819999999999997	0.0
C 	75.01512047580806	30.529999999999987	0.0
C 	76.24487654918197	29.81999999999999	0.0
C 	77.47463262255587	30.52999999999999	0.0
C 	18.446341100608542	31.949999999999996	0.0
C 	19.676097173982445	32.65999999999999	0.0
C 	20.905853247356347	31.949999999999992	0.0
C 	22.135609320730254	32.66	0.0
C 	23.365365394104156	31.949999999999996	0.0
C 	24.595121467478055	32.65999999999999	0.0
C 	25.824877540851958	31.949999999999992	0.0
C 	27.05463361422586	32.66	0.0
C 	28.284389687599766	31.949999999999996	0.0
C 	29.51414576097367	32.66	0.0
C 	30.743901834347568	31.949999999999992	0.0
C 	31.97365790772147	32.66	0.0
C 	33.20341398109537	31.949999999999992	0.0
C 	34.43317005446928	32.66	0.0
C 	35.66292612784318	31.949999999999996	0.0
C 	36.892682201217085	32.66	0.0
C 	38.122438274590984	31.949999999999992	0.0
C 	39.35219434796489	32.65999999999999	0.0
C 	40.58195042133879	31.949999999999992	0.0
C 	41.81170649471269	32.65999999999999	0.0
C 	43.0414625680866	31.949999999999996	0.0
C 	44.2712186414605	32.65999999999999	0.0
C 	45.5009747148344	31.949999999999992	0.0
C 	46.730730788208305	32.65999999999999	0.0
C 	47.96048686158221	31.949999999999992	0.0
C 	49.1902429349561	32.65999999999999	0.0
C 	50.41999900833002	31.949999999999992	0.0
C 	51.649755081703915	32.65999999999999	0.0
C 	52.879511155077815	31.949999999999992	0.0
C 	54.10926722845172	32.65999999999999	0.0
C 	55.33902330182563	31.949999999999992	0.0
C 	56.568779375199526	32.65999999999999	0.0
C 	57.79853544857343	31.949999999999992	0.0
C 	59.028291521947324	32.65999999999999	0.0
C 	60.25804759532124	31.949999999999992	0.0
C 	61.487803668695136	32.65999999999999	0.0
C 	62.717559742069035	31.94999999999999	0.0
C 	63.94731581544294	32.65999999999999	0.0
C 	65.17707188881685	31.949999999999992	0.0
C 	66.40682796219076	32.66	0.0
C 	67.63658403556465	31.949999999999992	0.0
C 	68.86634010893856	32.65999999999999	0.0
C 	70.09609618231245	31.94999999999999	0.0
C 	71.32585225568636	32.65999999999999	0.0
C 	72.55560832906026	31.949999999999996	0.0
C 	73.78536440243415	32.65999999999999	0.0
C 	75.01512047580806	31.949999999999992	0.0
C 	76.24487654918195	32.65999999999998	0.0
C 	77.47463262255587	31.949999999999985	0.0
C 	78.70438869592978	32.65999999999999	0.0
C 	19.676097173982445	34.07999999999999	0.0
C 	20.90585324735635	34.78999999999999	0.0
C 	22.135609320730254	34.07999999999999	0.0
C 	23.365365394104156	34.78999999999999	0.0
C 	24.595121467478055	34.07999999999999	0.0
C 	25.824877540851958	34.78999999999999	0.0
C 	27.054633614225864	34.07999999999999	0.0
C 	28.284389687599766	34.78999999999999	0.0
C 	29.514145760973665	34.07999999999999	0.0
C 	30.743901834347568	34.78999999999999	0.0
C 	31.97365790772147	34.07999999999999	0.0
C 	33.20341398109537	34.78999999999999	0.0
C 	34.43317005446928	34.07999999999999	0.0
C 	35.662926127843185	34.78999999999999	0.0
C 	36.89268220121708	34.07999999999999	0.0
C 	38.122438274590984	34.78999999999999	0.0
C 	39.35219434796489	34.07999999999999	0.0
C 	40.581950421338796	34.78999999999999	0.0
C 	41.811706494712695	34.07999999999999	0.0
C 	43.0414625680866	34.78999999999999	0.0
C 	44.2712186414605	34.07999999999999	0.0
C 	45.5009747148344	34.78999999999999	0.0
C 	46.730730788208305	34.07999999999999	0.0
C 	47.96048686158221	34.78999999999999	0.0
C 	49.19024293495611	34.07999999999999	0.0
C 	50.41999900833002	34.78999999999999	0.0
C 	51.649755081703915	34.07999999999999	0.0
C 	52.87951115507782	34.78999999999999	0.0
C 	54.10926722845172	34.07999999999999	0.0
C 	55.33902330182562	34.78999999999999	0.0
C 	56.56877937519953	34.07999999999999	0.0
C 	57.79853544857343	34.78999999999999	0.0
C 	59.02829152194733	34.07999999999999	0.0
C 	60.25804759532124	34.78999999999999	0.0
C 	61.487803668695136	34.07999999999999	0.0
C 	62.71755974206905	34.79	0.0
C 	63.947315815442934	34.079999999999984	0.0
C 	65.17707188881685	34.78999999999999	0.0
C 	66.40682796219075	34.07999999999999	0.0
C 	67.63658403556465	34.78999999999999	0.0
C 	68.86634010893854	34.07999999999999	0.0
C 	70.09609618231245	34.78999999999999	0.0
C 	71.32585225568636	34.07999999999999	0.0
C 	72.55560832906025	34.789999999999985	0.0
C 	73.78536440243417	34.07999999999999	0.0
C 	75.01512047580808	34.78999999999999	0.0
C 	76.24487654918197	34.07999999999999	0.0
C 	77.47463262255587	34.78999999999999	0.0
C 	78.70438869592977	34.079999999999984	0.0
C 	79.93414476930369	34.78999999999999	0.0
C 	20.90585324735635	36.209999999999994	0.0
C 	22.135609320730254	36.919999999999995	0.0
C 	23.36536539410416	36.209999999999994	0.0
C 	24.595121467478062	36.919999999999995	0.0
C 	25.82487754085196	36.209999999999994	0.0
C 	27.054633614225864	36.919999999999995	0.0
C 	28.284389687599766	36.209999999999994	0.0
C 	29.514145760973673	36.919999999999995	0.0
C 	30.743901834347575	36.209999999999994	0.0
C 	31.973657907721478	36.919999999999995	0.0
C 	33.20341398109537	36.209999999999994	0.0
C 	34.43317005446928	36.919999999999995	0.0
C 	35.662926127843185	36.209999999999994	0.0
C 	36.89268220121709	36.919999999999995	0.0
C 	38.12243827459099	36.209999999999994	0.0
C 	39.3521943479649	36.919999999999995	0.0
C 	40.581950421338796	36.209999999999994	0.0
C 	41.811706494712695	36.919999999999995	0.0
C 	43.041462568086594	36.209999999999994	0.0
C 	44.2712186414605	36.919999999999995	0.0
C 	45.500974714834406	36.209999999999994	0.0
C 	46.730730788208305	36.919999999999995	0.0
C 	47.96048686158221	36.209999999999994	0.0
C 	49.19024293495612	36.919999999999995	0.0
C 	50.41999900833002	36.20999999999999	0.0
C 	51.649755081703915	36.91999999999999	0.0
C 	52.87951115507782	36.209999999999994	0.0
C 	54.10926722845172	36.91999999999999	0.0
C 	55.33902330182563	36.209999999999994	0.0
C 	56.56877937519953	36.919999999999995	0.0
C 	57.79853544857343	36.20999999999999	0.0
C 	59.02829152194733	36.91999999999999	0.0
C 	60.25804759532123	36.20999999999999	0.0
C 	61.48780366869515	36.919999999999995	0.0
C 	62.71755974206904	36.209999999999994	0.0
C 	63.94731581544295	36.919999999999995	0.0
C 	65.17707188881684	36.209999999999994	0.0
C 	66.40682796219075	36.919999999999995	0.0
C 	67.63658403556467	36.209999999999994	0.0
C 	68.86634010893856	36.91999999999999	0.0
C 	70.09609618231246	36.209999999999994	0.0
C 	71.32585225568636	36.91999999999999	0.0
C 	72.55560832906026	36.209999999999994	0.0
C 	73.78536440243417	36.919999999999995	0.0
C 	75.01512047580806	36.20999999999999	0.0
C 	76.24487654918198	36.919999999999995	0.0
C 	77.47463262255586	36.20999999999999	0.0
C 	78.70438869592978	36.919999999999995	0.0
C 	79.93414476930369	36.20999999999999	0.0
C 	81.16390084267759	36.91999999999999	0.0
C 	22.13560932073025	38.33999999999999	0.0
C 	23.365365394104153	39.04999999999999	0.0
C 	24.59512146747806	38.33999999999999	0.0
C 	25.82487754085196	39.04999999999999	0.0
C 	27.05463361422586	38.33999999999999	0.0
C 	28.284389687599763	39.04999999999999	0.0
C 	29.514145760973665	38.33999999999999	0.0
C 	30.74390183434757	39.04999999999999	0.0
C 	31.973657907721474	38.339999999999996	0.0
C 	33.20341398109538	39.04999999999999	0.0
C 	34.43317005446927	38.33999999999999	0.0
C 	35.66292612784318	39.04999999999999	0.0
C 	36.892682201217085	38.33999999999999	0.0
C 	38.12243827459099	39.04999999999999	0.0
C 	39.35219434796489	38.33999999999999	0.0
C 	40.581950421338796	39.04999999999999	0.0
C 	41.811706494712695	38.33999999999999	0.0
C 	43.0414625680866	39.04999999999999	0.0
C 	44.27121864146049	38.33999999999999	0.0
C 	45.5009747148344	39.04999999999999	0.0
C 	46.730730788208305	38.33999999999999	0.0
C 	47.960486861582204	39.04999999999999	0.0
C 	49.19024293495611	38.33999999999999	0.0
C 	50.41999900833002	39.04999999999999	0.0
C 	51.649755081703915	38.33999999999999	0.0
C 	52.879511155077815	39.04999999999999	0.0
C 	54.10926722845173	38.33999999999999	0.0
C 	55.33902330182562	39.04999999999998	0.0
C 	56.568779375199526	38.33999999999999	0.0
C 	57.79853544857343	39.04999999999999	0.0
C 	59.02829152194733	38.33999999999999	0.0
C 	60.25804759532123	39.04999999999999	0.0
C 	61.48780366869513	38.33999999999998	0.0
C 	62.71755974206905	39.04999999999999	0.0
C 	63.94731581544294	38.33999999999999	0.0
C 	65.17707188881685	39.04999999999999	0.0
C 	66.40682796219075	38.33999999999999	0.0
C 	67.63658403556465	39.04999999999999	0.0
C 	68.86634010893856	38.33999999999999	0.0
C 	70.09609618231245	39.04999999999998	0.0
C 	71.32585225568636	38.33999999999999	0.0
C 	72.55560832906025	39.04999999999998	0.0
C 	73.78536440243415	38.33999999999999	0.0
C 	75.01512047580806	39.04999999999999	0.0
C 	76.24487654918197	38.33999999999999	0.0
C 	77.47463262255587	39.05	0.0
C 	78.70438869592977	38.33999999999998	0.0
C 	79.93414476930369	39.04999999999999	0.0
C 	81.16390084267758	38.33999999999998	0.0
C 	82.39365691605148	39.04999999999998	0.0
C 	23.365365394104156	40.46999999999999	0.0
C 	24.59512146747806	41.17999999999999	0.0
C 	25.82487754085196	40.46999999999999	0.0
C 	27.054633614225867	41.17999999999999	0.0
C 	28.284389687599763	40.46999999999999	0.0
C 	29.51414576097367	41.17999999999999	0.0
C 	30.74390183434757	40.46999999999999	0.0
C 	31.973657907721474	41.17999999999999	0.0
C 	33.20341398109537	40.46999999999999	0.0
C 	34.43317005446928	41.17999999999999	0.0
C 	35.66292612784318	40.46999999999999	0.0
C 	36.892682201217085	41.17999999999999	0.0
C 	38.12243827459099	40.46999999999999	0.0
C 	39.3521943479649	41.17999999999999	0.0
C 	40.58195042133879	40.46999999999999	0.0
C 	41.811706494712695	41.17999999999999	0.0
C 	43.0414625680866	40.46999999999999	0.0
C 	44.2712186414605	41.17999999999999	0.0
C 	45.500974714834406	40.46999999999999	0.0
C 	46.73073078820831	41.17999999999999	0.0
C 	47.960486861582204	40.46999999999999	0.0
C 	49.19024293495611	41.17999999999999	0.0
C 	50.41999900833002	40.46999999999999	0.0
C 	51.649755081703915	41.179999999999986	0.0
C 	52.87951115507782	40.46999999999999	0.0
C 	54.10926722845173	41.17999999999999	0.0
C 	55.33902330182563	40.46999999999999	0.0
C 	56.568779375199526	41.17999999999999	0.0
C 	57.798535448573425	40.469999999999985	0.0
C 	59.028291521947345	41.17999999999999	0.0
C 	60.25804759532124	40.46999999999999	0.0
C 	61.48780366869514	41.17999999999999	0.0
C 	62.71755974206904	40.46999999999999	0.0
C 	63.94731581544295	41.17999999999999	0.0
C 	65.17707188881685	40.46999999999999	0.0
C 	66.40682796219075	41.179999999999986	0.0
C 	67.63658403556465	40.46999999999999	0.0
C 	68.86634010893854	41.179999999999986	0.0
C 	70.09609618231246	40.46999999999999	0.0
C 	71.32585225568636	41.17999999999999	0.0
C 	72.55560832906026	40.469999999999985	0.0
C 	73.78536440243417	41.179999999999986	0.0
C 	75.01512047580806	40.469999999999985	0.0
C 	76.24487654918198	41.17999999999999	0.0
C 	77.47463262255587	40.46999999999999	0.0
C 	78.70438869592978	41.17999999999999	0.0
C 	79.93414476930367	40.469999999999985	0.0
C 	81.16390084267758	41.179999999999986	0.0
C 	82.3936569160515	40.46999999999999	0.0
C 	83.62341298942539	41.179999999999986	0.0
C 	24.595121467478055	42.59999999999999	0.0
C 	25.82487754085196	43.30999999999999	0.0
C 	27.05463361422586	42.59999999999999	0.0
C 	28.284389687599766	43.30999999999999	0.0
C 	29.514145760973662	42.59999999999999	0.0
C 	30.743901834347568	43.30999999999999	0.0
C 	31.97365790772147	42.59999999999999	0.0
C 	33.20341398109537	43.30999999999999	0.0
C 	34.43317005446927	42.59999999999999	0.0
C 	35.66292612784318	43.30999999999999	0.0
C 	36.89268220121708	42.59999999999999	0.0
C 	38.122438274590984	43.30999999999999	0.0
C 	39.35219434796489	42.59999999999999	0.0
C 	40.581950421338796	43.30999999999999	0.0
C 	41.81170649471269	42.59999999999999	0.0
C 	43.041462568086594	43.30999999999999	0.0
C 	44.2712186414605	42.59999999999999	0.0
C 	45.5009747148344	43.30999999999999	0.0
C 	46.730730788208305	42.59999999999999	0.0
C 	47.96048686158221	43.30999999999999	0.0
C 	49.19024293495611	42.59999999999999	0.0
C 	50.41999900833001	43.30999999999999	0.0
C 	51.64975508170392	42.599999999999994	0.0
C 	52.879511155077815	43.30999999999999	0.0
C 	54.10926722845172	42.59999999999999	0.0
C 	55.33902330182563	43.30999999999999	0.0
C 	56.568779375199526	42.59999999999999	0.0
C 	57.798535448573425	43.30999999999999	0.0
C 	59.028291521947324	42.59999999999998	0.0
C 	60.258047595321244	43.30999999999999	0.0
C 	61.487803668695136	42.59999999999999	0.0
C 	62.71755974206904	43.30999999999999	0.0
C 	63.94731581544294	42.59999999999999	0.0
C 	65.17707188881684	43.30999999999999	0.0
C 	66.40682796219076	42.599999999999994	0.0
C 	67.63658403556465	43.30999999999999	0.0
C 	68.86634010893856	42.59999999999999	0.0
C 	70.09609618231245	43.30999999999998	0.0
C 	71.32585225568636	42.59999999999999	0.0
C 	72.55560832906026	43.30999999999999	0.0
C 	73.78536440243415	42.59999999999999	0.0
C 	75.01512047580806	43.30999999999999	0.0
C 	76.24487654918197	42.59999999999998	0.0
C 	77.47463262255587	43.30999999999999	0.0
C 	78.70438869592978	42.59999999999999	0.0
C 	79.93414476930367	43.30999999999999	0.0
C 	81.16390084267758	42.59999999999999	0.0
C 	82.39365691605148	43.30999999999999	0.0
C 	83.62341298942539	42.59999999999999	0.0
C 	84.85316906279928	43.30999999999998	0.0
C 	25.82487754085196	44.72999999999999	0.0
C 	27.054633614225864	45.43999999999999	0.0
C 	28.284389687599766	44.72999999999999	0.0
C 	29.514145760973673	45.43999999999999	0.0
C 	30.743901834347568	44.72999999999999	0.0
C 	31.97365790772147	45.43999999999999	0.0
C 	33.20341398109537	44.72999999999999	0.0
C 	34.43317005446928	45.43999999999999	0.0
C 	35.662926127843185	44.72999999999999	0.0
C 	36.892682201217085	45.43999999999999	0.0
C 	38.122438274590984	44.72999999999999	0.0
C 	39.35219434796489	45.43999999999999	0.0
C 	40.581950421338796	44.72999999999999	0.0
C 	41.811706494712695	45.43999999999999	0.0
C 	43.0414625680866	44.72999999999999	0.0
C 	44.27121864146051	45.43999999999999	0.0
C 	45.500974714834406	44.72999999999999	0.0
C 	46.730730788208305	45.43999999999999	0.0
C 	47.960486861582204	44.72999999999999	0.0
C 	49.19024293495611	45.43999999999998	0.0
C 	50.41999900833002	44.72999999999999	0.0
C 	51.64975508170391	45.43999999999998	0.0
C 	52.87951115507782	44.72999999999999	0.0
C 	54.10926722845172	45.43999999999999	0.0
C 	55.33902330182562	44.72999999999998	0.0
C 	56.568779375199526	45.43999999999998	0.0
C 	57.798535448573425	44.72999999999998	0.0
C 	59.02829152194734	45.43999999999999	0.0
C 	60.25804759532124	44.72999999999999	0.0
C 	61.48780366869514	45.43999999999999	0.0
C 	62.717559742069035	44.72999999999998	0.0
C 	63.94731581544294	45.43999999999998	0.0
C 	65.17707188881685	44.72999999999999	0.0
C 	66.40682796219075	45.43999999999998	0.0
C 	67.63658403556465	44.72999999999999	0.0
C 	68.86634010893856	45.43999999999999	0.0
C 	70.09609618231245	44.72999999999999	0.0
C 	71.32585225568636	45.43999999999998	0.0
C 	72.55560832906026	44.72999999999998	0.0
C 	73.78536440243417	45.43999999999999	0.0
C 	75.01512047580806	44.72999999999998	0.0
C 	76.24487654918198	45.43999999999999	0.0
C 	77.47463262255587	44.72999999999999	0.0
C 	78.70438869592978	45.43999999999999	0.0
C 	79.93414476930369	44.72999999999999	0.0
C 	81.16390084267758	45.43999999999998	0.0
C 	82.39365691605148	44.72999999999999	0.0
C 	83.62341298942538	45.43999999999998	0.0
C 	84.8531690627993	44.72999999999998	0.0
C 	86.08292513617319	45.43999999999998	0.0
C 	27.054633614225864	46.85999999999999	0.0
C 	28.28438968759977	47.56999999999999	0.0
C 	29.514145760973673	46.85999999999999	0.0
C 	30.74390183434758	47.56999999999999	0.0
C 	31.973657907721474	46.85999999999999	0.0
C 	33.20341398109538	47.56999999999999	0.0
C 	34.43317005446928	46.85999999999999	0.0
C 	35.662926127843185	47.56999999999999	0.0
C 	36.892682201217085	46.85999999999999	0.0
C 	38.122438274590984	47.56999999999999	0.0
C 	39.35219434796489	46.85999999999999	0.0
C 	40.581950421338796	47.56999999999999	0.0
C 	41.8117064947127	46.85999999999999	0.0
C 	43.0414625680866	47.56999999999999	0.0
C 	44.2712186414605	46.85999999999999	0.0
C 	45.500974714834406	47.56999999999999	0.0
C 	46.73073078820831	46.859999999999985	0.0
C 	47.960486861582204	47.569999999999986	0.0
C 	49.19024293495612	46.85999999999999	0.0
C 	50.41999900833002	47.56999999999999	0.0
C 	51.649755081703915	46.859999999999985	0.0
C 	52.87951115507782	47.569999999999986	0.0
C 	54.10926722845172	46.859999999999985	0.0
C 	55.339023301825634	47.56999999999999	0.0
C 	56.56877937519953	46.85999999999999	0.0
C 	57.79853544857344	47.56999999999999	0.0
C 	59.02829152194733	46.859999999999985	0.0
C 	60.25804759532124	47.569999999999986	0.0
C 	61.48780366869515	46.85999999999999	0.0
C 	62.71755974206904	47.569999999999986	0.0
C 	63.94731581544295	46.85999999999999	0.0
C 	65.17707188881685	47.56999999999999	0.0
C 	66.40682796219075	46.859999999999985	0.0
C 	67.63658403556465	47.569999999999986	0.0
C 	68.86634010893856	46.859999999999985	0.0
C 	70.09609618231246	47.56999999999999	0.0
C 	71.32585225568636	46.859999999999985	0.0
C 	72.55560832906028	47.56999999999999	0.0
C 	73.78536440243417	46.859999999999985	0.0
C 	75.01512047580808	47.569999999999986	0.0
C 	76.24487654918197	46.859999999999985	0.0
C 	77.47463262255587	47.569999999999986	0.0
C 	78.70438869592978	46.85999999999999	0.0
C 	79.93414476930367	47.569999999999986	0.0
C 	81.16390084267758	46.85999999999999	0.0
C 	82.39365691605148	47.56999999999999	0.0
C 	83.62341298942539	46.859999999999985	0.0
C 	84.8531690627993	47.569999999999986	0.0
C 	86.08292513617319	46.85999999999998	0.0
C 	87.31268120954711	47.569999999999986	0.0
C 	28.284389687599763	48.98999999999999	0.0
C 	29.51414576097367	49.69999999999999	0.0
C 	30.74390183434757	48.98999999999999	0.0
C 	31.973657907721478	49.69999999999999	0.0
C 	33.20341398109537	48.98999999999999	0.0
C 	34.43317005446928	49.69999999999999	0.0
C 	35.66292612784318	48.98999999999999	0.0
C 	36.892682201217085	49.69999999999999	0.0
C 	38.122438274590984	48.98999999999999	0.0
C 	39.35219434796488	49.69999999999999	0.0
C 	40.58195042133879	48.98999999999999	0.0
C 	41.811706494712695	49.69999999999999	0.0
C 	43.041462568086594	48.98999999999999	0.0
C 	44.2712186414605	49.69999999999999	0.0
C 	45.5009747148344	48.98999999999999	0.0
C 	46.730730788208305	49.69999999999998	0.0
C 	47.96048686158221	48.98999999999999	0.0
C 	49.1902429349561	49.69999999999998	0.0
C 	50.41999900833002	48.98999999999999	0.0
C 	51.64975508170392	49.69999999999999	0.0
C 	52.879511155077815	48.98999999999999	0.0
C 	54.10926722845172	49.69999999999999	0.0
C 	55.33902330182562	48.98999999999998	0.0
C 	56.56877937519953	49.69999999999999	0.0
C 	57.79853544857343	48.98999999999999	0.0
C 	59.02829152194734	49.69999999999999	0.0
C 	60.25804759532124	48.98999999999999	0.0
C 	61.487803668695136	49.69999999999999	0.0
C 	62.71755974206905	48.98999999999999	0.0
C 	63.94731581544294	49.69999999999998	0.0
C 	65.17707188881685	48.98999999999999	0.0
C 	66.40682796219075	49.69999999999999	0.0
C 	67.63658403556465	48.98999999999999	0.0
C 	68.86634010893856	49.69999999999999	0.0
C 	70.09609618231245	48.98999999999998	0.0
C 	71.32585225568637	49.69999999999999	0.0
C 	72.55560832906025	48.98999999999998	0.0
C 	73.78536440243417	49.69999999999999	0.0
C 	75.01512047580806	48.98999999999999	0.0
C 	76.24487654918197	49.69999999999999	0.0
C 	77.47463262255587	48.98999999999998	0.0
C 	78.70438869592978	49.69999999999998	0.0
C 	79.93414476930369	48.98999999999999	0.0
C 	81.16390084267758	49.69999999999998	0.0
C 	82.39365691605148	48.98999999999999	0.0
C 	83.62341298942539	49.69999999999999	0.0
C 	84.85316906279928	48.98999999999998	0.0
C 	86.08292513617319	49.69999999999998	0.0
C 	87.3126812095471	48.98999999999998	0.0
C 	88.542437282921	49.69999999999999	0.0
C 	29.51414576097367	51.11999999999999	0.0
C 	30.74390183434757	51.82999999999999	0.0
C 	31.973657907721474	51.11999999999999	0.0
C 	33.20341398109538	51.82999999999999	0.0
C 	34.43317005446928	51.11999999999999	0.0
C 	35.66292612784318	51.82999999999999	0.0
C 	36.892682201217085	51.11999999999999	0.0
C 	38.12243827459099	51.82999999999999	0.0
C 	39.35219434796489	51.12	0.0
C 	40.581950421338796	51.83	0.0
C 	41.811706494712695	51.11999999999999	0.0
C 	43.041462568086594	51.82999999999999	0.0
C 	44.2712186414605	51.12	0.0
C 	45.5009747148344	51.82999999999999	0.0
C 	46.73073078820831	51.11999999999999	0.0
C 	47.96048686158221	51.82999999999999	0.0
C 	49.19024293495611	51.11999999999999	0.0
C 	50.41999900833002	51.82999999999999	0.0
C 	51.649755081703915	51.11999999999998	0.0
C 	52.879511155077815	51.829999999999984	0.0
C 	54.10926722845171	51.11999999999999	0.0
C 	55.33902330182563	51.83	0.0
C 	56.568779375199526	51.11999999999999	0.0
C 	57.79853544857343	51.82999999999999	0.0
C 	59.02829152194733	51.11999999999999	0.0
C 	60.25804759532124	51.82999999999999	0.0
C 	61.48780366869514	51.11999999999999	0.0
C 	62.717559742069035	51.829999999999984	0.0
C 	63.94731581544295	51.11999999999999	0.0
C 	65.17707188881685	51.82999999999999	0.0
C 	66.40682796219075	51.11999999999999	0.0
C 	67.63658403556465	51.82999999999999	0.0
C 	68.86634010893854	51.11999999999998	0.0
C 	70.09609618231246	51.82999999999999	0.0
C 	71.32585225568636	51.11999999999999	0.0
C 	72.55560832906026	51.82999999999999	0.0
C 	73.78536440243417	51.11999999999999	0.0
C 	75.01512047580806	51.82999999999999	0.0
C 	76.24487654918198	51.11999999999999	0.0
C 	77.47463262255587	51.829999999999984	0.0
C 	78.70438869592978	51.11999999999999	0.0
C 	79.93414476930367	51.829999999999984	0.0
C 	81.16390084267758	51.11999999999999	0.0
C 	82.39365691605148	51.82999999999999	0.0
C 	83.62341298942538	51.11999999999998	0.0
C 	84.8531690627993	51.82999999999999	0.0
C 	86.08292513617319	51.11999999999998	0.0
C 	87.3126812095471	51.82999999999999	0.0
C 	88.542437282921	51.11999999999998	0.0
C 	89.7721933562949	51.829999999999984	0.0
C 	51.84404231963138	0.23764671314847988	2.15
C 	53.20343600612692	0.6480718648096294	2.15
C 	53.52769424168405	2.030553906889519	2.15
C 	54.88708792817959	2.4409790585506683	2.15
C 	55.21134616373672	3.8234611006305577	2.15
C 	56.570739850232265	4.233886252291702	2.15
C 	56.894998085789396	5.616368294371592	2.15
C 	58.25439177228492	6.026793446032743	2.15
C 	58.57865000784205	7.409275488112632	2.15
C 	47.76586126014478	-0.9936287418349722	2.15
C 	49.12525494664032	-0.5832035901738227	2.15
C 	49.44951318219745	0.7992784519060667	2.15
C 	50.808906868692986	1.209703603567211	2.15
C 	51.13316510425012	2.5921856456471004	2.15
C 	52.49255879074565	3.00261079730825	2.15
C 	52.81681702630278	4.38509283938814	2.15
C 	54.176210712798316	4.795517991049291	2.15
C 	54.50046894835545	6.17800003312918	2.15
C 	55.859862634850984	6.588425184790323	2.15
C 	56.184120870408115	7.970907226870212	2.15
C 	57.54351455690365	8.381332378531363	2.15
C 	57.867772792460784	9.763814420611252	2.15
C 	59.22716647895632	10.174239572272404	2.15
C 	59.55142471451345	11.556721614352293	2.15
C 	60.91081840100899	11.967146766013437	2.15
C 	61.23507663656612	13.349628808093327	2.15
C 	62.59447032306165	13.760053959754478	2.15
C 	62.91872855861878	15.142536001834367	2.15
C 	45.37133212271084	-0.43199700307738353	2.15
C 	46.73072580920637	-0.021571851416232246	2.15
C 	47.0549840447635	1.3609101906636571	2.15
C 	48.414377731259044	1.7713353423248066	2.15
C 	48.738635966816176	3.153817384404696	2.15
C 	50.09802965331171	3.5642425360658385	2.15
C 	50.422287888868844	4.946724578145728	2.15
C 	51.78168157536439	5.357149729806878	2.15
C 	52.10593981092152	6.739631771886767	2.15
C 	53.46533349741704	7.150056923547918	2.15
C 	53.78959173297417	8.532538965627808	2.15
C 	55.14898541946971	8.942964117288952	2.15
C 	55.47324365502684	10.325446159368841	2.15
C 	56.83263734152238	10.73587131102999	2.15
C 	57.15689557707951	12.11835335310988	2.15
C 	58.516289263575054	12.528778504771031	2.15
C 	58.840547499132185	13.91126054685092	2.15
C 	60.19994118562771	14.321685698512066	2.15
C 	60.52419942118484	15.704167740591956	2.15
C 	61.88359310768038	16.114592892253107	2.15
C 	62.207851343237515	17.497074934332996	2.15
C 	63.567245029733044	17.907500085994144	2.15
C 	63.891503265290176	19.289982128074033	2.15
C 	65.25089695178572	19.700407279735177	2.15
C 	65.57515518734284	21.082889321815067	2.15
C 	66.93454887383838	21.49331447347621	2.15
C 	67.25880710939552	22.8757965155561	2.15
C 	42.976802985276905	0.12963473568020512	2.15
C 	44.336196671772434	0.5400598873413511	2.15
C 	44.660454907329566	1.9225419294212371	2.15
C 	46.0198485938251	2.332967081082392	2.15
C 	46.344106829382234	3.7154491231622777	2.15
C 	47.703500515877764	4.125874274823433	2.15
C 	48.027758751434895	5.508356316903319	2.15
C 	49.38715243793044	5.918781468564465	2.15
C 	49.71141067348757	7.30126351064435	2.15
C 	51.07080435998311	7.711688662305503	2.15
C 	51.39506259554024	9.09417070438539	2.15
C 	52.75445628203578	9.504595856046542	2.15
C 	53.078714517592914	10.887077898126428	2.15
C 	54.43810820408844	11.297503049787576	2.15
C 	54.76236643964557	12.679985091867461	2.15
C 	56.121760126141105	13.090410243528616	2.15
C 	56.446018361698236	14.472892285608502	2.15
C 	57.80541204819377	14.883317437269655	2.15
C 	58.129670283750905	16.265799479349543	2.15
C 	59.48906397024644	16.67622463101069	2.15
C 	59.813322205803566	18.058706673090576	2.15
C 	61.17271589229911	18.46913182475173	2.15
C 	61.49697412785624	19.851613866831617	2.15
C 	62.85636781435178	20.262039018492768	2.15
C 	63.18062604990891	21.644521060572657	2.15
C 	64.54001973640443	22.0549462122338	2.15
C 	64.86427797196157	23.43742825431369	2.15
C 	66.2236716584571	23.84785340597483	2.15
C 	66.54792989401425	25.23033544805472	2.15
C 	67.90732358050977	25.64076059971588	2.15
C 	68.2315818160669	27.02324264179577	2.15
C 	69.59097550256244	27.433667793456912	2.15
C 	69.91523373811958	28.8161498355368	2.15
C 	71.2746274246151	29.226574987197946	2.15
C 	71.59888566017224	30.609057029277835	2.15
C 	40.58227384784296	0.6912664744377938	2.15
C 	41.94166753433849	1.101691626098945	2.15
C 	42.265925769895624	2.4841736681788347	2.15
C 	43.62531945639117	2.894598819839977	2.15
C 	43.9495776919483	4.277080861919867	2.15
C 	45.30897137844383	4.687506013581016	2.15
C 	45.63322961400096	6.069988055660906	2.15
C 	46.9926233004965	6.480413207322057	2.15
C 	47.31688153605363	7.862895249401946	2.15
C 	48.67627522254916	8.27332040106309	2.15
C 	49.00053345810629	9.65580244314298	2.15
C 	50.35992714460183	10.066227594804129	2.15
C 	50.684185380158965	11.448709636884018	2.15
C 	52.0435790666545	11.859134788545168	2.15
C 	52.36783730221163	13.241616830625057	2.15
C 	53.72723098870718	13.6520419822862	2.15
C 	54.05148922426431	15.034524024366089	2.15
C 	55.410882910759824	15.444949176027244	2.15
C 	55.735141146316955	16.827431218107133	2.15
C 	57.0945348328125	17.23785636976828	2.15
C 	57.41879306836963	18.62033841184817	2.15
C 	58.77818675486517	19.030763563509314	2.15
C 	59.1024449904223	20.413245605589204	2.15
C 	60.46183867691784	20.823670757250355	2.15
C 	60.786096912474974	22.206152799330244	2.15
C 	62.1454905989705	22.616577950991395	2.15
C 	62.46974883452763	23.999059993071285	2.15
C 	63.829142521023165	24.40948514473243	2.15
C 	64.1534007565803	25.791967186812318	2.15
C 	65.51279444307583	26.202392338473462	2.15
C 	65.83705267863296	27.58487438055335	2.15
C 	67.19644636512851	27.995299532214506	2.15
C 	67.52070460068563	29.377781574294396	2.15
C 	68.88009828718117	29.78820672595554	2.15
C 	69.20435652273831	31.17068876803543	2.15
C 	70.56375020923383	31.581113919696573	2.15
C 	70.88800844479097	32.96359596177646	2.15
C 	72.2474021312865	33.37402111343762	2.15
C 	72.57166036684364	34.75650315551751	2.15
C 	73.93105405333918	35.16692830717865	2.15
C 	74.2553122888963	36.549410349258544	2.15
C 	75.61470597539184	36.95983550091968	2.15
C 	75.93896421094897	38.342317542999574	2.15
C 	36.504092788356346	-0.5400089805456496	2.15
C 	37.86348647485189	-0.1295838288845001	2.15
C 	38.18774471040902	1.2528982131953894	2.15
C 	39.54713839690456	1.663323364856532	2.15
C 	39.87139663246169	3.0458054069364215	2.15
C 	41.230790318957226	3.4562305585975728	2.15
C 	41.55504855451436	4.838712600677462	2.15
C 	42.91444224100989	5.249137752338607	2.15
C 	43.23870047656702	6.631619794418496	2.15
C 	44.59809416306256	7.0420449460796455	2.15
C 	44.922352398619694	8.424526988159535	2.15
C 	46.28174608511522	8.834952139820684	2.15
C 	46.606004320672355	10.217434181900574	2.15
C 	47.96539800716789	10.627859333561718	2.15
C 	48.28965624272502	12.010341375641607	2.15
C 	49.64904992922056	12.420766527302757	2.15
C 	49.97330816477769	13.803248569382646	2.15
C 	51.33270185127323	14.213673721043797	2.15
C 	51.65696008683036	15.596155763123686	2.15
C 	53.016353773325896	16.00658091478483	2.15
C 	53.34061200888303	17.38906295686472	2.15
C 	54.700005695378564	17.79948810852587	2.15
C 	55.024263930935696	19.18197015060576	2.15
C 	56.383657617431226	19.592395302266908	2.15
C 	56.70791585298836	20.974877344346798	2.15
C 	58.067309539483894	21.38530249600794	2.15
C 	58.391567775041025	22.76778453808783	2.15
C 	59.75096146153656	23.178209689748982	2.15
C 	60.075219697093694	24.56069173182887	2.15
C 	61.43461338358923	24.971116883490023	2.15
C 	61.75887161914636	26.353598925569912	2.15
C 	63.1182653056419	26.764024077231056	2.15
C 	63.44252354119903	28.146506119310946	2.15
C 	64.80191722769457	28.55693127097209	2.15
C 	65.1261754632517	29.93941331305198	2.15
C 	66.48556914974723	30.349838464713137	2.15
C 	66.80982738530436	31.732320506793027	2.15
C 	68.1692210717999	32.14274565845417	2.15
C 	68.49347930735703	33.52522770053406	2.15
C 	69.85287299385256	33.935652852195204	2.15
C 	70.1771312294097	35.31813489427509	2.15
C 	71.53652491590523	35.72856004593625	2.15
C 	71.86078315146237	37.111042088016134	2.15
C 	73.2201768379579	37.52146723967728	2.15
C 	73.54443507351503	38.90394928175717	2.15
C 	74.90382876001057	39.314374433418315	2.15
C 	75.22808699556771	40.6968564754982	2.15
C 	34.10956365092242	0.021622758211933824	2.15
C 	35.46895733741795	0.4320479098730851	2.15
C 	35.79321557297508	1.8145299519529712	2.15
C 	37.15260925947061	2.2249551036141257	2.15
C 	37.47686749502774	3.607437145694012	2.15
C 	38.836261181523284	4.017862297355157	2.15
C 	39.160519417080415	5.400344339435044	2.15
C 	40.51991310357595	5.810769491096197	2.15
C 	40.844171339133084	7.193251533176083	2.15
C 	42.20356502562862	7.603676684837231	2.15
C 	42.52782326118575	8.986158726917116	2.15
C 	43.88721694768128	9.396583878578271	2.15
C 	44.21147518323841	10.779065920658157	2.15
C 	45.57086886973396	11.18949107231931	2.15
C 	45.89512710529109	12.571973114399196	2.15
C 	47.25452079178662	12.982398266060342	2.15
C 	47.57877902734375	14.364880308140227	2.15
C 	48.93817271383929	14.77530545980138	2.15
C 	49.262430949396425	16.157787501881266	2.15
C 	50.621824635891954	16.56821265354242	2.15
C 	50.946082871449086	17.950694695622307	2.15
C 	52.30547655794462	18.361119847283454	2.15
C 	52.62973479350175	19.74360188936334	2.15
C 	53.98912847999729	20.154027041024495	2.15
C 	54.31338671555442	21.53650908310438	2.15
C 	55.672780402049966	21.94693423476553	2.15
C 	55.9970386376071	23.329416276845418	2.15
C 	57.35643232410261	23.739841428506566	2.15
C 	57.680690559659745	25.122323470586455	2.15
C 	59.04008424615529	25.532748622247613	2.15
C 	59.36434248171241	26.915230664327495	2.15
C 	60.72373616820796	27.325655815988643	2.15
C 	61.04799440376509	28.708137858068532	2.15
C 	62.407388090260625	29.118563009729677	2.15
C 	62.731646325817756	30.501045051809566	2.15
C 	64.0910400123133	30.91147020347071	2.15
C 	64.41529824787042	32.2939522455506	2.15
C 	65.77469193436596	32.70437739721176	2.15
C 	66.09895016992309	34.08685943929165	2.15
C 	67.45834385641862	34.49728459095279	2.15
C 	67.78260209197575	35.87976663303268	2.15
C 	69.1419957784713	36.290191784693825	2.15
C 	69.46625401402842	37.67267382677371	2.15
C 	70.82564770052396	38.08309897843487	2.15
C 	71.1499059360811	39.465581020514755	2.15
C 	72.50929962257662	39.876006172175906	2.15
C 	72.83355785813376	41.25848821425579	2.15
C 	74.1929515446293	41.668913365916936	2.15
C 	74.51720978018642	43.05139540799683	2.15
C 	31.715034513488472	0.5832544969695277	2.15
C 	33.07442819998401	0.9936796486306737	2.15
C 	33.398686435541144	2.376161690710563	2.15
C 	34.758080122036674	2.786586842371711	2.15
C 	35.082338357593805	4.1690688844516	2.15
C 	36.44173204408934	4.57949403611275	2.15
C 	36.76599027964647	5.961976078192639	2.15
C 	38.125383966142	6.372401229853784	2.15
C 	38.449642201699135	7.754883271933673	2.15
C 	39.80903588819468	8.165308423594823	2.15
C 	40.13329412375181	9.547790465674712	2.15
C 	41.49268781024734	9.958215617335856	2.15
C 	41.81694604580447	11.340697659415746	2.15
C 	43.176339732300015	11.751122811076895	2.15
C 	43.500597967857146	13.133604853156784	2.15
C 	44.859991654352676	13.544030004817936	2.15
C 	45.18424988990981	14.926512046897825	2.15
C 	46.54364357640535	15.336937198558967	2.15
C 	46.86790181196248	16.719419240638857	2.15
C 	48.22729549845801	17.129844392300008	2.15
C 	48.551553734015144	18.512326434379897	2.15
C 	49.91094742051068	18.92275158604105	2.15
C 	50.23520565606781	20.305233628120938	2.15
C 	51.59459934256335	20.71565877978208	2.15
C 	51.91885757812048	22.098140821861968	2.15
C 	53.27825126461602	22.50856597352312	2.15
C 	53.60250950017315	23.89104801560301	2.15
C 	54.961903186668685	24.30147316726416	2.15
C 	55.28616142222582	25.68395520934405	2.15
C 	56.64555510872135	26.094380361005193	2.15
C 	56.96981334427848	27.476862403085082	2.15
C 	58.329207030774015	27.887287554746234	2.15
C 	58.653465266331146	29.269769596826123	2.15
C 	60.01285895282668	29.680194748487274	2.15
C 	60.337117188383814	31.062676790567163	2.15
C 	61.69651087487935	31.473101942228304	2.15
C 	62.02076911043648	32.8555839843082	2.15
C 	63.38016279693202	33.26600913596934	2.15
C 	63.70442103248915	34.64849117804923	2.15
C 	65.06381471898469	35.058916329710385	2.15
C 	65.38807295454183	36.44139837179028	2.15
C 	66.74746664103736	36.851823523451415	2.15
C 	67.07172487659449	38.23430556553131	2.15
C 	68.43111856309001	38.64473071719245	2.15
C 	68.75537679864715	40.027212759272345	2.15
C 	70.11477048514269	40.437637910933496	2.15
C 	70.43902872069982	41.82011995301339	2.15
C 	71.79842240719535	42.23054510467453	2.15
C 	72.12268064275248	43.61302714675442	2.15
C 	73.48207432924802	44.02345229841556	2.15
C 	73.80633256480516	45.405934340495456	2.15
C 	27.63685345400187	-0.6480209580139209	2.15
C 	28.996247140497402	-0.23759580635277308	2.15
C 	29.320505376054534	1.1448862357271163	2.15
C 	30.67989906255007	1.5553113873882658	2.15
C 	31.004157298107202	2.9377934294681554	2.15
C 	32.36355098460273	3.348218581129303	2.15
C 	32.68780922015986	4.730700623209192	2.15
C 	34.04720290665541	5.141125774870338	2.15
C 	34.37146114221254	6.523607816950228	2.15
C 	35.73085482870807	6.934032968611379	2.15
C 	36.0551130642652	8.316515010691269	2.15
C 	37.41450675076074	8.726940162352411	2.15
C 	37.73876498631787	10.1094222044323	2.15
C 	39.0981586728134	10.519847356093452	2.15
C 	39.42241690837053	11.902329398173341	2.15
C 	40.78181059486607	12.312754549834484	2.15
C 	41.106068830423204	13.695236591914373	2.15
C 	42.465462516918734	14.105661743575524	2.15
C 	42.789720752475866	15.488143785655414	2.15
C 	44.14911443897141	15.898568937316563	2.15
C 	44.47337267452854	17.281050979396454	2.15
C 	45.83276636102407	17.6914761310576	2.15
C 	46.1570245965812	19.073958173137488	2.15
C 	47.516418283076746	19.484383324798635	2.15
C 	47.84067651863388	20.866865366878525	2.15
C 	49.20007020512941	21.277290518539676	2.15
C 	49.52432844068654	22.659772560619565	2.15
C 	50.883722127182075	23.07019771228071	2.15
C 	51.20798036273921	24.4526797543606	2.15
C 	52.567374049234736	24.86310490602175	2.15
C 	52.89163228479187	26.24558694810164	2.15
C 	54.25102597128741	26.65601209976279	2.15
C 	54.57528420684454	28.03849414184268	2.15
C 	55.93467789334007	28.448919293503824	2.15
C 	56.258936128897204	29.831401335583713	2.15
C 	57.61832981539275	30.24182648724486	2.15
C 	57.94258805094988	31.62430852932475	2.15
C 	59.3019817374454	32.0347336809859	2.15
C 	59.626239973002534	33.417215723065794	2.15
C 	60.98563365949807	33.82764087472693	2.15
C 	61.3098918950552	35.210122916806824	2.15
C 	62.669285581550746	35.62054806846797	2.15
C 	62.99354381710788	37.003030110547854	2.15
C 	64.35293750360341	37.41345526220901	2.15
C 	64.67719573916054	38.795937304288906	2.15
C 	66.03658942565608	39.20636245595005	2.15
C 	66.36084766121321	40.588844498029935	2.15
C 	67.72024134770875	40.99926964969108	2.15
C 	68.04449958326587	42.38175169177097	2.15
C 	69.40389326976141	42.79217684343213	2.15
C 	69.72815150531855	44.17465888551202	2.15
C 	71.08754519181407	44.58508403717316	2.15
C 	71.41180342737121	45.967566079253054	2.15
C 	72.77119711386675	46.37799123091419	2.15
C 	25.242324316567927	-0.08638921925633569	2.15
C 	26.60171800306346	0.3240359324048147	2.15
C 	26.925976238620592	1.7065179744847008	2.15
C 	28.285369925116132	2.116943126145851	2.15
C 	28.609628160673264	3.499425168225737	2.15
C 	29.969021847168797	3.9098503198868917	2.15
C 	30.29328008272593	5.2923323619667775	2.15
C 	31.652673769221465	5.702757513627927	2.15
C 	31.976932004778597	7.085239555707814	2.15
C 	33.336325691274126	7.495664707368965	2.15
C 	33.66058392683126	8.87814674944885	2.15
C 	35.0199776133268	9.288571901110004	2.15
C 	35.34423584888393	10.67105394318989	2.15
C 	36.70362953537946	11.081479094851037	2.15
C 	37.027887770936594	12.463961136930923	2.15
C 	38.38728145743213	12.874386288592076	2.15
C 	38.71153969298926	14.256868330671962	2.15
C 	40.07093337948479	14.66729348233311	2.15
C 	40.395191615041924	16.049775524412997	2.15
C 	41.75458530153747	16.460200676074148	2.15
C 	42.0788435370946	17.842682718154034	2.15
C 	43.43823722359013	18.25310786981519	2.15
C 	43.76249545914726	19.635589911895075	2.15
C 	45.121889145642804	20.046015063556222	2.15
C 	45.44614738119993	21.428497105636108	2.15
C 	46.80554106769547	21.83892225729726	2.15
C 	47.129799303252604	23.221404299377145	2.15
C 	48.48919298974814	23.631829451038296	2.15
C 	48.81345122530527	25.014311493118186	2.15
C 	50.1728449118008	25.42473664477933	2.15
C 	50.49710314735793	26.80721868685922	2.15
C 	51.85649683385347	27.217643838520377	2.15
C 	52.180755069410594	28.60012588060026	2.15
C 	53.54014875590614	29.01055103226141	2.15
C 	53.86440699146327	30.3930330743413	2.15
C 	55.2238006779588	30.803458226002444	2.15
C 	55.54805891351593	32.185940268082334	2.15
C 	56.907452600011474	32.59636541974349	2.15
C 	57.231710835568606	33.97884746182337	2.15
C 	58.591104522064136	34.38927261348452	2.15
C 	58.91536275762127	35.771754655564415	2.15
C 	60.274756444116804	36.18217980722555	2.15
C 	60.599014679673935	37.564661849305445	2.15
C 	61.95840836616947	37.97508700096659	2.15
C 	62.2826666017266	39.357569043046475	2.15
C 	63.64206028822214	39.76799419470763	2.15
C 	63.96631852377927	41.150476236787526	2.15
C 	65.32571221027482	41.56090138844867	2.15
C 	65.64997044583194	42.943383430528556	2.15
C 	67.00936413232748	43.3538085821897	2.15
C 	67.3336223678846	44.73629062426959	2.15
C 	68.69301605438015	45.14671577593075	2.15
C 	22.847795179133985	0.47524251950125124	2.15
C 	24.207188865629522	0.8856676711624033	2.15
C 	24.531447101186654	2.268149713242291	2.15
C 	25.890840787682194	2.678574864903439	2.15
C 	26.215099023239326	4.061056906983326	2.15
C 	27.574492709734855	4.471482058644476	2.15
C 	27.898750945291987	5.8539641007243635	2.15
C 	29.258144631787527	6.264389252385516	2.15
C 	29.58240286734466	7.646871294465403	2.15
C 	30.94179655384019	8.057296446126553	2.15
C 	31.266054789397323	9.43977848820644	2.15
C 	32.62544847589286	9.850203639867589	2.15
C 	32.94970671144999	11.232685681947478	2.15
C 	34.30910039794552	11.64311083360863	2.15
C 	34.63335863350265	13.025592875688519	2.15
C 	35.992752319998196	13.436018027349661	2.15
C 	36.31701055555533	14.81850006942955	2.15
C 	37.67640424205086	15.228925221090702	2.15
C 	38.00066247760799	16.61140726317059	2.15
C 	39.360056164103526	17.021832414831735	2.15
C 	39.68431439966066	18.404314456911624	2.15
C 	41.04370808615619	18.814739608572776	2.15
C 	41.36796632171332	20.197221650652665	2.15
C 	42.72736000820886	20.607646802313813	2.15
C 	43.051618243765994	21.990128844393702	2.15
C 	44.41101193026152	22.400553996054846	2.15
C 	44.735270165818655	23.783036038134735	2.15
C 	46.0946638523142	24.193461189795887	2.15
C 	46.41892208787133	25.575943231875776	2.15
C 	47.77831577436687	25.986368383536924	2.15
C 	48.102574009924	27.368850425616813	2.15
C 	49.46196769641953	27.77927557727796	2.15
C 	49.78622593197666	29.16175761935785	2.15
C 	51.14561961847219	29.572182771019	2.15
C 	51.46987785402932	30.95466481309889	2.15
C 	52.829271540524864	31.36508996476004	2.15
C 	53.153529776081996	32.74757200683993	2.15
C 	54.512923462577525	33.157997158501075	2.15
C 	54.83718169813466	34.54047920058096	2.15
C 	56.196575384630194	34.95090435224211	2.15
C 	56.520833620187325	36.333386394322	2.15
C 	57.88022730668286	36.74381154598315	2.15
C 	58.20448554223999	38.12629358806304	2.15
C 	59.56387922873553	38.536718739724186	2.15
C 	59.88813746429266	39.91920078180407	2.15
C 	61.2475311507882	40.329625933465216	2.15
C 	61.57178938634533	41.71210797554511	2.15
C 	62.93118307284086	42.12253312720626	2.15
C 	63.25544130839799	43.50501516928615	2.15
C 	64.61483499489353	43.9154403209473	2.15
C 	64.93909323045067	45.29792236302718	2.15
C 	66.2984869169462	45.70834751468833	2.15
C 	18.76961411964738	-0.7560329354821965	2.15
C 	20.129007806142916	-0.34560778382104784	2.15
C 	20.453266041700047	1.03687425825884	2.15
C 	21.812659728195584	1.4472994099199885	2.15
C 	22.136917963752715	2.8297814519998763	2.15
C 	23.49631165024825	3.2402066036610284	2.15
C 	23.82056988580538	4.622688645740916	2.15
C 	25.179963572300917	5.0331137974020645	2.15
C 	25.50422180785805	6.415595839481952	2.15
C 	26.86361549435359	6.8260209911431	2.15
C 	27.18787372991072	8.208503033222987	2.15
C 	28.54726741640625	8.61892818488414	2.15
C 	28.87152565196338	10.001410226964026	2.15
C 	30.23091933845892	10.411835378625177	2.15
C 	30.555177574016053	11.794317420705067	2.15
C 	31.914571260511583	12.204742572366214	2.15
C 	32.23882949606872	13.5872246144461	2.15
C 	33.598223182564254	13.997649766107253	2.15
C 	33.922481418121386	15.380131808187139	2.15
C 	35.281875104616915	15.790556959848287	2.15
C 	35.60613334017405	17.173039001928174	2.15
C 	36.96552702666959	17.583464153589325	2.15
C 	37.28978526222672	18.96594619566921	2.15
C 	38.64917894872225	19.37637134733036	2.15
C 	38.97343718427938	20.758853389410245	2.15
C 	40.33283087077492	21.1692785410714	2.15
C 	40.657089106332045	22.551760583151285	2.15
C 	42.01648279282758	22.96218573481244	2.15
C 	42.34074102838471	24.344667776892326	2.15
C 	43.70013471488026	24.755092928553474	2.15
C 	44.02439295043738	26.13757497063336	2.15
C 	45.383786636932925	26.548000122294507	2.15
C 	45.708044872490056	27.930482164374396	2.15
C 	47.06743855898559	28.340907316035555	2.15
C 	47.39169679454272	29.723389358115437	2.15
C 	48.75109048103826	30.133814509776588	2.15
C 	49.07534871659539	31.51629655185647	2.15
C 	50.43474240309092	31.92672170351762	2.15
C 	50.759000638648054	33.30920374559751	2.15
C 	52.11839432514359	33.719628897258666	2.15
C 	52.44265256070072	35.10211093933855	2.15
C 	53.80204624719625	35.5125360909997	2.15
C 	54.12630448275338	36.89501813307958	2.15
C 	55.48569816924893	37.30544328474073	2.15
C 	55.80995640480606	38.68792532682062	2.15
C 	57.169350091301595	39.09835047848178	2.15
C 	57.49360832685872	40.48083252056166	2.15
C 	58.85300201335426	40.891257672222814	2.15
C 	59.177260248911395	42.27373971430269	2.15
C 	60.53665393540693	42.684164865963844	2.15
C 	60.86091217096406	44.06664690804373	2.15
C 	62.22030585745959	44.477072059704895	2.15
C 	62.544564093016724	45.859554101784774	2.15
C 	63.90395777951226	46.269979253445925	2.15
C 	16.37508498221344	-0.1944011967246061	2.15
C 	17.734478668708974	0.21602395493654256	2.15
C 	18.058736904266105	1.5985059970164301	2.15
C 	19.418130590761642	2.0089311486775787	2.15
C 	19.742388826318773	3.3914131907574667	2.15
C 	21.10178251281431	3.8018383424186153	2.15
C 	21.42604074837144	5.184320384498503	2.15
C 	22.78543443486698	5.594745536159655	2.15
C 	23.10969267042411	6.9772275782395425	2.15
C 	24.469086356919647	7.38765272990069	2.15
C 	24.793344592476778	8.770134771980578	2.15
C 	26.15273827897231	9.180559923641727	2.15
C 	26.476996514529443	10.563041965721615	2.15
C 	27.836390201024983	10.973467117382764	2.15
C 	28.160648436582115	12.355949159462654	2.15
C 	29.520042123077644	12.766374311123807	2.15
C 	29.844300358634776	14.148856353203692	2.15
C 	31.203694045130312	14.559281504864838	2.15
C 	31.527952280687444	15.941763546944728	2.15
C 	32.88734596718298	16.35218869860588	2.15
C 	33.21160420274011	17.734670740685768	2.15
C 	34.57099788923565	18.145095892346912	2.15
C 	34.89525612479278	19.5275779344268	2.15
C 	36.25464981128831	19.938003086087953	2.15
C 	36.57890804684544	21.320485128167842	2.15
C 	37.93830173334098	21.730910279828983	2.15
C 	38.26255996889811	23.113392321908872	2.15
C 	39.621953655393646	23.523817473570023	2.15
C 	39.94621189095078	24.906299515649913	2.15
C 	41.305605577446315	25.316724667311064	2.15
C 	41.629863813003446	26.699206709390953	2.15
C 	42.989257499498976	27.109631861052097	2.15
C 	43.31351573505611	28.492113903131987	2.15
C 	44.672909421551644	28.902539054793138	2.15
C 	44.997167657108776	30.285021096873027	2.15
C 	46.35656134360432	30.695446248534175	2.15
C 	46.68081957916145	32.07792829061407	2.15
C 	48.04021326565698	32.48835344227521	2.15
C 	48.36447150121411	33.8708354843551	2.15
C 	49.72386518770965	34.28126063601625	2.15
C 	50.04812342326678	35.66374267809614	2.15
C 	51.40751710976232	36.074167829757286	2.15
C 	51.73177534531945	37.45664987183718	2.15
C 	53.09116903181498	37.86707502349832	2.15
C 	53.41542726737211	39.24955706557821	2.15
C 	54.774820953867646	39.65998221723936	2.15
C 	55.09907918942478	41.04246425931925	2.15
C 	56.458472875920314	41.452889410980404	2.15
C 	56.782731111477446	42.83537145306029	2.15
C 	58.14212479797298	43.245796604721434	2.15
C 	58.466383033530114	44.62827864680133	2.15
C 	59.82577672002566	45.038703798462464	2.15
C 	60.15003495558279	46.42118584054236	2.15
C 	61.50942864207832	46.831610992203515	2.15
C 	13.9805558447795	0.36723054203298255	2.15
C 	15.339949531275035	0.7776556936941329	2.15
C 	15.664207766832167	2.1601377357740206	2.15
C 	17.023601453327704	2.570562887435169	2.15
C 	17.347859688884835	3.953044929515057	2.15
C 	18.70725337538037	4.363470081176206	2.15
C 	19.0315116109375	5.745952123256093	2.15
C 	20.390905297433036	6.156377274917242	2.15
C 	20.715163532990168	7.538859316997129	2.15
C 	22.074557219485705	7.9492844686582815	2.15
C 	22.398815455042836	9.33176651073817	2.15
C 	23.758209141538373	9.742191662399318	2.15
C 	24.082467377095504	11.124673704479203	2.15
C 	25.441861063591038	11.535098856140355	2.15
C 	25.76611929914817	12.917580898220244	2.15
C 	27.125512985643706	13.328006049881395	2.15
C 	27.449771221200837	14.710488091961285	2.15
C 	28.809164907696374	15.12091324362243	2.15
C 	29.133423143253502	16.503395285702318	2.15
C 	30.492816829749035	16.913820437363466	2.15
C 	30.81707506530617	18.296302479443355	2.15
C 	32.17646875180171	18.706727631104506	2.15
C 	32.50072698735884	20.089209673184396	2.15
C 	33.860120673854375	20.49963482484554	2.15
C 	34.18437890941151	21.88211686692543	2.15
C 	35.543772595907036	22.29254201858658	2.15
C 	35.86803083146417	23.67502406066647	2.15
C 	37.227424517959705	24.085449212327614	2.15
C 	37.551682753516836	25.467931254407503	2.15
C 	38.91107644001237	25.878356406068654	2.15
C 	39.235334675569504	27.260838448148544	2.15
C 	40.59472836206504	27.67126359980969	2.15
C 	40.91898659762217	29.05374564188958	2.15
C 	42.2783802841177	29.464170793550725	2.15
C 	42.602638519674834	30.846652835630614	2.15
C 	43.96203220617038	31.257077987291765	2.15
C 	44.28629044172751	32.63956002937165	2.15
C 	45.645684128223046	33.0499851810328	2.15
C 	45.96994236378018	34.432467223112695	2.15
C 	47.329336050275714	34.84289237477384	2.15
C 	47.653594285832845	36.225374416853725	2.15
C 	49.012987972328375	36.63579956851488	2.15
C 	49.33724620788551	38.01828161059477	2.15
C 	50.69663989438105	38.42870676225591	2.15
C 	51.02089812993818	39.811188804335806	2.15
C 	52.38029181643371	40.22161395599695	2.15
C 	52.70455005199084	41.604095998076836	2.15
C 	54.06394373848638	42.01452114973799	2.15
C 	54.38820197404351	43.39700319181788	2.15
C 	55.74759566053904	43.80742834347903	2.15
C 	56.07185389609617	45.18991038555892	2.15
C 	57.431247582591716	45.60033553722006	2.15
C 	9.902374785292892	-0.8640449129504669	2.15
C 	11.261768471788427	-0.45361976128931825	2.15
C 	11.586026707345559	0.9288622807905694	2.15
C 	12.945420393841097	1.3392874324517194	2.15
C 	13.269678629398229	2.721769474531607	2.15
C 	14.629072315893763	3.132194626192758	2.15
C 	14.953330551450895	4.514676668272646	2.15
C 	16.31272423794643	4.925101819933794	2.15
C 	16.63698247350356	6.307583862013682	2.15
C 	17.996376159999098	6.7180090136748305	2.15
C 	18.32063439555623	8.100491055754718	2.15
C 	19.680028082051763	8.510916207415868	2.15
C 	20.004286317608894	9.893398249495755	2.15
C 	21.36368000410443	10.303823401156906	2.15
C 	21.687938239661563	11.686305443236792	2.15
C 	23.0473319261571	12.096730594897943	2.15
C 	23.37159016171423	13.479212636977833	2.15
C 	24.730983848209764	13.88963778863898	2.15
C 	25.055242083766895	15.272119830718866	2.15
C 	26.414635770262432	15.68254498238002	2.15
C 	26.73889400581956	17.065027024459905	2.15
C 	28.098287692315097	17.475452176121056	2.15
C 	28.422545927872232	18.857934218200946	2.15
C 	29.781939614367765	19.268359369862093	2.15
C 	30.106197849924897	20.65084141194198	2.15
C 	31.46559153642043	21.06126656360313	2.15
C 	31.78984977197756	22.44374860568302	2.15
C 	33.1492434584731	22.854173757344164	2.15
C 	33.473501694030226	24.23665579942405	2.15
C 	34.83289538052577	24.647080951085204	2.15
C 	35.1571536160829	26.02956299316509	2.15
C 	36.51654730257843	26.43998814482624	2.15
C 	36.84080553813556	27.822470186906124	2.15
C 	38.2001992246311	28.232895338567275	2.15
C 	38.52445746018823	29.615377380647164	2.15
C 	39.88385114668377	30.025802532308322	2.15
C 	40.2081093822409	31.408284574388205	2.15
C 	41.567503068736436	31.818709726049356	2.15
C 	41.89176130429357	33.201191768129235	2.15
C 	43.2511549907891	33.611616919790386	2.15
C 	43.57541322634623	34.99409896187028	2.15
C 	44.93480691284177	35.40452411353143	2.15
C 	45.2590651483989	36.787006155611316	2.15
C 	46.61845883489443	37.19743130727247	2.15
C 	46.942717070451565	38.579913349352346	2.15
C 	48.3021107569471	38.9903385010135	2.15
C 	48.62636899250423	40.37282054309339	2.15
C 	49.98576267899978	40.78324569475455	2.15
C 	50.3100209145569	42.16572773683443	2.15
C 	51.66941460105244	42.57615288849558	2.15
C 	51.99367283660957	43.958634930575464	2.15
C 	53.353066523105106	44.369060082236615	2.15
C 	53.67732475866224	45.7515421243165	2.15
C 	55.03671844515777	46.16196727597766	2.15
C 	7.507845647858952	-0.3024131741928783	2.15
C 	8.867239334354487	0.10801197746827128	2.15
C 	9.191497569911618	1.490494019548159	2.15
C 	10.550891256407155	1.9009191712093076	2.15
C 	10.875149491964287	3.283401213289195	2.15
C 	12.234543178459823	3.693826364950345	2.15
C 	12.558801414016955	5.076308407030233	2.15
C 	13.918195100512492	5.486733558691382	2.15
C 	14.242453336069623	6.869215600771272	2.15
C 	15.601847022565156	7.279640752432419	2.15
C 	15.926105258122288	8.662122794512308	2.15
C 	17.285498944617824	9.072547946173456	2.15
C 	17.609757180174956	10.455029988253346	2.15
C 	18.96915086667049	10.865455139914491	2.15
C 	19.293409102227624	12.24793718199438	2.15
C 	20.652802788723157	12.658362333655532	2.15
C 	20.97706102428029	14.040844375735421	2.15
C 	22.336454710775822	14.451269527396569	2.15
C 	22.660712946332957	15.833751569476458	2.15
C 	24.02010663282849	16.244176721137606	2.15
C 	24.34436486838562	17.626658763217495	2.15
C 	25.70375855488116	18.037083914878643	2.15
C 	26.028016790438294	19.419565956958532	2.15
C 	27.387410476933823	19.82999110861968	2.15
C 	27.711668712490955	21.21247315069957	2.15
C 	29.07106239898649	21.622898302360717	2.15
C 	29.395320634543623	23.005380344440606	2.15
C 	30.75471432103916	23.415805496101758	2.15
C 	31.07897255659629	24.798287538181647	2.15
C 	32.43836624309182	25.20871268984279	2.15
C 	32.76262447864896	26.59119473192268	2.15
C 	34.122018165144496	27.001619883583828	2.15
C 	34.44627640070163	28.384101925663717	2.15
C 	35.80567008719716	28.794527077324865	2.15
C 	36.12992832275429	30.177009119404755	2.15
C 	37.489322009249825	30.587434271065902	2.15
C 	37.81358024480696	31.96991631314579	2.15
C 	39.172973931302494	32.380341464806946	2.15
C 	39.497232166859625	33.76282350688683	2.15
C 	40.85662585335516	34.173248658547976	2.15
C 	41.18088408891229	35.55573070062786	2.15
C 	42.54027777540784	35.96615585228901	2.15
C 	42.86453601096497	37.348637894368906	2.15
C 	44.22392969746049	37.75906304603006	2.15
C 	44.54818793301762	39.14154508810994	2.15
C 	45.90758161951317	39.55197023977109	2.15
C 	46.2318398550703	40.93445228185097	2.15
C 	47.59123354156583	41.344877433512124	2.15
C 	47.91549177712296	42.72735947559202	2.15
C 	49.2748854636185	43.13778462725317	2.15
C 	49.599143699175634	44.520266669333054	2.15
C 	50.958537385671164	44.9306918209942	2.15
C 	51.282795621228296	46.31317386307409	2.15
C 	52.64218930772384	46.72359901473524	2.15
C 	5.113316510425012	0.2592185645647104	2.15
C 	6.4727101969205485	0.6696437162258597	2.15
C 	6.79696843247768	2.0521257583057473	2.15
C 	8.156362118973215	2.462550909966897	2.15
C 	8.480620354530346	3.8450329520467847	2.15
C 	9.840014041025881	4.255458103707934	2.15
C 	10.164272276583011	5.637940145787821	2.15
C 	11.52366596307855	6.048365297448972	2.15
C 	11.84792419863568	7.430847339528859	2.15
C 	13.207317885131216	7.84127249119001	2.15
C 	13.531576120688346	9.223754533269897	2.15
C 	14.890969807183883	9.634179684931047	2.15
C 	15.215228042741014	11.016661727010934	2.15
C 	16.57462172923655	11.427086878672082	2.15
C 	16.898879964793682	12.80956892075197	2.15
C 	18.258273651289215	13.21999407241312	2.15
C 	18.582531886846347	14.602476114493006	2.15
C 	19.941925573341884	15.012901266154161	2.15
C 	20.266183808899015	16.395383308234045	2.15
C 	21.62557749539455	16.805808459895193	2.15
C 	21.94983573095168	18.188290501975082	2.15
C 	23.309229417447217	18.598715653636233	2.15
C 	23.633487653004348	19.98119769571612	2.15
C 	24.99288133949989	20.391622847377274	2.15
C 	25.317139575057016	21.77410488945716	2.15
C 	26.676533261552553	22.184530041118308	2.15
C 	27.000791497109685	23.567012083198197	2.15
C 	28.360185183605218	23.977437234859345	2.15
C 	28.68444341916235	25.35991927693923	2.15
C 	30.043837105657886	25.770344428600385	2.15
C 	30.36809534121502	27.152826470680274	2.15
C 	31.727489027710554	27.56325162234142	2.15
C 	32.051747263267686	28.945733664421308	2.15
C 	33.41114094976322	29.35615881608246	2.15
C 	33.73539918532035	30.73864085816234	2.15
C 	35.09479287181588	31.149066009823493	2.15
C 	35.419051107373015	32.53154805190337	2.15
C 	36.77844479386855	32.94197320356453	2.15
C 	37.10270302942569	34.32445524564442	2.15
C 	38.46209671592122	34.734880397305574	2.15
C 	38.78635495147835	36.11736243938545	2.15
C 	40.14574863797389	36.527787591046604	2.15
C 	40.47000687353102	37.91026963312649	2.15
C 	41.829400560026556	38.32069478478764	2.15
C 	42.15365879558369	39.703176826867534	2.15
C 	43.51305248207923	40.113601978528685	2.15
C 	43.83731071763636	41.49608402060856	2.15
C 	45.196704404131886	41.906509172269715	2.15
C 	45.52096263968902	43.2889912143496	2.15
C 	46.880356326184554	43.69941636601076	2.15
C 	47.204614561741685	45.081898408090645	2.15
C 	48.56400824823722	45.492323559751796	2.15
C 	2.39452913743394	-0.5616317387575886	2.15
C 	2.7187873729910716	0.820850303322299	2.15
C 	4.0781810594866075	1.2312754549834486	2.15
C 	4.402439295043739	2.6137574970633364	2.15
C 	5.761832981539275	3.024182648724486	2.15
C 	6.086091217096405	4.406664690804374	2.15
C 	7.445484903591941	4.817089842465523	2.15
C 	7.769743139149073	6.199571884545411	2.15
C 	9.129136825644608	6.60999703620656	2.15
C 	9.45339506120174	7.992479078286446	2.15
C 	10.812788747697274	8.402904229947596	2.15
C 	11.137046983254406	9.785386272027486	2.15
C 	12.496440669749944	10.195811423688637	2.15
C 	12.820698905307074	11.578293465768523	2.15
C 	14.180092591802609	11.988718617429672	2.15
C 	14.50435082735974	13.371200659509558	2.15
C 	15.863744513855277	13.78162581117071	2.15
C 	16.18800274941241	15.164107853250595	2.15
C 	17.54739643590794	15.574533004911746	2.15
C 	17.871654671465073	16.957015046991632	2.15
C 	19.23104835796061	17.367440198652787	2.15
C 	19.55530659351774	18.749922240732673	2.15
C 	20.914700280013278	19.16034739239382	2.15
C 	21.23895851557041	20.542829434473706	2.15
C 	22.598352202065943	20.953254586134857	2.15
C 	22.922610437623074	22.335736628214743	2.15
C 	24.28200412411861	22.746161779875898	2.15
C 	24.606262359675743	24.128643821955784	2.15
C 	25.96565604617128	24.539068973616935	2.15
C 	26.28991428172841	25.92155101569682	2.15
C 	27.649307968223948	26.331976167357972	2.15
C 	27.97356620378108	27.714458209437858	2.15
C 	29.332959890276612	28.124883361099005	2.15
C 	29.657218125833744	29.507365403178895	2.15
C 	31.01661181232928	29.91779055484004	2.15
C 	31.340870047886412	31.30027259691993	2.15
C 	32.70026373438195	31.71069774858108	2.15
C 	33.02452196993908	33.09317979066097	2.15
C 	34.38391565643461	33.50360494232211	2.15
C 	34.70817389199174	34.886086984402	2.15
C 	36.06756757848728	35.29651213606315	2.15
C 	36.39182581404441	36.67899417814304	2.15
C 	37.751219500539946	37.089419329804194	2.15
C 	38.07547773609708	38.47190137188408	2.15
C 	39.434871422592614	38.882326523545224	2.15
C 	39.759129658149746	40.26480856562512	2.15
C 	41.11852334464528	40.67523371728627	2.15
C 	41.442781580202414	42.057715759366154	2.15
C 	42.80217526669795	42.468140911027305	2.15
C 	43.12643350225508	43.85062295310719	2.15
C 	44.485827188750626	44.261048104768335	2.15
C 	44.81008542430776	45.64353014684823	2.15
C 	46.16947911080328	46.05395529850938	2.15
C 	1.6836519220526671	1.7929071937410372	2.15
C 	2.0079101576097984	3.175389235820925	2.15
C 	3.3673038441053342	3.5858143874820745	2.15
C 	3.6915620796624657	4.9682964295619625	2.15
C 	5.050955766158001	5.378721581223112	2.15
C 	5.375214001715133	6.7612036233029995	2.15
C 	6.7346076882106685	7.171628774964149	2.15
C 	7.0588659237678	8.554110817044037	2.15
C 	8.418259610263336	8.964535968705185	2.15
C 	8.742517845820467	10.347018010785073	2.15
C 	10.101911532316002	10.757443162446224	2.15
C 	10.426169767873134	12.139925204526111	2.15
C 	11.785563454368669	12.550350356187261	2.15
C 	12.1098216899258	13.932832398267147	2.15
C 	13.469215376421337	14.343257549928298	2.15
C 	13.793473611978468	15.725739592008187	2.15
C 	15.152867298474003	16.136164743669333	2.15
C 	15.477125534031135	17.51864678574922	2.15
C 	16.83651922052667	17.92907193741037	2.15
C 	17.160777456083803	19.31155397949026	2.15
C 	18.520171142579336	19.72197913115141	2.15
C 	18.84442937813647	21.1044611732313	2.15
C 	20.203823064632005	21.514886324892448	2.15
C 	20.528081300189136	22.897368366972334	2.15
C 	21.887474986684673	23.307793518633485	2.15
C 	22.211733222241804	24.690275560713374	2.15
C 	23.571126908737337	25.100700712374522	2.15
C 	23.89538514429447	26.48318275445441	2.15
C 	25.254778830790006	26.89360790611556	2.15
C 	25.579037066347137	28.276089948195445	2.15
C 	26.938430752842674	28.686515099856596	2.15
C 	27.262688988399805	30.068997141936485	2.15
C 	28.622082674895342	30.479422293597636	2.15
C 	28.946340910452474	31.861904335677526	2.15
C 	30.305734596948007	32.272329487338666	2.15
C 	30.62999283250514	33.65481152941856	2.15
C 	31.989386519000675	34.06523668107971	2.15
C 	32.31364475455781	35.447718723159596	2.15
C 	33.67303844105334	35.85814387482074	2.15
C 	33.997296676610475	37.24062591690063	2.15
C 	35.356690363106004	37.65105106856178	2.15
C 	35.680948598663136	39.03353311064167	2.15
C 	37.04034228515867	39.44395826230282	2.15
C 	37.364600520715804	40.82644030438271	2.15
C 	38.72399420721134	41.23686545604385	2.15
C 	39.04825244276847	42.619347498123744	2.15
C 	40.40764612926401	43.029772649784896	2.15
C 	40.73190436482114	44.41225469186478	2.15
C 	42.09129805131668	44.82267984352593	2.15
C 	42.41555628687381	46.205161885605825	2.15
C 	43.774949973369345	46.61558703726697	2.15
C 	6.023730472829396	9.526167707462774	2.15
C 	6.347988708386527	10.908649749542663	2.15
C 	7.707382394882062	11.31907490120381	2.15
C 	8.031640630439194	12.7015569432837	2.15
C 	9.39103431693473	13.11198209494485	2.15
C 	9.715292552491862	14.494464137024735	2.15
C 	11.074686238987397	14.904889288685887	2.15
C 	11.398944474544528	16.287371330765776	2.15
C 	12.758338161040063	16.697796482426924	2.15
C 	13.082596396597195	18.080278524506813	2.15
C 	14.441990083092731	18.49070367616796	2.15
C 	14.766248318649863	19.87318571824785	2.15
C 	16.125642005145398	20.283610869908994	2.15
C 	16.44990024070253	21.666092911988883	2.15
C 	17.809293927198066	22.076518063650035	2.15
C 	18.133552162755198	23.459000105729924	2.15
C 	19.492945849250734	23.86942525739107	2.15
C 	19.817204084807866	25.25190729947096	2.15
C 	21.1765977713034	25.66233245113211	2.15
C 	21.50085600686053	27.044814493211998	2.15
C 	22.860249693356067	27.45523964487315	2.15
C 	23.1845079289132	28.837721686953035	2.15
C 	24.543901615408732	29.248146838614183	2.15
C 	24.868159850965863	30.630628880694072	2.15
C 	26.2275535374614	31.041054032355223	2.15
C 	26.55181177301853	32.423536074435106	2.15
C 	27.91120545951407	32.833961226096264	2.15
C 	28.2354636950712	34.21644326817615	2.15
C 	29.594857381566737	34.626868419837294	2.15
C 	29.919115617123868	36.00935046191718	2.15
C 	31.2785093036194	36.41977561357834	2.15
C 	31.602767539176533	37.80225765565822	2.15
C 	32.96216122567207	38.21268280731937	2.15
C 	33.2864194612292	39.595164849399254	2.15
C 	34.64581314772474	40.00559000106041	2.15
C 	34.97007138328187	41.38807204314029	2.15
C 	36.3294650697774	41.79849719480145	2.15
C 	36.65372330533453	43.180979236881335	2.15
C 	38.01311699183007	43.59140438854248	2.15
C 	38.3373752273872	44.973886430622365	2.15
C 	39.69676891388274	45.38431158228352	2.15
C 	10.363809023606125	17.259428221184514	2.15
C 	10.688067259163256	18.6419102632644	2.15
C 	12.047460945658791	19.052335414925547	2.15
C 	12.371719181215923	20.434817457005437	2.15
C 	13.731112867711458	20.845242608666588	2.15
C 	14.05537110326859	22.227724650746474	2.15
C 	15.414764789764124	22.63814980240762	2.15
C 	15.739023025321256	24.02063184448751	2.15
C 	17.098416711816792	24.431056996148662	2.15
C 	17.422674947373924	25.81353903822855	2.15
C 	18.78206863386946	26.2239641898897	2.15
C 	19.106326869426592	27.606446231969585	2.15
C 	20.465720555922125	28.016871383630733	2.15
C 	20.78997879147926	29.399353425710622	2.15
C 	22.149372477974794	29.809778577371773	2.15
C 	22.473630713531925	31.192260619451663	2.15
C 	23.833024400027462	31.602685771112814	2.15
C 	24.157282635584593	32.985167813192696	2.15
C 	25.516676322080126	33.39559296485385	2.15
C 	25.840934557637258	34.77807500693373	2.15
C 	27.200328244132795	35.188500158594884	2.15
C 	27.524586479689926	36.57098220067478	2.15
C 	28.883980166185463	36.98140735233592	2.15
C 	29.208238401742594	38.36388939441581	2.15
C 	30.56763208823813	38.77431454607696	2.15
C 	30.891890323795263	40.156796588156844	2.15
C 	32.251284010290796	40.56722173981799	2.15
C 	32.57554224584793	41.94970378189788	2.15
C 	33.934935932343464	42.36012893355903	2.15
C 	34.259194167900596	43.74261097563892	2.15
C 	35.61858785439613	44.15303612730007	2.15
C 	35.942846089953264	45.53551816937996	2.15
C 	37.30223977644879	45.945943321041106	2.15
C 	14.70388757438285	24.99268873490625	2.15
C 	15.028145809939982	26.375170776986135	2.15
C 	16.38753949643552	26.78559592864729	2.15
C 	16.71179773199265	28.168077970727175	2.15
C 	18.071191418488187	28.578503122388323	2.15
C 	18.39544965404532	29.960985164468212	2.15
C 	19.754843340540855	30.37141031612936	2.15
C 	20.079101576097987	31.75389235820925	2.15
C 	21.438495262593523	32.1643175098704	2.15
C 	21.762753498150655	33.54679955195029	2.15
C 	23.122147184646188	33.95722470361144	2.15
C 	23.44640542020332	35.33970674569132	2.15
C 	24.805799106698856	35.750131897352475	2.15
C 	25.130057342255988	37.13261393943236	2.15
C 	26.48945102875152	37.54303909109351	2.15
C 	26.813709264308653	38.925521133173405	2.15
C 	28.17310295080419	39.33594628483455	2.15
C 	28.49736118636132	40.718428326914434	2.15
C 	29.856754872856857	41.128853478575586	2.15
C 	30.18101310841399	42.51133552065548	2.15
C 	31.540406794909526	42.92176067231662	2.15
C 	31.864665030466657	44.30424271439651	2.15
C 	33.22405871696219	44.71466786605766	2.15
C 	33.54831695251932	46.097149908137546	2.15
C 	34.90771063901486	46.5075750597987	2.15
C 	19.04396612515958	32.725949248627984	2.15
C 	19.368224360716713	34.10843129070787	2.15
C 	20.72761804721225	34.51885644236903	2.15
C 	21.05187628276938	35.901338484448914	2.15
C 	22.411269969264914	36.311763636110065	2.15
C 	22.73552820482205	37.69424567818995	2.15
C 	24.094921891317583	38.104670829851095	2.15
C 	24.419180126874714	39.48715287193099	2.15
C 	25.77857381337025	39.89757802359214	2.15
C 	26.102832048927382	41.280060065672025	2.15
C 	27.462225735422916	41.690485217333176	2.15
C 	27.786483970980044	43.072967259413055	2.15
C 	29.145877657475584	43.483392411074206	2.15
C 	29.470135893032715	44.8658744531541	2.15
C 	30.82952957952825	45.27629960481524	2.15
C 	25.067696597988977	42.25211695609077	2.15
C 	25.39195483354611	43.63459899817065	2.15
C 	26.751348520041645	44.0450241498318	2.15
C 	27.075606755598777	45.42750619191169	2.15
C 	28.43500044209431	45.83793134357283	2.15
H 	51.59513987121075	-0.8235542909832609	2.15
H 	53.99801181001626	-0.0980844806526392	2.15
H 	55.68166373206893	1.6948227130883944	2.15
H 	57.3653156541216	3.487729906829432	2.15
H 	59.04896757617425	5.280637100570464	2.15
H 	59.622128260152	7.724320146782115	2.15
H 	47.51695881172417	-2.0548297459667184	2.15
H 	49.919830750529655	-1.3293599356360968	2.15
H 	60.021742282845665	9.428083226810136	2.15
H 	61.70539420489832	11.22099042055116	2.15
H 	63.38904612695099	13.013897614292205	2.15
H 	63.962206810928734	15.45758066050384	2.15
H 	45.12242967429023	-1.4931980072091293	2.15
H 	64.36182083362237	17.16134374053187	2.15
H 	66.04547275567506	18.954250934272906	2.15
H 	67.72912467772771	20.747158128013933	2.15
H 	68.30228536170547	23.19084117422558	2.15
H 	42.727900536856296	-0.9315662684515408	2.15
H 	68.7018993843991	24.8946042542536	2.15
H 	70.38555130645177	26.687511447994634	2.15
H 	72.06920322850443	28.480418641735664	2.15
H 	72.6423639124822	30.92410168794731	2.15
H 	40.333371399422354	-0.36993452969395235	2.15
H 	73.04197793517584	32.627864767975346	2.15
H 	74.72562985722853	34.42077196171638	2.15
H 	76.40928177928117	36.213679155457406	2.15
H 	76.98244246325892	38.65736220166905	2.15
H 	36.255190339935716	-1.6012099846773906	2.15
H 	38.65806227874123	-0.8757401743467685	2.15
H 	76.27156524787766	41.01190113416768	2.15
H 	33.86066120250181	-1.0395782459198122	2.15
H 	75.56068803249637	43.36644006666631	2.15
H 	31.466132065067853	-0.47794650716221554	2.15
H 	74.84981081711511	45.720978999164934	2.15
H 	27.387951005581257	-1.7092219621456666	2.15
H 	29.790822944386736	-0.9837521518150477	2.15
H 	70.61722762348188	46.71372242471533	2.15
H 	73.02009956228736	47.43919223504594	2.15
H 	24.993421868147312	-1.1475902233880806	2.15
H 	68.94191850280077	46.20791678006249	2.15
H 	22.59889273071337	-0.5859584846304935	2.15
H 	66.54738936536684	46.769548518820066	2.15
H 	18.520711671226763	-1.8172339396139412	2.15
H 	20.923583610032253	-1.0917641292833187	2.15
H 	64.15286022793288	47.33118025757767	2.15
H 	16.126182533792825	-1.2556022008563508	2.15
H 	59.35545915169345	47.167342186004625	2.15
H 	61.75833109049893	47.89281199633526	2.15
H 	13.731653396358885	-0.693970462098762	2.15
H 	57.68015003101234	46.66153654135181	2.15
H 	9.653472336872277	-1.9252459170822118	2.15
H 	12.056344275677764	-1.1997761067515902	2.15
H 	55.285620893578376	47.223168280109405	2.15
H 	7.258943199438336	-1.3636141783246227	2.15
H 	50.48821981733896	47.05933020853636	2.15
H 	52.89109175614447	47.78480001886698	2.15
H 	4.864414062004396	-0.8019824395670342	2.15
H 	48.81291069665783	46.55352456388354	2.15
H 	46.41838155922389	47.115156302641125	2.15
H 	0.6401736697427138	1.477862535071563	2.15
H 	1.21333435372046	3.921545581283196	2.15
H 	2.896986275773127	5.714452775024233	2.15
H 	4.5806381978257935	7.50735996876527	2.15
H 	41.62098048298447	46.9513182310681	2.15
H 	44.023852421789954	47.676788041398716	2.15
H 	4.980252220519443	9.211123048793297	2.15
H 	5.553412904497191	11.654806095004936	2.15
H 	7.2370648265498545	13.44771328874597	2.15
H 	8.920716748602523	15.240620482487007	2.15
H 	39.94567136230336	46.44551258641527	2.15
H 	9.32033077129617	16.944383562515043	2.15
H 	9.89349145527392	19.388066608726675	2.15
H 	11.577143377326585	21.180973802467708	2.15
H 	13.260795299379254	22.97388099620875	2.15
H 	37.5511422248694	47.00714432517285	2.15
H 	13.660409322072898	24.677644076236774	2.15
H 	14.233570006050641	27.121327122448402	2.15
H 	15.917221928103313	28.914234316189447	2.15
H 	17.60087385015598	30.707141509930484	2.15
H 	32.753741148629985	46.84330625359981	2.15
H 	35.15661308743548	47.56877606393044	2.15
H 	18.000487872849625	32.41090458995851	2.15
H 	18.57364855682737	34.85458763617014	2.15
H 	20.257300478880044	36.64749482991119	2.15
H 	21.940952400932716	38.440402023652226	2.15
H 	23.624604322985377	40.23330921739326	2.15
H 	31.07843202794886	46.33750060894699	2.15
H 	24.024218345679024	41.937072297421295	2.15
H 	24.59737902965677	44.38075534363293	2.15
H 	26.281030951709443	46.173662537373964	2.15
H 	28.683902890514926	46.89913234770458	2.15
