2306

C 	0.0	0.0	0.0
C 	1.2297560733739028	0.7099999999999999	0.0
C 	2.4595121467478056	-2.3647750424515833e-16	0.0
C 	3.689268220121708	0.7099999999999995	0.0
C 	4.919024293495611	-4.729550084903167e-16	0.0
C 	6.148780366869514	0.7099999999999993	0.0
C 	7.378536440243416	-7.09432512735475e-16	0.0
C 	8.60829251361732	0.7099999999999991	0.0
C 	9.838048586991222	-9.459100169806333e-16	0.0
C 	11.067804660365125	0.7099999999999989	0.0
C 	12.297560733739026	-1.1823875212257916e-15	0.0
C 	13.527316807112928	0.7099999999999986	0.0
C 	14.757072880486833	-1.41886502547095e-15	0.0
C 	15.986828953860735	0.7099999999999984	0.0
C 	17.21658502723464	-7.671641100159832e-16	0.0
C 	18.44634110060854	0.7099999999999982	0.0
C 	19.676097173982445	-1.8918200339612667e-15	0.0
C 	20.905853247356347	0.7099999999999989	0.0
C 	22.135609320730246	-2.128297538206425e-15	0.0
C 	23.36536539410415	0.7099999999999967	0.0
C 	24.59512146747805	-2.364775042451583e-15	0.0
C 	25.824877540851954	0.7099999999999983	0.0
C 	27.05463361422586	-8.248957072964913e-16	0.0
C 	28.284389687599763	0.7099999999999999	0.0
C 	29.514145760973665	-2.8377300509419e-15	0.0
C 	30.743901834347565	0.7099999999999961	0.0
C 	31.97365790772147	-3.0742075551870582e-15	0.0
C 	33.20341398109537	0.7099999999999976	0.0
C 	34.43317005446928	-1.5343282200319664e-15	0.0
C 	35.66292612784318	0.7099999999999992	0.0
C 	36.892682201217085	-1.7708057242771246e-15	0.0
C 	38.122438274590984	0.7099999999999972	0.0
C 	39.35219434796489	-3.783640067922533e-15	0.0
C 	40.58195042133879	0.7099999999999969	0.0
C 	41.811706494712695	-4.67403893367191e-16	0.0
C 	43.0414625680866	0.7100000000000002	0.0
C 	44.27121864146049	-4.25659507641285e-15	0.0
C 	45.5009747148344	0.7099999999999964	0.0
C 	46.730730788208305	-9.403589018575075e-16	0.0
C 	47.96048686158221	0.7099999999999997	0.0
C 	49.1902429349561	-4.729550084903166e-15	0.0
C 	50.41999900833001	0.709999999999996	0.0
C 	51.64975508170391	-1.413313910347824e-15	0.0
C 	52.879511155077815	0.7099999999999993	0.0
C 	54.10926722845172	-1.6497914145929826e-15	0.0
C 	55.33902330182562	0.7099999999999991	0.0
C 	56.56877937519952	-5.438982597638641e-15	0.0
C 	57.798535448573425	0.7099999999999953	0.0
C 	59.02829152194733	-5.6754601018838e-15	0.0
C 	60.25804759532124	0.709999999999995	0.0
C 	1.2297560733739028	2.1299999999999994	0.0
C 	2.4595121467478056	2.8399999999999994	0.0
C 	3.689268220121708	2.1299999999999994	0.0
C 	4.919024293495611	2.8399999999999994	0.0
C 	6.148780366869514	2.129999999999999	0.0
C 	7.378536440243416	2.839999999999999	0.0
C 	8.60829251361732	2.1299999999999986	0.0
C 	9.838048586991222	2.8399999999999985	0.0
C 	11.067804660365123	2.129999999999998	0.0
C 	12.297560733739028	2.839999999999999	0.0
C 	13.527316807112928	2.1299999999999977	0.0
C 	14.757072880486833	2.839999999999998	0.0
C 	15.986828953860735	2.129999999999998	0.0
C 	17.216585027234636	2.839999999999997	0.0
C 	18.446341100608542	2.129999999999998	0.0
C 	19.676097173982445	2.8399999999999985	0.0
C 	20.905853247356344	2.1299999999999977	0.0
C 	22.13560932073025	2.8399999999999985	0.0
C 	23.36536539410415	2.129999999999997	0.0
C 	24.595121467478055	2.839999999999997	0.0
C 	25.824877540851954	2.1299999999999963	0.0
C 	27.05463361422586	2.839999999999997	0.0
C 	28.284389687599763	2.129999999999998	0.0
C 	29.514145760973665	2.8399999999999985	0.0
C 	30.743901834347568	2.129999999999996	0.0
C 	31.97365790772147	2.8399999999999967	0.0
C 	33.20341398109537	2.129999999999996	0.0
C 	34.43317005446928	2.8399999999999963	0.0
C 	35.66292612784318	2.1299999999999972	0.0
C 	36.89268220121708	2.8399999999999963	0.0
C 	38.122438274590984	2.129999999999997	0.0
C 	39.35219434796489	2.8399999999999976	0.0
C 	40.58195042133879	2.1299999999999986	0.0
C 	41.81170649471269	2.839999999999996	0.0
C 	43.0414625680866	2.129999999999998	0.0
C 	44.2712186414605	2.8399999999999954	0.0
C 	45.5009747148344	2.129999999999998	0.0
C 	46.7307307882083	2.8399999999999954	0.0
C 	47.96048686158221	2.1299999999999977	0.0
C 	49.19024293495611	2.839999999999995	0.0
C 	50.41999900833001	2.1299999999999977	0.0
C 	51.64975508170391	2.8399999999999945	0.0
C 	52.879511155077815	2.1299999999999972	0.0
C 	54.10926722845171	2.8399999999999945	0.0
C 	55.33902330182563	2.130000000000001	0.0
C 	56.56877937519952	2.8399999999999976	0.0
C 	57.798535448573425	2.129999999999997	0.0
C 	59.028291521947324	2.839999999999994	0.0
C 	60.25804759532124	2.129999999999997	0.0
C 	61.487803668695136	2.8399999999999936	0.0
C 	2.4595121467478056	4.259999999999999	0.0
C 	3.689268220121708	4.969999999999999	0.0
C 	4.919024293495611	4.259999999999999	0.0
C 	6.148780366869514	4.969999999999999	0.0
C 	7.378536440243416	4.259999999999999	0.0
C 	8.60829251361732	4.969999999999999	0.0
C 	9.83804858699122	4.259999999999998	0.0
C 	11.067804660365125	4.969999999999999	0.0
C 	12.297560733739028	4.259999999999998	0.0
C 	13.52731680711293	4.969999999999998	0.0
C 	14.757072880486831	4.259999999999998	0.0
C 	15.986828953860735	4.969999999999998	0.0
C 	17.21658502723464	4.259999999999997	0.0
C 	18.446341100608542	4.969999999999998	0.0
C 	19.676097173982445	4.259999999999999	0.0
C 	20.905853247356347	4.969999999999997	0.0
C 	22.135609320730246	4.259999999999996	0.0
C 	23.365365394104153	4.969999999999997	0.0
C 	24.595121467478055	4.259999999999998	0.0
C 	25.824877540851958	4.969999999999997	0.0
C 	27.054633614225857	4.259999999999995	0.0
C 	28.28438968759976	4.969999999999996	0.0
C 	29.514145760973665	4.259999999999997	0.0
C 	30.743901834347568	4.969999999999997	0.0
C 	31.97365790772147	4.259999999999996	0.0
C 	33.20341398109537	4.969999999999995	0.0
C 	34.43317005446927	4.2599999999999945	0.0
C 	35.66292612784318	4.969999999999995	0.0
C 	36.892682201217085	4.259999999999996	0.0
C 	38.122438274590984	4.969999999999997	0.0
C 	39.35219434796489	4.259999999999997	0.0
C 	40.58195042133879	4.969999999999994	0.0
C 	41.81170649471269	4.259999999999995	0.0
C 	43.041462568086594	4.969999999999996	0.0
C 	44.2712186414605	4.259999999999997	0.0
C 	45.500974714834406	4.969999999999998	0.0
C 	46.7307307882083	4.259999999999994	0.0
C 	47.960486861582204	4.9699999999999935	0.0
C 	49.19024293495611	4.259999999999996	0.0
C 	50.41999900833001	4.969999999999997	0.0
C 	51.64975508170391	4.259999999999993	0.0
C 	52.879511155077815	4.9699999999999935	0.0
C 	54.10926722845171	4.259999999999996	0.0
C 	55.33902330182562	4.969999999999997	0.0
C 	56.568779375199526	4.259999999999996	0.0
C 	57.798535448573425	4.969999999999996	0.0
C 	59.028291521947324	4.259999999999995	0.0
C 	60.25804759532123	4.969999999999996	0.0
C 	61.487803668695136	4.259999999999992	0.0
C 	62.717559742069035	4.969999999999993	0.0
C 	3.6892682201217086	6.389999999999999	0.0
C 	4.919024293495611	7.099999999999999	0.0
C 	6.148780366869514	6.389999999999999	0.0
C 	7.378536440243416	7.099999999999999	0.0
C 	8.608292513617318	6.389999999999998	0.0
C 	9.838048586991222	7.099999999999999	0.0
C 	11.067804660365125	6.389999999999998	0.0
C 	12.297560733739028	7.099999999999998	0.0
C 	13.52731680711293	6.389999999999999	0.0
C 	14.757072880486833	7.099999999999998	0.0
C 	15.986828953860735	6.389999999999998	0.0
C 	17.216585027234636	7.099999999999997	0.0
C 	18.44634110060854	6.389999999999997	0.0
C 	19.676097173982445	7.099999999999998	0.0
C 	20.905853247356347	6.389999999999998	0.0
C 	22.13560932073025	7.099999999999997	0.0
C 	23.365365394104153	6.389999999999998	0.0
C 	24.59512146747805	7.099999999999997	0.0
C 	25.824877540851958	6.389999999999998	0.0
C 	27.054633614225857	7.099999999999997	0.0
C 	28.28438968759976	6.389999999999999	0.0
C 	29.514145760973662	7.099999999999997	0.0
C 	30.743901834347568	6.389999999999999	0.0
C 	31.97365790772147	7.099999999999998	0.0
C 	33.20341398109537	6.389999999999995	0.0
C 	34.43317005446928	7.099999999999994	0.0
C 	35.66292612784318	6.389999999999995	0.0
C 	36.892682201217085	7.099999999999996	0.0
C 	38.122438274590984	6.389999999999996	0.0
C 	39.35219434796489	7.099999999999997	0.0
C 	40.58195042133879	6.389999999999994	0.0
C 	41.811706494712695	7.099999999999995	0.0
C 	43.041462568086594	6.389999999999996	0.0
C 	44.2712186414605	7.099999999999997	0.0
C 	45.500974714834406	6.389999999999998	0.0
C 	46.730730788208305	7.099999999999998	0.0
C 	47.960486861582204	6.389999999999995	0.0
C 	49.19024293495611	7.099999999999996	0.0
C 	50.41999900833001	6.389999999999995	0.0
C 	51.649755081703915	7.099999999999996	0.0
C 	52.879511155077815	6.389999999999995	0.0
C 	54.10926722845172	7.099999999999996	0.0
C 	55.33902330182562	6.389999999999995	0.0
C 	56.568779375199526	7.099999999999995	0.0
C 	57.79853544857343	6.389999999999998	0.0
C 	59.02829152194733	7.099999999999999	0.0
C 	60.25804759532123	6.389999999999994	0.0
C 	61.487803668695136	7.099999999999995	0.0
C 	62.71755974206904	6.389999999999994	0.0
C 	63.94731581544294	7.099999999999995	0.0
C 	4.919024293495611	8.519999999999998	0.0
C 	6.148780366869514	9.229999999999999	0.0
C 	7.378536440243416	8.519999999999998	0.0
C 	8.60829251361732	9.229999999999999	0.0
C 	9.838048586991222	8.519999999999998	0.0
C 	11.067804660365125	9.229999999999999	0.0
C 	12.297560733739028	8.519999999999998	0.0
C 	13.52731680711293	9.229999999999997	0.0
C 	14.757072880486833	8.519999999999998	0.0
C 	15.986828953860737	9.229999999999999	0.0
C 	17.216585027234636	8.519999999999998	0.0
C 	18.44634110060854	9.229999999999997	0.0
C 	19.67609717398244	8.519999999999996	0.0
C 	20.905853247356347	9.229999999999997	0.0
C 	22.13560932073025	8.519999999999998	0.0
C 	23.365365394104153	9.229999999999999	0.0
C 	24.595121467478055	8.519999999999996	0.0
C 	25.824877540851954	9.229999999999995	0.0
C 	27.05463361422586	8.519999999999996	0.0
C 	28.284389687599763	9.229999999999997	0.0
C 	29.514145760973662	8.519999999999996	0.0
C 	30.743901834347565	9.229999999999995	0.0
C 	31.97365790772147	8.52	0.0
C 	33.20341398109537	9.229999999999997	0.0
C 	34.43317005446928	8.519999999999994	0.0
C 	35.66292612784318	9.229999999999995	0.0
C 	36.89268220121708	8.519999999999992	0.0
C 	38.122438274590984	9.229999999999993	0.0
C 	39.35219434796489	8.519999999999998	0.0
C 	40.58195042133879	9.229999999999995	0.0
C 	41.811706494712695	8.519999999999994	0.0
C 	43.0414625680866	9.229999999999995	0.0
C 	44.27121864146049	8.519999999999992	0.0
C 	45.5009747148344	9.229999999999993	0.0
C 	46.730730788208305	8.519999999999998	0.0
C 	47.960486861582204	9.229999999999995	0.0
C 	49.19024293495611	8.519999999999996	0.0
C 	50.41999900833001	9.229999999999993	0.0
C 	51.64975508170391	8.519999999999994	0.0
C 	52.879511155077815	9.229999999999995	0.0
C 	54.10926722845171	8.51999999999999	0.0
C 	55.33902330182562	9.229999999999992	0.0
C 	56.568779375199526	8.519999999999998	0.0
C 	57.798535448573425	9.229999999999995	0.0
C 	59.02829152194733	8.519999999999994	0.0
C 	60.25804759532123	9.229999999999993	0.0
C 	61.48780366869513	8.519999999999992	0.0
C 	62.717559742069035	9.229999999999993	0.0
C 	63.94731581544294	8.519999999999992	0.0
C 	65.17707188881684	9.22999999999999	0.0
C 	6.148780366869514	10.649999999999997	0.0
C 	7.378536440243416	11.359999999999998	0.0
C 	8.608292513617318	10.649999999999997	0.0
C 	9.838048586991222	11.359999999999998	0.0
C 	11.067804660365125	10.649999999999997	0.0
C 	12.297560733739028	11.359999999999996	0.0
C 	13.52731680711293	10.649999999999997	0.0
C 	14.757072880486831	11.359999999999996	0.0
C 	15.986828953860735	10.649999999999997	0.0
C 	17.216585027234636	11.359999999999996	0.0
C 	18.44634110060854	10.649999999999997	0.0
C 	19.676097173982445	11.359999999999998	0.0
C 	20.905853247356347	10.649999999999997	0.0
C 	22.13560932073025	11.359999999999996	0.0
C 	23.365365394104153	10.649999999999997	0.0
C 	24.595121467478055	11.359999999999996	0.0
C 	25.824877540851958	10.649999999999997	0.0
C 	27.05463361422586	11.359999999999996	0.0
C 	28.284389687599763	10.649999999999995	0.0
C 	29.514145760973662	11.359999999999994	0.0
C 	30.743901834347565	10.649999999999995	0.0
C 	31.97365790772147	11.359999999999996	0.0
C 	33.20341398109537	10.649999999999997	0.0
C 	34.43317005446928	11.359999999999998	0.0
C 	35.66292612784318	10.649999999999991	0.0
C 	36.89268220121708	11.359999999999992	0.0
C 	38.122438274590984	10.649999999999993	0.0
C 	39.35219434796489	11.359999999999994	0.0
C 	40.58195042133879	10.649999999999993	0.0
C 	41.811706494712695	11.359999999999994	0.0
C 	43.041462568086594	10.649999999999991	0.0
C 	44.2712186414605	11.359999999999992	0.0
C 	45.5009747148344	10.649999999999993	0.0
C 	46.730730788208305	11.359999999999994	0.0
C 	47.960486861582204	10.649999999999995	0.0
C 	49.19024293495611	11.359999999999996	0.0
C 	50.41999900833001	10.649999999999993	0.0
C 	51.649755081703915	11.359999999999994	0.0
C 	52.879511155077815	10.649999999999995	0.0
C 	54.10926722845172	11.359999999999996	0.0
C 	55.33902330182562	10.649999999999993	0.0
C 	56.568779375199526	11.359999999999994	0.0
C 	57.798535448573425	10.649999999999993	0.0
C 	59.02829152194733	11.359999999999992	0.0
C 	60.25804759532124	10.649999999999995	0.0
C 	61.487803668695136	11.359999999999996	0.0
C 	62.717559742069035	10.649999999999991	0.0
C 	63.94731581544294	11.359999999999992	0.0
C 	65.17707188881684	10.649999999999991	0.0
C 	66.40682796219075	11.359999999999992	0.0
C 	7.378536440243417	12.779999999999998	0.0
C 	8.60829251361732	13.489999999999998	0.0
C 	9.838048586991222	12.78	0.0
C 	11.067804660365125	13.489999999999997	0.0
C 	12.297560733739028	12.779999999999998	0.0
C 	13.527316807112932	13.489999999999998	0.0
C 	14.757072880486833	12.779999999999998	0.0
C 	15.986828953860737	13.489999999999997	0.0
C 	17.216585027234636	12.779999999999996	0.0
C 	18.446341100608542	13.489999999999997	0.0
C 	19.676097173982445	12.779999999999998	0.0
C 	20.905853247356347	13.489999999999997	0.0
C 	22.13560932073025	12.779999999999996	0.0
C 	23.36536539410415	13.489999999999995	0.0
C 	24.595121467478055	12.779999999999996	0.0
C 	25.824877540851958	13.489999999999997	0.0
C 	27.05463361422586	12.779999999999998	0.0
C 	28.284389687599763	13.489999999999997	0.0
C 	29.514145760973662	12.779999999999996	0.0
C 	30.743901834347568	13.489999999999997	0.0
C 	31.97365790772147	12.779999999999996	0.0
C 	33.20341398109537	13.489999999999997	0.0
C 	34.43317005446928	12.779999999999998	0.0
C 	35.66292612784318	13.489999999999995	0.0
C 	36.89268220121708	12.779999999999994	0.0
C 	38.122438274590984	13.489999999999995	0.0
C 	39.35219434796489	12.779999999999996	0.0
C 	40.581950421338796	13.489999999999997	0.0
C 	41.811706494712695	12.779999999999996	0.0
C 	43.041462568086594	13.489999999999993	0.0
C 	44.2712186414605	12.779999999999994	0.0
C 	45.5009747148344	13.489999999999995	0.0
C 	46.730730788208305	12.779999999999996	0.0
C 	47.96048686158221	13.489999999999997	0.0
C 	49.19024293495611	12.779999999999998	0.0
C 	50.41999900833001	13.489999999999995	0.0
C 	51.649755081703915	12.779999999999996	0.0
C 	52.879511155077815	13.489999999999993	0.0
C 	54.10926722845172	12.779999999999998	0.0
C 	55.33902330182563	13.489999999999998	0.0
C 	56.56877937519952	12.779999999999998	0.0
C 	57.798535448573425	13.489999999999997	0.0
C 	59.02829152194733	12.779999999999994	0.0
C 	60.25804759532123	13.489999999999991	0.0
C 	61.487803668695136	12.779999999999998	0.0
C 	62.71755974206904	13.489999999999998	0.0
C 	63.94731581544294	12.779999999999994	0.0
C 	65.17707188881684	13.489999999999995	0.0
C 	66.40682796219075	12.77999999999999	0.0
C 	67.63658403556465	13.489999999999988	0.0
C 	8.60829251361732	14.909999999999998	0.0
C 	9.838048586991222	15.619999999999996	0.0
C 	11.067804660365125	14.909999999999997	0.0
C 	12.297560733739026	15.619999999999996	0.0
C 	13.527316807112934	14.909999999999998	0.0
C 	14.757072880486831	15.619999999999996	0.0
C 	15.986828953860737	14.909999999999998	0.0
C 	17.21658502723464	15.619999999999997	0.0
C 	18.446341100608542	14.909999999999997	0.0
C 	19.676097173982445	15.619999999999996	0.0
C 	20.905853247356347	14.909999999999997	0.0
C 	22.135609320730246	15.619999999999996	0.0
C 	23.365365394104153	14.909999999999995	0.0
C 	24.595121467478055	15.619999999999996	0.0
C 	25.824877540851958	14.909999999999997	0.0
C 	27.05463361422586	15.619999999999996	0.0
C 	28.284389687599763	14.909999999999997	0.0
C 	29.514145760973665	15.619999999999996	0.0
C 	30.743901834347568	14.909999999999997	0.0
C 	31.973657907721474	15.619999999999997	0.0
C 	33.203413981095366	14.909999999999993	0.0
C 	34.43317005446927	15.619999999999994	0.0
C 	35.662926127843185	14.909999999999998	0.0
C 	36.892682201217085	15.619999999999996	0.0
C 	38.122438274590984	14.909999999999995	0.0
C 	39.35219434796489	15.619999999999996	0.0
C 	40.58195042133879	14.909999999999993	0.0
C 	41.811706494712695	15.619999999999994	0.0
C 	43.0414625680866	14.909999999999998	0.0
C 	44.2712186414605	15.619999999999996	0.0
C 	45.5009747148344	14.909999999999995	0.0
C 	46.730730788208305	15.619999999999996	0.0
C 	47.960486861582204	14.909999999999993	0.0
C 	49.19024293495611	15.619999999999994	0.0
C 	50.41999900833002	14.909999999999998	0.0
C 	51.649755081703915	15.619999999999996	0.0
C 	52.87951115507782	14.909999999999997	0.0
C 	54.10926722845171	15.619999999999994	0.0
C 	55.33902330182562	14.909999999999995	0.0
C 	56.568779375199526	15.619999999999994	0.0
C 	57.798535448573425	14.909999999999991	0.0
C 	59.028291521947324	15.619999999999992	0.0
C 	60.25804759532124	14.909999999999998	0.0
C 	61.487803668695136	15.619999999999996	0.0
C 	62.717559742069035	14.909999999999993	0.0
C 	63.94731581544294	15.619999999999994	0.0
C 	65.17707188881684	14.909999999999993	0.0
C 	66.40682796219075	15.619999999999994	0.0
C 	67.63658403556465	14.909999999999997	0.0
C 	68.86634010893854	15.61999999999999	0.0
C 	9.838048586991222	17.039999999999996	0.0
C 	11.067804660365127	17.749999999999996	0.0
C 	12.297560733739028	17.039999999999996	0.0
C 	13.527316807112932	17.749999999999996	0.0
C 	14.757072880486833	17.039999999999996	0.0
C 	15.986828953860735	17.749999999999996	0.0
C 	17.21658502723464	17.039999999999996	0.0
C 	18.446341100608546	17.749999999999996	0.0
C 	19.676097173982445	17.039999999999996	0.0
C 	20.905853247356347	17.749999999999996	0.0
C 	22.13560932073025	17.039999999999996	0.0
C 	23.365365394104153	17.749999999999996	0.0
C 	24.595121467478055	17.039999999999996	0.0
C 	25.82487754085196	17.749999999999996	0.0
C 	27.05463361422586	17.039999999999996	0.0
C 	28.28438968759977	17.75	0.0
C 	29.514145760973665	17.039999999999996	0.0
C 	30.74390183434757	17.749999999999996	0.0
C 	31.973657907721467	17.039999999999992	0.0
C 	33.20341398109537	17.749999999999993	0.0
C 	34.43317005446927	17.039999999999996	0.0
C 	35.66292612784318	17.749999999999996	0.0
C 	36.892682201217085	17.039999999999996	0.0
C 	38.122438274590984	17.749999999999996	0.0
C 	39.35219434796488	17.039999999999992	0.0
C 	40.58195042133879	17.749999999999993	0.0
C 	41.811706494712695	17.039999999999992	0.0
C 	43.041462568086594	17.749999999999993	0.0
C 	44.2712186414605	17.039999999999996	0.0
C 	45.500974714834406	17.749999999999996	0.0
C 	46.7307307882083	17.039999999999992	0.0
C 	47.960486861582204	17.749999999999993	0.0
C 	49.19024293495611	17.039999999999992	0.0
C 	50.41999900833002	17.749999999999993	0.0
C 	51.649755081703915	17.039999999999996	0.0
C 	52.87951115507782	17.749999999999996	0.0
C 	54.10926722845172	17.039999999999992	0.0
C 	55.33902330182562	17.749999999999993	0.0
C 	56.568779375199526	17.039999999999996	0.0
C 	57.79853544857343	17.749999999999996	0.0
C 	59.028291521947324	17.039999999999992	0.0
C 	60.25804759532123	17.749999999999993	0.0
C 	61.487803668695136	17.039999999999996	0.0
C 	62.71755974206904	17.749999999999996	0.0
C 	63.94731581544294	17.04	0.0
C 	65.17707188881684	17.749999999999993	0.0
C 	66.40682796219075	17.039999999999996	0.0
C 	67.63658403556464	17.74999999999999	0.0
C 	68.86634010893856	17.03999999999999	0.0
C 	70.09609618231246	17.74999999999999	0.0
C 	11.067804660365125	19.169999999999995	0.0
C 	12.297560733739026	19.879999999999995	0.0
C 	13.52731680711293	19.169999999999995	0.0
C 	14.757072880486831	19.879999999999995	0.0
C 	15.986828953860737	19.169999999999998	0.0
C 	17.216585027234636	19.879999999999992	0.0
C 	18.446341100608542	19.169999999999995	0.0
C 	19.676097173982445	19.879999999999995	0.0
C 	20.905853247356347	19.169999999999995	0.0
C 	22.135609320730246	19.879999999999995	0.0
C 	23.365365394104153	19.169999999999995	0.0
C 	24.59512146747805	19.879999999999995	0.0
C 	25.824877540851958	19.169999999999995	0.0
C 	27.05463361422586	19.879999999999995	0.0
C 	28.284389687599763	19.169999999999995	0.0
C 	29.51414576097367	19.879999999999995	0.0
C 	30.743901834347565	19.16999999999999	0.0
C 	31.97365790772147	19.879999999999992	0.0
C 	33.20341398109537	19.169999999999995	0.0
C 	34.43317005446927	19.879999999999992	0.0
C 	35.66292612784318	19.169999999999995	0.0
C 	36.89268220121708	19.879999999999992	0.0
C 	38.122438274590984	19.169999999999995	0.0
C 	39.35219434796488	19.879999999999992	0.0
C 	40.58195042133879	19.16999999999999	0.0
C 	41.81170649471269	19.87999999999999	0.0
C 	43.0414625680866	19.169999999999995	0.0
C 	44.27121864146049	19.879999999999992	0.0
C 	45.5009747148344	19.16999999999999	0.0
C 	46.730730788208305	19.879999999999992	0.0
C 	47.960486861582204	19.169999999999995	0.0
C 	49.1902429349561	19.879999999999992	0.0
C 	50.41999900833002	19.169999999999995	0.0
C 	51.649755081703915	19.879999999999992	0.0
C 	52.879511155077815	19.16999999999999	0.0
C 	54.10926722845172	19.879999999999992	0.0
C 	55.33902330182562	19.16999999999999	0.0
C 	56.56877937519952	19.879999999999992	0.0
C 	57.79853544857343	19.169999999999995	0.0
C 	59.02829152194733	19.879999999999992	0.0
C 	60.25804759532123	19.169999999999995	0.0
C 	61.48780366869513	19.879999999999992	0.0
C 	62.717559742069035	19.16999999999999	0.0
C 	63.94731581544294	19.879999999999992	0.0
C 	65.17707188881684	19.169999999999995	0.0
C 	66.40682796219075	19.87999999999999	0.0
C 	67.63658403556465	19.169999999999995	0.0
C 	68.86634010893854	19.87999999999999	0.0
C 	70.09609618231245	19.16999999999999	0.0
C 	71.32585225568636	19.879999999999992	0.0
C 	12.297560733739028	21.299999999999994	0.0
C 	13.527316807112932	22.009999999999994	0.0
C 	14.757072880486831	21.299999999999994	0.0
C 	15.986828953860735	22.009999999999994	0.0
C 	17.216585027234636	21.299999999999994	0.0
C 	18.44634110060854	22.009999999999994	0.0
C 	19.676097173982445	21.299999999999994	0.0
C 	20.905853247356347	22.009999999999994	0.0
C 	22.13560932073025	21.299999999999994	0.0
C 	23.365365394104153	22.009999999999994	0.0
C 	24.595121467478055	21.299999999999994	0.0
C 	25.824877540851958	22.009999999999994	0.0
C 	27.05463361422586	21.299999999999994	0.0
C 	28.284389687599766	22.009999999999994	0.0
C 	29.514145760973662	21.29999999999999	0.0
C 	30.743901834347568	22.00999999999999	0.0
C 	31.97365790772147	21.299999999999994	0.0
C 	33.20341398109537	22.009999999999994	0.0
C 	34.43317005446928	21.299999999999994	0.0
C 	35.662926127843185	22.009999999999994	0.0
C 	36.89268220121708	21.299999999999994	0.0
C 	38.122438274590984	22.009999999999994	0.0
C 	39.35219434796489	21.299999999999994	0.0
C 	40.58195042133879	22.009999999999994	0.0
C 	41.811706494712695	21.299999999999994	0.0
C 	43.0414625680866	22.009999999999994	0.0
C 	44.2712186414605	21.29999999999999	0.0
C 	45.5009747148344	22.00999999999999	0.0
C 	46.730730788208305	21.299999999999994	0.0
C 	47.96048686158221	22.009999999999994	0.0
C 	49.19024293495611	21.299999999999994	0.0
C 	50.41999900833002	22.009999999999994	0.0
C 	51.649755081703915	21.299999999999994	0.0
C 	52.879511155077815	22.00999999999999	0.0
C 	54.10926722845172	21.299999999999994	0.0
C 	55.33902330182563	22.009999999999994	0.0
C 	56.568779375199526	21.29999999999999	0.0
C 	57.798535448573425	22.00999999999999	0.0
C 	59.02829152194733	21.299999999999994	0.0
C 	60.25804759532124	22.009999999999994	0.0
C 	61.48780366869513	21.29999999999999	0.0
C 	62.717559742069035	22.00999999999999	0.0
C 	63.94731581544294	21.299999999999994	0.0
C 	65.17707188881684	22.009999999999987	0.0
C 	66.40682796219075	21.299999999999994	0.0
C 	67.63658403556465	22.009999999999994	0.0
C 	68.86634010893854	21.29999999999999	0.0
C 	70.09609618231245	22.00999999999999	0.0
C 	71.32585225568636	21.299999999999983	0.0
C 	72.55560832906026	22.00999999999999	0.0
C 	13.527316807112932	23.429999999999996	0.0
C 	14.757072880486836	24.139999999999997	0.0
C 	15.986828953860737	23.429999999999996	0.0
C 	17.216585027234643	24.139999999999997	0.0
C 	18.446341100608542	23.429999999999996	0.0
C 	19.676097173982445	24.139999999999997	0.0
C 	20.90585324735635	23.429999999999996	0.0
C 	22.135609320730254	24.139999999999997	0.0
C 	23.365365394104156	23.429999999999993	0.0
C 	24.595121467478062	24.139999999999997	0.0
C 	25.824877540851958	23.429999999999993	0.0
C 	27.054633614225864	24.139999999999993	0.0
C 	28.284389687599766	23.429999999999996	0.0
C 	29.514145760973673	24.139999999999997	0.0
C 	30.743901834347575	23.429999999999996	0.0
C 	31.973657907721478	24.139999999999997	0.0
C 	33.20341398109537	23.429999999999993	0.0
C 	34.43317005446928	24.139999999999993	0.0
C 	35.66292612784318	23.429999999999993	0.0
C 	36.892682201217085	24.139999999999993	0.0
C 	38.122438274590984	23.429999999999993	0.0
C 	39.35219434796489	24.139999999999993	0.0
C 	40.58195042133879	23.429999999999996	0.0
C 	41.811706494712695	24.139999999999993	0.0
C 	43.041462568086594	23.42999999999999	0.0
C 	44.2712186414605	24.13999999999999	0.0
C 	45.5009747148344	23.429999999999993	0.0
C 	46.730730788208305	24.139999999999993	0.0
C 	47.96048686158221	23.429999999999993	0.0
C 	49.19024293495611	24.139999999999993	0.0
C 	50.41999900833001	23.429999999999993	0.0
C 	51.649755081703915	24.13999999999999	0.0
C 	52.87951115507782	23.429999999999993	0.0
C 	54.10926722845172	24.139999999999993	0.0
C 	55.33902330182563	23.429999999999993	0.0
C 	56.56877937519953	24.139999999999993	0.0
C 	57.798535448573425	23.429999999999993	0.0
C 	59.02829152194733	24.139999999999993	0.0
C 	60.25804759532124	23.429999999999993	0.0
C 	61.487803668695136	24.13999999999999	0.0
C 	62.71755974206904	23.429999999999993	0.0
C 	63.947315815442934	24.139999999999986	0.0
C 	65.17707188881684	23.429999999999993	0.0
C 	66.40682796219075	24.139999999999993	0.0
C 	67.63658403556464	23.42999999999999	0.0
C 	68.86634010893856	24.139999999999997	0.0
C 	70.09609618231245	23.42999999999999	0.0
C 	71.32585225568636	24.139999999999997	0.0
C 	72.55560832906026	23.42999999999999	0.0
C 	73.78536440243417	24.13999999999999	0.0
C 	14.757072880486835	25.559999999999995	0.0
C 	15.986828953860735	26.269999999999996	0.0
C 	17.21658502723464	25.559999999999995	0.0
C 	18.44634110060854	26.269999999999996	0.0
C 	19.676097173982445	25.56	0.0
C 	20.905853247356344	26.269999999999996	0.0
C 	22.13560932073025	25.56	0.0
C 	23.365365394104153	26.269999999999996	0.0
C 	24.595121467478055	25.559999999999995	0.0
C 	25.824877540851958	26.269999999999996	0.0
C 	27.054633614225857	25.559999999999995	0.0
C 	28.28438968759976	26.269999999999996	0.0
C 	29.514145760973665	25.559999999999995	0.0
C 	30.743901834347568	26.269999999999996	0.0
C 	31.973657907721474	25.559999999999995	0.0
C 	33.20341398109538	26.269999999999996	0.0
C 	34.43317005446927	25.55999999999999	0.0
C 	35.66292612784318	26.269999999999992	0.0
C 	36.892682201217085	25.559999999999995	0.0
C 	38.12243827459098	26.269999999999992	0.0
C 	39.35219434796489	25.559999999999995	0.0
C 	40.58195042133879	26.269999999999992	0.0
C 	41.81170649471269	25.55999999999999	0.0
C 	43.041462568086594	26.269999999999992	0.0
C 	44.2712186414605	25.55999999999999	0.0
C 	45.5009747148344	26.26999999999999	0.0
C 	46.730730788208305	25.559999999999995	0.0
C 	47.960486861582204	26.269999999999992	0.0
C 	49.19024293495611	25.55999999999999	0.0
C 	50.41999900833001	26.269999999999992	0.0
C 	51.649755081703915	25.559999999999995	0.0
C 	52.879511155077815	26.269999999999992	0.0
C 	54.10926722845172	25.559999999999995	0.0
C 	55.33902330182562	26.269999999999992	0.0
C 	56.568779375199526	25.55999999999999	0.0
C 	57.79853544857343	26.269999999999992	0.0
C 	59.028291521947324	25.55999999999999	0.0
C 	60.25804759532123	26.269999999999992	0.0
C 	61.487803668695136	25.559999999999995	0.0
C 	62.717559742069035	26.26999999999999	0.0
C 	63.94731581544294	25.55999999999999	0.0
C 	65.17707188881683	26.269999999999985	0.0
C 	66.40682796219075	25.55999999999999	0.0
C 	67.63658403556465	26.269999999999992	0.0
C 	68.86634010893856	25.559999999999995	0.0
C 	70.09609618231246	26.269999999999996	0.0
C 	71.32585225568636	25.559999999999995	0.0
C 	72.55560832906026	26.269999999999996	0.0
C 	73.78536440243415	25.559999999999988	0.0
C 	75.01512047580806	26.26999999999999	0.0
C 	15.986828953860735	27.689999999999994	0.0
C 	17.21658502723464	28.399999999999995	0.0
C 	18.446341100608542	27.689999999999994	0.0
C 	19.676097173982445	28.399999999999995	0.0
C 	20.905853247356344	27.689999999999994	0.0
C 	22.13560932073025	28.399999999999995	0.0
C 	23.365365394104153	27.689999999999994	0.0
C 	24.59512146747806	28.399999999999995	0.0
C 	25.824877540851954	27.689999999999994	0.0
C 	27.054633614225857	28.399999999999995	0.0
C 	28.284389687599763	27.689999999999994	0.0
C 	29.514145760973665	28.399999999999995	0.0
C 	30.74390183434757	27.689999999999994	0.0
C 	31.973657907721474	28.399999999999995	0.0
C 	33.20341398109537	27.68999999999999	0.0
C 	34.43317005446928	28.39999999999999	0.0
C 	35.66292612784318	27.689999999999994	0.0
C 	36.892682201217085	28.399999999999995	0.0
C 	38.122438274590984	27.689999999999994	0.0
C 	39.35219434796489	28.399999999999995	0.0
C 	40.58195042133879	27.689999999999994	0.0
C 	41.811706494712695	28.399999999999995	0.0
C 	43.041462568086594	27.689999999999994	0.0
C 	44.2712186414605	28.399999999999995	0.0
C 	45.500974714834406	27.689999999999994	0.0
C 	46.730730788208305	28.399999999999995	0.0
C 	47.960486861582204	27.68999999999999	0.0
C 	49.19024293495611	28.39999999999999	0.0
C 	50.41999900833002	27.689999999999994	0.0
C 	51.649755081703915	28.399999999999995	0.0
C 	52.87951115507782	27.689999999999994	0.0
C 	54.10926722845173	28.399999999999995	0.0
C 	55.33902330182562	27.68999999999999	0.0
C 	56.568779375199526	28.39999999999999	0.0
C 	57.79853544857343	27.689999999999994	0.0
C 	59.02829152194733	28.39999999999999	0.0
C 	60.25804759532124	27.689999999999994	0.0
C 	61.48780366869513	28.399999999999988	0.0
C 	62.717559742069035	27.689999999999994	0.0
C 	63.94731581544294	28.399999999999995	0.0
C 	65.17707188881684	27.68999999999999	0.0
C 	66.40682796219075	28.39999999999999	0.0
C 	67.63658403556464	27.689999999999987	0.0
C 	68.86634010893856	28.399999999999995	0.0
C 	70.09609618231245	27.689999999999994	0.0
C 	71.32585225568636	28.399999999999995	0.0
C 	72.55560832906026	27.68999999999999	0.0
C 	73.78536440243415	28.39999999999999	0.0
C 	75.01512047580808	27.689999999999994	0.0
C 	76.24487654918197	28.399999999999984	0.0
C 	17.21658502723464	29.819999999999997	0.0
C 	18.446341100608546	30.529999999999998	0.0
C 	19.676097173982445	29.819999999999997	0.0
C 	20.905853247356355	30.529999999999998	0.0
C 	22.13560932073025	29.819999999999993	0.0
C 	23.365365394104156	30.529999999999994	0.0
C 	24.59512146747806	29.819999999999997	0.0
C 	25.82487754085196	30.529999999999998	0.0
C 	27.054633614225867	29.819999999999997	0.0
C 	28.28438968759977	30.529999999999998	0.0
C 	29.514145760973665	29.819999999999997	0.0
C 	30.74390183434757	30.529999999999998	0.0
C 	31.973657907721474	29.819999999999997	0.0
C 	33.20341398109538	30.529999999999998	0.0
C 	34.43317005446928	29.819999999999997	0.0
C 	35.662926127843185	30.529999999999998	0.0
C 	36.892682201217085	29.819999999999993	0.0
C 	38.12243827459099	30.529999999999994	0.0
C 	39.35219434796488	29.819999999999993	0.0
C 	40.58195042133879	30.529999999999994	0.0
C 	41.811706494712695	29.819999999999993	0.0
C 	43.0414625680866	30.529999999999994	0.0
C 	44.2712186414605	29.819999999999993	0.0
C 	45.500974714834406	30.529999999999994	0.0
C 	46.730730788208305	29.81999999999999	0.0
C 	47.960486861582204	30.52999999999999	0.0
C 	49.19024293495611	29.819999999999993	0.0
C 	50.41999900833002	30.529999999999994	0.0
C 	51.649755081703915	29.819999999999993	0.0
C 	52.87951115507782	30.529999999999994	0.0
C 	54.10926722845172	29.819999999999993	0.0
C 	55.33902330182563	30.52999999999999	0.0
C 	56.568779375199526	29.819999999999993	0.0
C 	57.798535448573425	30.52999999999999	0.0
C 	59.02829152194734	29.819999999999993	0.0
C 	60.25804759532124	30.529999999999994	0.0
C 	61.487803668695136	29.819999999999993	0.0
C 	62.71755974206904	30.529999999999994	0.0
C 	63.947315815442934	29.81999999999999	0.0
C 	65.17707188881685	30.529999999999998	0.0
C 	66.40682796219073	29.819999999999986	0.0
C 	67.63658403556465	30.529999999999994	0.0
C 	68.86634010893856	29.819999999999993	0.0
C 	70.09609618231245	30.529999999999994	0.0
C 	71.32585225568637	29.819999999999997	0.0
C 	72.55560832906026	30.52999999999999	0.0
C 	73.78536440243417	29.819999999999997	0.0
C 	75.01512047580806	30.529999999999987	0.0
C 	76.24487654918197	29.81999999999999	0.0
C 	77.47463262255587	30.52999999999999	0.0
C 	18.446341100608542	31.949999999999996	0.0
C 	19.676097173982445	32.65999999999999	0.0
C 	20.905853247356347	31.949999999999992	0.0
C 	22.135609320730254	32.66	0.0
C 	23.365365394104156	31.949999999999996	0.0
C 	24.595121467478055	32.65999999999999	0.0
C 	25.824877540851958	31.949999999999992	0.0
C 	27.05463361422586	32.66	0.0
C 	28.284389687599766	31.949999999999996	0.0
C 	29.51414576097367	32.66	0.0
C 	30.743901834347568	31.949999999999992	0.0
C 	31.97365790772147	32.66	0.0
C 	33.20341398109537	31.949999999999992	0.0
C 	34.43317005446928	32.66	0.0
C 	35.66292612784318	31.949999999999996	0.0
C 	36.892682201217085	32.66	0.0
C 	38.122438274590984	31.949999999999992	0.0
C 	39.35219434796489	32.65999999999999	0.0
C 	40.58195042133879	31.949999999999992	0.0
C 	41.81170649471269	32.65999999999999	0.0
C 	43.0414625680866	31.949999999999996	0.0
C 	44.2712186414605	32.65999999999999	0.0
C 	45.5009747148344	31.949999999999992	0.0
C 	46.730730788208305	32.65999999999999	0.0
C 	47.96048686158221	31.949999999999992	0.0
C 	49.1902429349561	32.65999999999999	0.0
C 	50.41999900833002	31.949999999999992	0.0
C 	51.649755081703915	32.65999999999999	0.0
C 	52.879511155077815	31.949999999999992	0.0
C 	54.10926722845172	32.65999999999999	0.0
C 	55.33902330182563	31.949999999999992	0.0
C 	56.568779375199526	32.65999999999999	0.0
C 	57.79853544857343	31.949999999999992	0.0
C 	59.028291521947324	32.65999999999999	0.0
C 	60.25804759532124	31.949999999999992	0.0
C 	61.487803668695136	32.65999999999999	0.0
C 	62.717559742069035	31.94999999999999	0.0
C 	63.94731581544294	32.65999999999999	0.0
C 	65.17707188881685	31.949999999999992	0.0
C 	66.40682796219076	32.66	0.0
C 	67.63658403556465	31.949999999999992	0.0
C 	68.86634010893856	32.65999999999999	0.0
C 	70.09609618231245	31.94999999999999	0.0
C 	71.32585225568636	32.65999999999999	0.0
C 	72.55560832906026	31.949999999999996	0.0
C 	73.78536440243415	32.65999999999999	0.0
C 	75.01512047580806	31.949999999999992	0.0
C 	76.24487654918195	32.65999999999998	0.0
C 	77.47463262255587	31.949999999999985	0.0
C 	78.70438869592978	32.65999999999999	0.0
C 	19.676097173982445	34.07999999999999	0.0
C 	20.90585324735635	34.78999999999999	0.0
C 	22.135609320730254	34.07999999999999	0.0
C 	23.365365394104156	34.78999999999999	0.0
C 	24.595121467478055	34.07999999999999	0.0
C 	25.824877540851958	34.78999999999999	0.0
C 	27.054633614225864	34.07999999999999	0.0
C 	28.284389687599766	34.78999999999999	0.0
C 	29.514145760973665	34.07999999999999	0.0
C 	30.743901834347568	34.78999999999999	0.0
C 	31.97365790772147	34.07999999999999	0.0
C 	33.20341398109537	34.78999999999999	0.0
C 	34.43317005446928	34.07999999999999	0.0
C 	35.662926127843185	34.78999999999999	0.0
C 	36.89268220121708	34.07999999999999	0.0
C 	38.122438274590984	34.78999999999999	0.0
C 	39.35219434796489	34.07999999999999	0.0
C 	40.581950421338796	34.78999999999999	0.0
C 	41.811706494712695	34.07999999999999	0.0
C 	43.0414625680866	34.78999999999999	0.0
C 	44.2712186414605	34.07999999999999	0.0
C 	45.5009747148344	34.78999999999999	0.0
C 	46.730730788208305	34.07999999999999	0.0
C 	47.96048686158221	34.78999999999999	0.0
C 	49.19024293495611	34.07999999999999	0.0
C 	50.41999900833002	34.78999999999999	0.0
C 	51.649755081703915	34.07999999999999	0.0
C 	52.87951115507782	34.78999999999999	0.0
C 	54.10926722845172	34.07999999999999	0.0
C 	55.33902330182562	34.78999999999999	0.0
C 	56.56877937519953	34.07999999999999	0.0
C 	57.79853544857343	34.78999999999999	0.0
C 	59.02829152194733	34.07999999999999	0.0
C 	60.25804759532124	34.78999999999999	0.0
C 	61.487803668695136	34.07999999999999	0.0
C 	62.71755974206905	34.79	0.0
C 	63.947315815442934	34.079999999999984	0.0
C 	65.17707188881685	34.78999999999999	0.0
C 	66.40682796219075	34.07999999999999	0.0
C 	67.63658403556465	34.78999999999999	0.0
C 	68.86634010893854	34.07999999999999	0.0
C 	70.09609618231245	34.78999999999999	0.0
C 	71.32585225568636	34.07999999999999	0.0
C 	72.55560832906025	34.789999999999985	0.0
C 	73.78536440243417	34.07999999999999	0.0
C 	75.01512047580808	34.78999999999999	0.0
C 	76.24487654918197	34.07999999999999	0.0
C 	77.47463262255587	34.78999999999999	0.0
C 	78.70438869592977	34.079999999999984	0.0
C 	79.93414476930369	34.78999999999999	0.0
C 	20.90585324735635	36.209999999999994	0.0
C 	22.135609320730254	36.919999999999995	0.0
C 	23.36536539410416	36.209999999999994	0.0
C 	24.595121467478062	36.919999999999995	0.0
C 	25.82487754085196	36.209999999999994	0.0
C 	27.054633614225864	36.919999999999995	0.0
C 	28.284389687599766	36.209999999999994	0.0
C 	29.514145760973673	36.919999999999995	0.0
C 	30.743901834347575	36.209999999999994	0.0
C 	31.973657907721478	36.919999999999995	0.0
C 	33.20341398109537	36.209999999999994	0.0
C 	34.43317005446928	36.919999999999995	0.0
C 	35.662926127843185	36.209999999999994	0.0
C 	36.89268220121709	36.919999999999995	0.0
C 	38.12243827459099	36.209999999999994	0.0
C 	39.3521943479649	36.919999999999995	0.0
C 	40.581950421338796	36.209999999999994	0.0
C 	41.811706494712695	36.919999999999995	0.0
C 	43.041462568086594	36.209999999999994	0.0
C 	44.2712186414605	36.919999999999995	0.0
C 	45.500974714834406	36.209999999999994	0.0
C 	46.730730788208305	36.919999999999995	0.0
C 	47.96048686158221	36.209999999999994	0.0
C 	49.19024293495612	36.919999999999995	0.0
C 	50.41999900833002	36.20999999999999	0.0
C 	51.649755081703915	36.91999999999999	0.0
C 	52.87951115507782	36.209999999999994	0.0
C 	54.10926722845172	36.91999999999999	0.0
C 	55.33902330182563	36.209999999999994	0.0
C 	56.56877937519953	36.919999999999995	0.0
C 	57.79853544857343	36.20999999999999	0.0
C 	59.02829152194733	36.91999999999999	0.0
C 	60.25804759532123	36.20999999999999	0.0
C 	61.48780366869515	36.919999999999995	0.0
C 	62.71755974206904	36.209999999999994	0.0
C 	63.94731581544295	36.919999999999995	0.0
C 	65.17707188881684	36.209999999999994	0.0
C 	66.40682796219075	36.919999999999995	0.0
C 	67.63658403556467	36.209999999999994	0.0
C 	68.86634010893856	36.91999999999999	0.0
C 	70.09609618231246	36.209999999999994	0.0
C 	71.32585225568636	36.91999999999999	0.0
C 	72.55560832906026	36.209999999999994	0.0
C 	73.78536440243417	36.919999999999995	0.0
C 	75.01512047580806	36.20999999999999	0.0
C 	76.24487654918198	36.919999999999995	0.0
C 	77.47463262255586	36.20999999999999	0.0
C 	78.70438869592978	36.919999999999995	0.0
C 	79.93414476930369	36.20999999999999	0.0
C 	81.16390084267759	36.91999999999999	0.0
C 	22.13560932073025	38.33999999999999	0.0
C 	23.365365394104153	39.04999999999999	0.0
C 	24.59512146747806	38.33999999999999	0.0
C 	25.82487754085196	39.04999999999999	0.0
C 	27.05463361422586	38.33999999999999	0.0
C 	28.284389687599763	39.04999999999999	0.0
C 	29.514145760973665	38.33999999999999	0.0
C 	30.74390183434757	39.04999999999999	0.0
C 	31.973657907721474	38.339999999999996	0.0
C 	33.20341398109538	39.04999999999999	0.0
C 	34.43317005446927	38.33999999999999	0.0
C 	35.66292612784318	39.04999999999999	0.0
C 	36.892682201217085	38.33999999999999	0.0
C 	38.12243827459099	39.04999999999999	0.0
C 	39.35219434796489	38.33999999999999	0.0
C 	40.581950421338796	39.04999999999999	0.0
C 	41.811706494712695	38.33999999999999	0.0
C 	43.0414625680866	39.04999999999999	0.0
C 	44.27121864146049	38.33999999999999	0.0
C 	45.5009747148344	39.04999999999999	0.0
C 	46.730730788208305	38.33999999999999	0.0
C 	47.960486861582204	39.04999999999999	0.0
C 	49.19024293495611	38.33999999999999	0.0
C 	50.41999900833002	39.04999999999999	0.0
C 	51.649755081703915	38.33999999999999	0.0
C 	52.879511155077815	39.04999999999999	0.0
C 	54.10926722845173	38.33999999999999	0.0
C 	55.33902330182562	39.04999999999998	0.0
C 	56.568779375199526	38.33999999999999	0.0
C 	57.79853544857343	39.04999999999999	0.0
C 	59.02829152194733	38.33999999999999	0.0
C 	60.25804759532123	39.04999999999999	0.0
C 	61.48780366869513	38.33999999999998	0.0
C 	62.71755974206905	39.04999999999999	0.0
C 	63.94731581544294	38.33999999999999	0.0
C 	65.17707188881685	39.04999999999999	0.0
C 	66.40682796219075	38.33999999999999	0.0
C 	67.63658403556465	39.04999999999999	0.0
C 	68.86634010893856	38.33999999999999	0.0
C 	70.09609618231245	39.04999999999998	0.0
C 	71.32585225568636	38.33999999999999	0.0
C 	72.55560832906025	39.04999999999998	0.0
C 	73.78536440243415	38.33999999999999	0.0
C 	75.01512047580806	39.04999999999999	0.0
C 	76.24487654918197	38.33999999999999	0.0
C 	77.47463262255587	39.05	0.0
C 	78.70438869592977	38.33999999999998	0.0
C 	79.93414476930369	39.04999999999999	0.0
C 	81.16390084267758	38.33999999999998	0.0
C 	82.39365691605148	39.04999999999998	0.0
C 	23.365365394104156	40.46999999999999	0.0
C 	24.59512146747806	41.17999999999999	0.0
C 	25.82487754085196	40.46999999999999	0.0
C 	27.054633614225867	41.17999999999999	0.0
C 	28.284389687599763	40.46999999999999	0.0
C 	29.51414576097367	41.17999999999999	0.0
C 	30.74390183434757	40.46999999999999	0.0
C 	31.973657907721474	41.17999999999999	0.0
C 	33.20341398109537	40.46999999999999	0.0
C 	34.43317005446928	41.17999999999999	0.0
C 	35.66292612784318	40.46999999999999	0.0
C 	36.892682201217085	41.17999999999999	0.0
C 	38.12243827459099	40.46999999999999	0.0
C 	39.3521943479649	41.17999999999999	0.0
C 	40.58195042133879	40.46999999999999	0.0
C 	41.811706494712695	41.17999999999999	0.0
C 	43.0414625680866	40.46999999999999	0.0
C 	44.2712186414605	41.17999999999999	0.0
C 	45.500974714834406	40.46999999999999	0.0
C 	46.73073078820831	41.17999999999999	0.0
C 	47.960486861582204	40.46999999999999	0.0
C 	49.19024293495611	41.17999999999999	0.0
C 	50.41999900833002	40.46999999999999	0.0
C 	51.649755081703915	41.179999999999986	0.0
C 	52.87951115507782	40.46999999999999	0.0
C 	54.10926722845173	41.17999999999999	0.0
C 	55.33902330182563	40.46999999999999	0.0
C 	56.568779375199526	41.17999999999999	0.0
C 	57.798535448573425	40.469999999999985	0.0
C 	59.028291521947345	41.17999999999999	0.0
C 	60.25804759532124	40.46999999999999	0.0
C 	61.48780366869514	41.17999999999999	0.0
C 	62.71755974206904	40.46999999999999	0.0
C 	63.94731581544295	41.17999999999999	0.0
C 	65.17707188881685	40.46999999999999	0.0
C 	66.40682796219075	41.179999999999986	0.0
C 	67.63658403556465	40.46999999999999	0.0
C 	68.86634010893854	41.179999999999986	0.0
C 	70.09609618231246	40.46999999999999	0.0
C 	71.32585225568636	41.17999999999999	0.0
C 	72.55560832906026	40.469999999999985	0.0
C 	73.78536440243417	41.179999999999986	0.0
C 	75.01512047580806	40.469999999999985	0.0
C 	76.24487654918198	41.17999999999999	0.0
C 	77.47463262255587	40.46999999999999	0.0
C 	78.70438869592978	41.17999999999999	0.0
C 	79.93414476930367	40.469999999999985	0.0
C 	81.16390084267758	41.179999999999986	0.0
C 	82.3936569160515	40.46999999999999	0.0
C 	83.62341298942539	41.179999999999986	0.0
C 	24.595121467478055	42.59999999999999	0.0
C 	25.82487754085196	43.30999999999999	0.0
C 	27.05463361422586	42.59999999999999	0.0
C 	28.284389687599766	43.30999999999999	0.0
C 	29.514145760973662	42.59999999999999	0.0
C 	30.743901834347568	43.30999999999999	0.0
C 	31.97365790772147	42.59999999999999	0.0
C 	33.20341398109537	43.30999999999999	0.0
C 	34.43317005446927	42.59999999999999	0.0
C 	35.66292612784318	43.30999999999999	0.0
C 	36.89268220121708	42.59999999999999	0.0
C 	38.122438274590984	43.30999999999999	0.0
C 	39.35219434796489	42.59999999999999	0.0
C 	40.581950421338796	43.30999999999999	0.0
C 	41.81170649471269	42.59999999999999	0.0
C 	43.041462568086594	43.30999999999999	0.0
C 	44.2712186414605	42.59999999999999	0.0
C 	45.5009747148344	43.30999999999999	0.0
C 	46.730730788208305	42.59999999999999	0.0
C 	47.96048686158221	43.30999999999999	0.0
C 	49.19024293495611	42.59999999999999	0.0
C 	50.41999900833001	43.30999999999999	0.0
C 	51.64975508170392	42.599999999999994	0.0
C 	52.879511155077815	43.30999999999999	0.0
C 	54.10926722845172	42.59999999999999	0.0
C 	55.33902330182563	43.30999999999999	0.0
C 	56.568779375199526	42.59999999999999	0.0
C 	57.798535448573425	43.30999999999999	0.0
C 	59.028291521947324	42.59999999999998	0.0
C 	60.258047595321244	43.30999999999999	0.0
C 	61.487803668695136	42.59999999999999	0.0
C 	62.71755974206904	43.30999999999999	0.0
C 	63.94731581544294	42.59999999999999	0.0
C 	65.17707188881684	43.30999999999999	0.0
C 	66.40682796219076	42.599999999999994	0.0
C 	67.63658403556465	43.30999999999999	0.0
C 	68.86634010893856	42.59999999999999	0.0
C 	70.09609618231245	43.30999999999998	0.0
C 	71.32585225568636	42.59999999999999	0.0
C 	72.55560832906026	43.30999999999999	0.0
C 	73.78536440243415	42.59999999999999	0.0
C 	75.01512047580806	43.30999999999999	0.0
C 	76.24487654918197	42.59999999999998	0.0
C 	77.47463262255587	43.30999999999999	0.0
C 	78.70438869592978	42.59999999999999	0.0
C 	79.93414476930367	43.30999999999999	0.0
C 	81.16390084267758	42.59999999999999	0.0
C 	82.39365691605148	43.30999999999999	0.0
C 	83.62341298942539	42.59999999999999	0.0
C 	84.85316906279928	43.30999999999998	0.0
C 	25.82487754085196	44.72999999999999	0.0
C 	27.054633614225864	45.43999999999999	0.0
C 	28.284389687599766	44.72999999999999	0.0
C 	29.514145760973673	45.43999999999999	0.0
C 	30.743901834347568	44.72999999999999	0.0
C 	31.97365790772147	45.43999999999999	0.0
C 	33.20341398109537	44.72999999999999	0.0
C 	34.43317005446928	45.43999999999999	0.0
C 	35.662926127843185	44.72999999999999	0.0
C 	36.892682201217085	45.43999999999999	0.0
C 	38.122438274590984	44.72999999999999	0.0
C 	39.35219434796489	45.43999999999999	0.0
C 	40.581950421338796	44.72999999999999	0.0
C 	41.811706494712695	45.43999999999999	0.0
C 	43.0414625680866	44.72999999999999	0.0
C 	44.27121864146051	45.43999999999999	0.0
C 	45.500974714834406	44.72999999999999	0.0
C 	46.730730788208305	45.43999999999999	0.0
C 	47.960486861582204	44.72999999999999	0.0
C 	49.19024293495611	45.43999999999998	0.0
C 	50.41999900833002	44.72999999999999	0.0
C 	51.64975508170391	45.43999999999998	0.0
C 	52.87951115507782	44.72999999999999	0.0
C 	54.10926722845172	45.43999999999999	0.0
C 	55.33902330182562	44.72999999999998	0.0
C 	56.568779375199526	45.43999999999998	0.0
C 	57.798535448573425	44.72999999999998	0.0
C 	59.02829152194734	45.43999999999999	0.0
C 	60.25804759532124	44.72999999999999	0.0
C 	61.48780366869514	45.43999999999999	0.0
C 	62.717559742069035	44.72999999999998	0.0
C 	63.94731581544294	45.43999999999998	0.0
C 	65.17707188881685	44.72999999999999	0.0
C 	66.40682796219075	45.43999999999998	0.0
C 	67.63658403556465	44.72999999999999	0.0
C 	68.86634010893856	45.43999999999999	0.0
C 	70.09609618231245	44.72999999999999	0.0
C 	71.32585225568636	45.43999999999998	0.0
C 	72.55560832906026	44.72999999999998	0.0
C 	73.78536440243417	45.43999999999999	0.0
C 	75.01512047580806	44.72999999999998	0.0
C 	76.24487654918198	45.43999999999999	0.0
C 	77.47463262255587	44.72999999999999	0.0
C 	78.70438869592978	45.43999999999999	0.0
C 	79.93414476930369	44.72999999999999	0.0
C 	81.16390084267758	45.43999999999998	0.0
C 	82.39365691605148	44.72999999999999	0.0
C 	83.62341298942538	45.43999999999998	0.0
C 	84.8531690627993	44.72999999999998	0.0
C 	86.08292513617319	45.43999999999998	0.0
C 	27.054633614225864	46.85999999999999	0.0
C 	28.28438968759977	47.56999999999999	0.0
C 	29.514145760973673	46.85999999999999	0.0
C 	30.74390183434758	47.56999999999999	0.0
C 	31.973657907721474	46.85999999999999	0.0
C 	33.20341398109538	47.56999999999999	0.0
C 	34.43317005446928	46.85999999999999	0.0
C 	35.662926127843185	47.56999999999999	0.0
C 	36.892682201217085	46.85999999999999	0.0
C 	38.122438274590984	47.56999999999999	0.0
C 	39.35219434796489	46.85999999999999	0.0
C 	40.581950421338796	47.56999999999999	0.0
C 	41.8117064947127	46.85999999999999	0.0
C 	43.0414625680866	47.56999999999999	0.0
C 	44.2712186414605	46.85999999999999	0.0
C 	45.500974714834406	47.56999999999999	0.0
C 	46.73073078820831	46.859999999999985	0.0
C 	47.960486861582204	47.569999999999986	0.0
C 	49.19024293495612	46.85999999999999	0.0
C 	50.41999900833002	47.56999999999999	0.0
C 	51.649755081703915	46.859999999999985	0.0
C 	52.87951115507782	47.569999999999986	0.0
C 	54.10926722845172	46.859999999999985	0.0
C 	55.339023301825634	47.56999999999999	0.0
C 	56.56877937519953	46.85999999999999	0.0
C 	57.79853544857344	47.56999999999999	0.0
C 	59.02829152194733	46.859999999999985	0.0
C 	60.25804759532124	47.569999999999986	0.0
C 	61.48780366869515	46.85999999999999	0.0
C 	62.71755974206904	47.569999999999986	0.0
C 	63.94731581544295	46.85999999999999	0.0
C 	65.17707188881685	47.56999999999999	0.0
C 	66.40682796219075	46.859999999999985	0.0
C 	67.63658403556465	47.569999999999986	0.0
C 	68.86634010893856	46.859999999999985	0.0
C 	70.09609618231246	47.56999999999999	0.0
C 	71.32585225568636	46.859999999999985	0.0
C 	72.55560832906028	47.56999999999999	0.0
C 	73.78536440243417	46.859999999999985	0.0
C 	75.01512047580808	47.569999999999986	0.0
C 	76.24487654918197	46.859999999999985	0.0
C 	77.47463262255587	47.569999999999986	0.0
C 	78.70438869592978	46.85999999999999	0.0
C 	79.93414476930367	47.569999999999986	0.0
C 	81.16390084267758	46.85999999999999	0.0
C 	82.39365691605148	47.56999999999999	0.0
C 	83.62341298942539	46.859999999999985	0.0
C 	84.8531690627993	47.569999999999986	0.0
C 	86.08292513617319	46.85999999999998	0.0
C 	87.31268120954711	47.569999999999986	0.0
C 	28.284389687599763	48.98999999999999	0.0
C 	29.51414576097367	49.69999999999999	0.0
C 	30.74390183434757	48.98999999999999	0.0
C 	31.973657907721478	49.69999999999999	0.0
C 	33.20341398109537	48.98999999999999	0.0
C 	34.43317005446928	49.69999999999999	0.0
C 	35.66292612784318	48.98999999999999	0.0
C 	36.892682201217085	49.69999999999999	0.0
C 	38.122438274590984	48.98999999999999	0.0
C 	39.35219434796488	49.69999999999999	0.0
C 	40.58195042133879	48.98999999999999	0.0
C 	41.811706494712695	49.69999999999999	0.0
C 	43.041462568086594	48.98999999999999	0.0
C 	44.2712186414605	49.69999999999999	0.0
C 	45.5009747148344	48.98999999999999	0.0
C 	46.730730788208305	49.69999999999998	0.0
C 	47.96048686158221	48.98999999999999	0.0
C 	49.1902429349561	49.69999999999998	0.0
C 	50.41999900833002	48.98999999999999	0.0
C 	51.64975508170392	49.69999999999999	0.0
C 	52.879511155077815	48.98999999999999	0.0
C 	54.10926722845172	49.69999999999999	0.0
C 	55.33902330182562	48.98999999999998	0.0
C 	56.56877937519953	49.69999999999999	0.0
C 	57.79853544857343	48.98999999999999	0.0
C 	59.02829152194734	49.69999999999999	0.0
C 	60.25804759532124	48.98999999999999	0.0
C 	61.487803668695136	49.69999999999999	0.0
C 	62.71755974206905	48.98999999999999	0.0
C 	63.94731581544294	49.69999999999998	0.0
C 	65.17707188881685	48.98999999999999	0.0
C 	66.40682796219075	49.69999999999999	0.0
C 	67.63658403556465	48.98999999999999	0.0
C 	68.86634010893856	49.69999999999999	0.0
C 	70.09609618231245	48.98999999999998	0.0
C 	71.32585225568637	49.69999999999999	0.0
C 	72.55560832906025	48.98999999999998	0.0
C 	73.78536440243417	49.69999999999999	0.0
C 	75.01512047580806	48.98999999999999	0.0
C 	76.24487654918197	49.69999999999999	0.0
C 	77.47463262255587	48.98999999999998	0.0
C 	78.70438869592978	49.69999999999998	0.0
C 	79.93414476930369	48.98999999999999	0.0
C 	81.16390084267758	49.69999999999998	0.0
C 	82.39365691605148	48.98999999999999	0.0
C 	83.62341298942539	49.69999999999999	0.0
C 	84.85316906279928	48.98999999999998	0.0
C 	86.08292513617319	49.69999999999998	0.0
C 	87.3126812095471	48.98999999999998	0.0
C 	88.542437282921	49.69999999999999	0.0
C 	29.51414576097367	51.11999999999999	0.0
C 	30.74390183434757	51.82999999999999	0.0
C 	31.973657907721474	51.11999999999999	0.0
C 	33.20341398109538	51.82999999999999	0.0
C 	34.43317005446928	51.11999999999999	0.0
C 	35.66292612784318	51.82999999999999	0.0
C 	36.892682201217085	51.11999999999999	0.0
C 	38.12243827459099	51.82999999999999	0.0
C 	39.35219434796489	51.12	0.0
C 	40.581950421338796	51.83	0.0
C 	41.811706494712695	51.11999999999999	0.0
C 	43.041462568086594	51.82999999999999	0.0
C 	44.2712186414605	51.12	0.0
C 	45.5009747148344	51.82999999999999	0.0
C 	46.73073078820831	51.11999999999999	0.0
C 	47.96048686158221	51.82999999999999	0.0
C 	49.19024293495611	51.11999999999999	0.0
C 	50.41999900833002	51.82999999999999	0.0
C 	51.649755081703915	51.11999999999998	0.0
C 	52.879511155077815	51.829999999999984	0.0
C 	54.10926722845171	51.11999999999999	0.0
C 	55.33902330182563	51.83	0.0
C 	56.568779375199526	51.11999999999999	0.0
C 	57.79853544857343	51.82999999999999	0.0
C 	59.02829152194733	51.11999999999999	0.0
C 	60.25804759532124	51.82999999999999	0.0
C 	61.48780366869514	51.11999999999999	0.0
C 	62.717559742069035	51.829999999999984	0.0
C 	63.94731581544295	51.11999999999999	0.0
C 	65.17707188881685	51.82999999999999	0.0
C 	66.40682796219075	51.11999999999999	0.0
C 	67.63658403556465	51.82999999999999	0.0
C 	68.86634010893854	51.11999999999998	0.0
C 	70.09609618231246	51.82999999999999	0.0
C 	71.32585225568636	51.11999999999999	0.0
C 	72.55560832906026	51.82999999999999	0.0
C 	73.78536440243417	51.11999999999999	0.0
C 	75.01512047580806	51.82999999999999	0.0
C 	76.24487654918198	51.11999999999999	0.0
C 	77.47463262255587	51.829999999999984	0.0
C 	78.70438869592978	51.11999999999999	0.0
C 	79.93414476930367	51.829999999999984	0.0
C 	81.16390084267758	51.11999999999999	0.0
C 	82.39365691605148	51.82999999999999	0.0
C 	83.62341298942538	51.11999999999998	0.0
C 	84.8531690627993	51.82999999999999	0.0
C 	86.08292513617319	51.11999999999998	0.0
C 	87.3126812095471	51.82999999999999	0.0
C 	88.542437282921	51.11999999999998	0.0
C 	89.7721933562949	51.829999999999984	0.0
C 	51.95437410249586	-0.8382193137280785	2.15
C 	53.26341977775153	-0.28794718096609917	2.15
C 	53.441392969412846	1.1208556949004609	2.15
C 	54.75043864466852	1.6711278276624473	2.15
C 	54.928411836329836	3.0799307035290076	2.15
C 	56.237457511585504	3.6302028362909944	2.15
C 	56.41543070324681	5.039005712157555	2.15
C 	57.72447637850248	5.589277844919535	2.15
C 	57.90244957016379	6.998080720786095	2.15
C 	59.211495245419464	7.5483528535480815	2.15
C 	59.38946843708078	8.95715572941464	2.15
C 	49.51425594364583	-0.5299607033854988	2.15
C 	50.823301618901496	0.020311429376488336	2.15
C 	51.00127481056281	1.4291143052430484	2.15
C 	52.31032048581849	1.9793864380050277	2.15
C 	52.4882936774798	3.388189313871588	2.15
C 	53.79733935273547	3.9384614466335743	2.15
C 	53.97531254439678	5.347264322500134	2.15
C 	55.28435821965246	5.897536455262121	2.15
C 	55.46233141131377	7.30633933112868	2.15
C 	56.77137708656944	7.856611463890661	2.15
C 	56.94935027823075	9.265414339757221	2.15
C 	58.25839595348641	9.815686472519209	2.15
C 	58.43636914514773	11.224489348385768	2.15
C 	59.745414820403404	11.774761481147754	2.15
C 	59.92338801206471	13.183564357014316	2.15
C 	61.23243368732039	13.733836489776294	2.15
C 	61.410406878981696	15.142639365642856	2.15
C 	62.719452554237364	15.692911498404841	2.15
C 	62.89742574589868	17.101714374271403	2.15
C 	64.20647142115435	17.65198650703339	2.15
C 	64.38444461281566	19.060789382899948	2.15
C 	65.69349028807133	19.611061515661927	2.15
C 	65.87146347973265	21.01986439152849	2.15
C 	67.18050915498831	21.570136524290465	2.15
C 	67.35848234664964	22.978939400157028	2.15
C 	47.0741377847958	-0.22170209304291225	2.15
C 	48.38318346005148	0.32857003971907406	2.15
C 	48.56115665171279	1.7373729155856341	2.15
C 	49.87020232696845	2.2876450483476214	2.15
C 	50.04817551862977	3.6964479242141817	2.15
C 	51.35722119388544	4.246720056976161	2.15
C 	51.535194385546745	5.655522932842722	2.15
C 	52.84424006080243	6.2057950656047085	2.15
C 	53.022213252463736	7.614597941471268	2.15
C 	54.331258927719404	8.164870074233255	2.15
C 	54.50923211938072	9.573672950099814	2.15
C 	55.818277794636394	10.123945082861795	2.15
C 	55.99625098629771	11.532747958728354	2.15
C 	57.30529666155337	12.083020091490342	2.15
C 	57.48326985321468	13.491822967356903	2.15
C 	58.792315528470354	14.042095100118889	2.15
C 	58.97028872013166	15.450897975985448	2.15
C 	60.27933439538734	16.001170108747427	2.15
C 	60.45730758704865	17.409972984613987	2.15
C 	61.76635326230433	17.960245117375976	2.15
C 	61.944326453965644	19.369047993242535	2.15
C 	63.2533721292213	19.91932012600452	2.15
C 	63.43134532088261	21.328123001871084	2.15
C 	64.74039099613829	21.878395134633063	2.15
C 	64.9183641877996	23.287198010499623	2.15
C 	66.22740986305527	23.8374701432616	2.15
C 	66.40538305471658	25.24627301912816	2.15
C 	67.71442872997225	25.796545151890154	2.15
C 	67.89240192163356	27.205348027756713	2.15
C 	69.20144759688924	27.755620160518696	2.15
C 	69.37942078855055	29.164423036385255	2.15
C 	70.68846646380622	29.714695169147237	2.15
C 	70.86643965546753	31.123498045013797	2.15
C 	72.1754853307232	31.67377017777579	2.15
C 	72.35345852238451	33.08257305364235	2.15
C 	73.66250419764019	33.63284518640433	2.15
C 	73.8404773893015	35.04164806227089	2.15
C 	75.14952306455717	35.59192019503287	2.15
C 	75.3274962562185	37.000723070899426	2.15
C 	44.634019625945776	0.08655651729967437	2.15
C 	45.943065301201436	0.6368286500616546	2.15
C 	46.12103849286275	2.0456315259282145	2.15
C 	47.43008416811843	2.595903658690201	2.15
C 	47.60805735977974	4.004706534556761	2.15
C 	48.91710303503542	4.554978667318747	2.15
C 	49.095076226696726	5.963781543185307	2.15
C 	50.40412190195239	6.514053675947288	2.15
C 	50.5820950936137	7.922856551813847	2.15
C 	51.89114076886938	8.473128684575833	2.15
C 	52.06911396053069	9.881931560442395	2.15
C 	53.37815963578636	10.432203693204382	2.15
C 	53.55613282744768	11.841006569070942	2.15
C 	54.865178502703344	12.39127870183292	2.15
C 	55.04315169436465	13.800081577699482	2.15
C 	56.35219736962033	14.350353710461468	2.15
C 	56.530170561281636	15.759156586328029	2.15
C 	57.83921623653731	16.309428719090015	2.15
C 	58.01718942819863	17.718231594956574	2.15
C 	59.32623510345429	18.268503727718556	2.15
C 	59.5042082951156	19.677306603585116	2.15
C 	60.81325397037128	20.227578736347102	2.15
C 	60.99122716203259	21.63638161221366	2.15
C 	62.30027283728826	22.186653744975647	2.15
C 	62.47824602894957	23.59545662084221	2.15
C 	63.78729170420524	24.14572875360419	2.15
C 	63.965264895866554	25.55453162947075	2.15
C 	65.27431057112223	26.104803762232727	2.15
C 	65.45228376278354	27.513606638099287	2.15
C 	66.76132943803921	28.063878770861283	2.15
C 	66.93930262970052	29.472681646727843	2.15
C 	68.2483483049562	30.02295377948982	2.15
C 	68.4263214966175	31.43175665535638	2.15
C 	69.73536717187316	31.982028788118363	2.15
C 	69.91334036353447	33.390831663984926	2.15
C 	71.22238603879018	33.941103796746916	2.15
C 	71.40035923045149	35.34990667261347	2.15
C 	72.70940490570713	35.900178805375454	2.15
C 	72.88737809736845	37.30898168124202	2.15
C 	74.19642377262412	37.85925381400399	2.15
C 	74.37439696428544	39.268056689870555	2.15
C 	42.19390146709574	0.39481512764226095	2.15
C 	43.50294714235142	0.9450872604042473	2.15
C 	43.68092033401273	2.3538901362708073	2.15
C 	44.9899660092684	2.9041622690327875	2.15
C 	45.167939200929716	4.312965144899348	2.15
C 	46.47698487618538	4.863237277661335	2.15
C 	46.654958067846685	6.272040153527895	2.15
C 	47.96400374310237	6.822312286289882	2.15
C 	48.141976934763676	8.231115162156442	2.15
C 	49.45102261001935	8.78138729491842	2.15
C 	49.62899580168067	10.19019017078498	2.15
C 	50.938041476936334	10.740462303546968	2.15
C 	51.11601466859765	12.149265179413527	2.15
C 	52.42506034385332	12.699537312175515	2.15
C 	52.603033535514626	14.108340188042074	2.15
C 	53.9120792107703	14.658612320804055	2.15
C 	54.09005240243161	16.067415196670616	2.15
C 	55.39909807768728	16.617687329432602	2.15
C 	55.57707126934859	18.02649020529916	2.15
C 	56.88611694460427	18.576762338061148	2.15
C 	57.064090136265584	19.985565213927707	2.15
C 	58.373135811521244	20.53583734668969	2.15
C 	58.55110900318255	21.94464022255625	2.15
C 	59.86015467843823	22.494912355318235	2.15
C 	60.03812787009954	23.903715231184794	2.15
C 	61.34717354535521	24.45398736394678	2.15
C 	61.52514673701653	25.862790239813343	2.15
C 	62.8341924122722	26.41306237257532	2.15
C 	63.01216560393352	27.82186524844188	2.15
C 	64.32121127918919	28.37213738120386	2.15
C 	64.4991844708505	29.78094025707042	2.15
C 	65.80823014610615	30.331212389832416	2.15
C 	65.98620333776748	31.740015265698975	2.15
C 	67.29524901302315	32.290287398460954	2.15
C 	67.47322220468446	33.69909027432752	2.15
C 	68.78226787994014	34.24936240708949	2.15
C 	68.96024107160144	35.658165282956055	2.15
C 	70.26928674685712	36.20843741571805	2.15
C 	70.44725993851843	37.61724029158461	2.15
C 	71.75630561377409	38.16751242434659	2.15
C 	71.93427880543541	39.57631530021315	2.15
C 	73.24332448069107	40.12658743297513	2.15
C 	73.42129767235238	41.53539030884169	2.15
C 	39.753783308245715	0.7030737379848476	2.15
C 	41.06282898350138	1.2533458707468312	2.15
C 	41.2408021751627	2.6621487466133877	2.15
C 	42.54984785041837	3.2124208793753777	2.15
C 	42.72782104207968	4.621223755241934	2.15
C 	44.03686671733536	5.171495888003917	2.15
C 	44.214839908996666	6.5802987638704735	2.15
C 	45.52388558425234	7.130570896632465	2.15
C 	45.70185877591365	8.53937377249902	2.15
C 	47.01090445116931	9.089645905261012	2.15
C 	47.188877642830626	10.498448781127568	2.15
C 	48.4979233180863	11.048720913889552	2.15
C 	48.67589650974761	12.457523789756108	2.15
C 	49.98494218500329	13.007795922518097	2.15
C 	50.1629153766646	14.416598798384655	2.15
C 	51.471961051920275	14.966870931146644	2.15
C 	51.64993424358158	16.3756738070132	2.15
C 	52.95897991883725	16.925945939775183	2.15
C 	53.13695311049857	18.334748815641742	2.15
C 	54.445998785754234	18.88502094840373	2.15
C 	54.62397197741555	20.293823824270287	2.15
C 	55.93301765267122	20.844095957032277	2.15
C 	56.11099084433253	22.252898832898836	2.15
C 	57.4200365195882	22.80317096566082	2.15
C 	57.59800971124951	24.211973841527374	2.15
C 	58.907055386505185	24.762245974289364	2.15
C 	59.0850285781665	26.17104885015592	2.15
C 	60.39407425342216	26.72132098291791	2.15
C 	60.57204744508348	28.13012385878447	2.15
C 	61.88109312033915	28.680395991546447	2.15
C 	62.05906631200046	30.089198867413007	2.15
C 	63.368111987256135	30.639471000174986	2.15
C 	63.54608517891745	32.04827387604155	2.15
C 	64.85513085417311	32.59854600880354	2.15
C 	65.03310404583442	34.0073488846701	2.15
C 	66.34214972109011	34.55762101743208	2.15
C 	66.52012291275142	35.96642389329864	2.15
C 	67.82916858800708	36.51669602606062	2.15
C 	68.0071417796684	37.925498901927185	2.15
C 	69.31618745492406	38.475771034689174	2.15
C 	69.49416064658539	39.88457391055574	2.15
C 	70.80320632184103	40.43484604331772	2.15
C 	70.98117951350234	41.843648919184275	2.15
C 	72.29022518875804	42.39392105194626	2.15
C 	72.46819838041935	43.80272392781281	2.15
C 	35.8266462824787	-0.9477426603011087	2.15
C 	37.13569195773437	-0.39747052753912593	2.15
C 	37.31366514939569	1.0113323483274341	2.15
C 	38.62271082465136	1.5616044810894205	2.15
C 	38.80068401631267	2.9704073569559806	2.15
C 	40.10972969156834	3.5206794897179607	2.15
C 	40.287702883229656	4.929482365584521	2.15
C 	41.596748558485324	5.479754498346508	2.15
C 	41.77472175014663	6.888557374213068	2.15
C 	43.0837674254023	7.438829506975048	2.15
C 	43.261740617063616	8.847632382841608	2.15
C 	44.57078629231929	9.397904515603594	2.15
C 	44.748759483980606	10.806707391470153	2.15
C 	46.057805159236274	11.356979524232141	2.15
C 	46.23577835089759	12.7657824000987	2.15
C 	47.54482402615325	13.316054532860681	2.15
C 	47.72279721781456	14.724857408727242	2.15
C 	49.03184289307024	15.275129541489228	2.15
C 	49.20981608473155	16.683932417355788	2.15
C 	50.518861759987225	17.234204550117774	2.15
C 	50.69683495164854	18.643007425984333	2.15
C 	52.00588062690421	19.193279558746315	2.15
C 	52.183853818565524	20.602082434612875	2.15
C 	53.492899493821184	21.15235456737486	2.15
C 	53.67087268548249	22.561157443241424	2.15
C 	54.979918360738175	23.11142957600341	2.15
C 	55.157891552399484	24.52023245186997	2.15
C 	56.46693722765515	25.070504584631948	2.15
C 	56.64491041931647	26.479307460498507	2.15
C 	57.95395609457214	27.029579593260493	2.15
C 	58.13192928623346	28.438382469127053	2.15
C 	59.44097496148912	28.988654601889042	2.15
C 	59.61894815315043	30.3974574777556	2.15
C 	60.9279938284061	30.94772961051758	2.15
C 	61.10596702006741	32.35653248638414	2.15
C 	62.415012695323085	32.90680461914612	2.15
C 	62.5929858869844	34.31560749501268	2.15
C 	63.902031562240076	34.865879627774675	2.15
C 	64.08000475390139	36.27468250364124	2.15
C 	65.38905042915705	36.82495463640321	2.15
C 	65.56702362081838	38.233757512269776	2.15
C 	66.87606929607404	38.78402964503176	2.15
C 	67.05404248773534	40.192832520898314	2.15
C 	68.36308816299102	40.74310465366031	2.15
C 	68.54106135465234	42.151907529526866	2.15
C 	69.850107029908	42.70217966228885	2.15
C 	70.02808022156931	44.110982538155405	2.15
C 	71.33712589682499	44.66125467091739	2.15
C 	33.38652812362868	-0.6394840499585195	2.15
C 	34.69557379888435	-0.08921191719653578	2.15
C 	34.873546990545655	1.3195909586700243	2.15
C 	36.18259266580132	1.869863091432008	2.15
C 	36.36056585746264	3.278665967298568	2.15
C 	37.669611532718314	3.8289381000605545	2.15
C 	37.84758472437963	5.237740975927115	2.15
C 	39.1566303996353	5.788013108689094	2.15
C 	39.334603591296606	7.196815984555654	2.15
C 	40.64364926655228	7.747088117317642	2.15
C 	40.82162245821359	9.155890993184201	2.15
C 	42.13066813346926	9.706163125946182	2.15
C 	42.30864132513057	11.114966001812741	2.15
C 	43.61768700038624	11.665238134574729	2.15
C 	43.795660192047556	13.074041010441288	2.15
C 	45.10470586730323	13.624313143203274	2.15
C 	45.28267905896454	15.033116019069835	2.15
C 	46.591724734220215	15.583388151831814	2.15
C 	46.76969792588152	16.992191027698375	2.15
C 	48.07874360113719	17.54246316046036	2.15
C 	48.25671679279851	18.95126603632692	2.15
C 	49.565762468054174	19.50153816908891	2.15
C 	49.74373565971549	20.91034104495547	2.15
C 	51.052781334971165	21.46061317771745	2.15
C 	51.230754526632474	22.869416053584008	2.15
C 	52.53980020188814	23.419688186345994	2.15
C 	52.71777339354945	24.828491062212557	2.15
C 	54.026819068805125	25.378763194974542	2.15
C 	54.20479226046644	26.787566070841102	2.15
C 	55.51383793572211	27.33783820360308	2.15
C 	55.691811127383424	28.74664107946964	2.15
C 	57.00085680263909	29.29691321223163	2.15
C 	57.1788299943004	30.70571608809819	2.15
C 	58.487875669556075	31.255988220860175	2.15
C 	58.665848861217384	32.66479109672674	2.15
C 	59.97489453647306	33.21506322948871	2.15
C 	60.152867728134375	34.623866105355276	2.15
C 	61.46191340339004	35.17413823811725	2.15
C 	61.63988659505136	36.582941113983814	2.15
C 	62.948932270307026	37.13321324674581	2.15
C 	63.12690546196834	38.54201612261237	2.15
C 	64.43595113722401	39.09228825537435	2.15
C 	64.61392432888533	40.501091131240905	2.15
C 	65.92297000414099	41.05136326400289	2.15
C 	66.1009431958023	42.46016613986945	2.15
C 	67.40998887105798	43.01043827263144	2.15
C 	67.58796206271928	44.419241148498	2.15
C 	68.89700773797496	44.969513281259985	2.15
C 	30.946409964778645	-0.33122543961593987	2.15
C 	32.25545564003432	0.21904669314604996	2.15
C 	32.43342883169563	1.6278495690126065	2.15
C 	33.742474506951304	2.178121701774594	2.15
C 	33.92044769861262	3.5869245776411502	2.15
C 	35.22949337386828	4.1371967104031375	2.15
C 	35.407466565529596	5.545999586269694	2.15
C 	36.71651224078526	6.096271719031685	2.15
C 	36.89448543244657	7.505074594898241	2.15
C 	38.203531107702254	8.055346727660224	2.15
C 	38.38150429936356	9.464149603526781	2.15
C 	39.69054997461923	10.01442173628877	2.15
C 	39.868523166280546	11.423224612155327	2.15
C 	41.177568841536214	11.97349674491731	2.15
C 	41.35554203319752	13.382299620783867	2.15
C 	42.6645877084532	13.932571753545858	2.15
C 	42.842560900114506	15.341374629412416	2.15
C 	44.15160657537018	15.891646762174405	2.15
C 	44.32957976703149	17.300449638040963	2.15
C 	45.638625442287164	17.850721770802945	2.15
C 	45.81659863394848	19.2595246466695	2.15
C 	47.125644309204155	19.80979677943149	2.15
C 	47.30361750086547	21.218599655298046	2.15
C 	48.61266317612113	21.76887178806004	2.15
C 	48.79063636778244	23.177674663926595	2.15
C 	50.099682043038115	23.727946796688578	2.15
C 	50.277655234699424	25.136749672555133	2.15
C 	51.5867009099551	25.687021805317123	2.15
C 	51.764674101616414	27.095824681183682	2.15
C 	53.07371977687208	27.646096813945668	2.15
C 	53.2516929685334	29.054899689812228	2.15
C 	54.56073864378906	29.60517182257421	2.15
C 	54.73871183545037	31.01397469844077	2.15
C 	56.04775751070605	31.564246831202762	2.15
C 	56.22573070236736	32.973049707069315	2.15
C 	57.534776377623025	33.523321839831304	2.15
C 	57.71274956928434	34.93212471569786	2.15
C 	59.021795244540016	35.48239684845984	2.15
C 	59.19976843620133	36.8911997243264	2.15
C 	60.508814111457006	37.44147185708838	2.15
C 	60.686787303118315	38.850274732954944	2.15
C 	61.995832978373976	39.40054686571693	2.15
C 	62.173806170035284	40.809349741583496	2.15
C 	63.48285184529096	41.35962187434547	2.15
C 	63.660825036952275	42.768424750212034	2.15
C 	64.96987071220795	43.31869688297402	2.15
C 	65.14784390386926	44.72749975884057	2.15
C 	66.45688957912493	45.27777189160257	2.15
C 	28.506291805928615	-0.022966829273349292	2.15
C 	29.81533748118429	0.5273053034886335	2.15
C 	29.993310672845602	1.9361081793551935	2.15
C 	31.30235634810127	2.486380312117181	2.15
C 	31.480329539762582	3.895183187983741	2.15
C 	32.789375215018254	4.445455320745723	2.15
C 	32.96734840667957	5.8542581966122835	2.15
C 	34.27639408193524	6.404530329374268	2.15
C 	34.454367273596546	7.813333205240828	2.15
C 	35.76341294885222	8.363605338002815	2.15
C 	35.94138614051353	9.772408213869374	2.15
C 	37.2504318157692	10.322680346631355	2.15
C 	37.42840500743051	11.731483222497914	2.15
C 	38.73745068268619	12.281755355259902	2.15
C 	38.9154238743475	13.690558231126461	2.15
C 	40.224469549603164	14.240830363888442	2.15
C 	40.40244274126447	15.649633239755001	2.15
C 	41.711488416520154	16.199905372516987	2.15
C 	41.88946160818146	17.608708248383547	2.15
C 	43.19850728343713	18.158980381145536	2.15
C 	43.37648047509845	19.567783257012096	2.15
C 	44.685526150354114	20.118055389774074	2.15
C 	44.86349934201543	21.526858265640634	2.15
C 	46.172545017271105	22.07713039840262	2.15
C 	46.350518208932414	23.485933274269183	2.15
C 	47.65956388418809	24.03620540703117	2.15
C 	47.8375370758494	25.445008282897728	2.15
C 	49.146582751105065	25.995280415659707	2.15
C 	49.32455594276638	27.404083291526266	2.15
C 	50.63360161802205	27.954355424288256	2.15
C 	50.811574809683364	29.363158300154815	2.15
C 	52.12062048493904	29.9134304329168	2.15
C 	52.29859367660035	31.32223330878336	2.15
C 	53.607639351856015	31.872505441545343	2.15
C 	53.785612543517324	33.2813083174119	2.15
C 	55.094658218773	33.83158045017389	2.15
C 	55.272631410434315	35.24038332604045	2.15
C 	56.58167708568998	35.79065545880243	2.15
C 	56.7596502773513	37.199458334668996	2.15
C 	58.068695952606966	37.74973046743097	2.15
C 	58.246669144268274	39.158533343297535	2.15
C 	59.555714819523956	39.70880547605952	2.15
C 	59.733688011185265	41.11760835192607	2.15
C 	61.04273368644094	41.66788048468807	2.15
C 	61.22070687810225	43.076683360554625	2.15
C 	62.529752553357916	43.62695549331661	2.15
C 	62.70772574501923	45.03575836918317	2.15
C 	64.01677142027489	45.586030501945146	2.15
C 	26.06617364707859	0.28529178106924086	2.15
C 	27.37521932233426	0.8355639138312236	2.15
C 	27.553192513995572	2.244366789697784	2.15
C 	28.86223818925124	2.7946389224597676	2.15
C 	29.040211380912552	4.2034417983263275	2.15
C 	30.349257056168227	4.753713931088313	2.15
C 	30.52723024782954	6.162516806954874	2.15
C 	31.836275923085207	6.712788939716858	2.15
C 	32.01424911474652	8.121591815583418	2.15
C 	33.323294790002194	8.6718639483454	2.15
C 	33.5012679816635	10.08066682421196	2.15
C 	34.81031365691917	10.630938956973948	2.15
C 	34.988286848580486	12.039741832840509	2.15
C 	36.297332523836154	12.590013965602488	2.15
C 	36.47530571549747	13.998816841469047	2.15
C 	37.78435139075314	14.549088974231035	2.15
C 	37.962324582414446	15.957891850097596	2.15
C 	39.27137025767013	16.508163982859575	2.15
C 	39.44934344933144	17.916966858726134	2.15
C 	40.7583891245871	18.46723899148812	2.15
C 	40.93636231624841	19.876041867354683	2.15
C 	42.24540799150409	20.42631400011667	2.15
C 	42.423381183165404	21.83511687598323	2.15
C 	43.73242685842107	22.385389008745207	2.15
C 	43.91040005008238	23.79419188461177	2.15
C 	45.219445725338055	24.344464017373756	2.15
C 	45.397418916999364	25.753266893240315	2.15
C 	46.70646459225504	26.3035390260023	2.15
C 	46.884437783916354	27.71234190186886	2.15
C 	48.19348345917202	28.262614034630843	2.15
C 	48.37145665083334	29.671416910497403	2.15
C 	49.680502326089	30.22168904325939	2.15
C 	49.85847551775031	31.630491919125948	2.15
C 	51.16752119300599	32.180764051887934	2.15
C 	51.3454943846673	33.5895669277545	2.15
C 	52.654540059922965	34.13983906051647	2.15
C 	52.83251325158428	35.548641936383035	2.15
C 	54.14155892683995	36.098914069145025	2.15
C 	54.319532118501265	37.50771694501158	2.15
C 	55.62857779375693	38.05798907777357	2.15
C 	55.80655098541825	39.46679195364013	2.15
C 	57.11559666067392	40.01706408640211	2.15
C 	57.29356985233523	41.42586696226867	2.15
C 	58.6026155275909	41.976139095030646	2.15
C 	58.780588719252215	43.38494197089721	2.15
C 	60.08963439450788	43.935214103659206	2.15
C 	60.2676075861692	45.34401697952576	2.15
C 	61.57665326142487	45.894289112287744	2.15
C 	23.626055488228555	0.5935503914118204	2.15
C 	24.935101163484227	1.1438225241738107	2.15
C 	25.11307435514554	2.5526254000403674	2.15
C 	26.422120030401214	3.1028975328023543	2.15
C 	26.600093222062526	4.5117004086689105	2.15
C 	27.909138897318197	5.061972541430897	2.15
C 	28.08711208897951	6.470775417297453	2.15
C 	29.396157764235177	7.0210475500594445	2.15
C 	29.57413095589649	8.429850425926	2.15
C 	30.883176631152164	8.980122558687988	2.15
C 	31.061149822813476	10.388925434554544	2.15
C 	32.370195498069144	10.939197567316532	2.15
C 	32.54816868973045	12.348000443183087	2.15
C 	33.85721436498613	12.898272575945077	2.15
C 	34.03518755664744	14.307075451811633	2.15
C 	35.34423323190311	14.857347584573619	2.15
C 	35.52220642356442	16.266150460440176	2.15
C 	36.831252098820094	16.816422593202166	2.15
C 	37.0092252904814	18.22522546906872	2.15
C 	38.31827096573707	18.775497601830704	2.15
C 	38.49624415739839	20.18430047769726	2.15
C 	39.80528983265406	20.734572610459253	2.15
C 	39.98326302431538	22.14337548632581	2.15
C 	41.29230869957104	22.6936476190878	2.15
C 	41.47028189123235	24.102450494954354	2.15
C 	42.77932756648803	24.652722627716336	2.15
C 	42.95730075814934	26.061525503582896	2.15
C 	44.26634643340501	26.611797636344885	2.15
C 	44.44431962506633	28.02060051221144	2.15
C 	45.75336530032199	28.570872644973427	2.15
C 	45.931338491983304	29.979675520839987	2.15
C 	47.24038416723898	30.52994765360197	2.15
C 	47.41835735890029	31.93875052946853	2.15
C 	48.72740303415596	32.489022662230525	2.15
C 	48.90537622581727	33.897825538097074	2.15
C 	50.21442190107294	34.44809767085906	2.15
C 	50.392395092734255	35.85690054672562	2.15
C 	51.70144076798992	36.4071726794876	2.15
C 	51.87941395965124	37.815975555354164	2.15
C 	53.18845963490691	38.366247688116154	2.15
C 	53.36643282656822	39.77505056398271	2.15
C 	54.67547850182389	40.32532269674469	2.15
C 	54.8534516934852	41.734125572611255	2.15
C 	56.16249736874087	42.28439770537324	2.15
C 	56.34047056040219	43.69320058123979	2.15
C 	57.64951623565786	44.243472714001776	2.15
C 	57.82748942731918	45.65227558986833	2.15
C 	59.13653510257484	46.20254772263033	2.15
C 	21.185937329378525	0.9018090017544088	2.15
C 	22.4949830046342	1.4520811345163938	2.15
C 	22.672956196295512	2.8608840103829523	2.15
C 	23.982001871551184	3.411156143144941	2.15
C 	24.159975063212496	4.819959019011499	2.15
C 	25.469020738468167	5.370231151773484	2.15
C 	25.64699393012948	6.779034027640042	2.15
C 	26.95603960538515	7.3293061604020275	2.15
C 	27.134012797046463	8.738109036268586	2.15
C 	28.443058472302134	9.288381169030574	2.15
C 	28.621031663963446	10.697184044897131	2.15
C 	29.930077339219114	11.247456177659117	2.15
C 	30.108050530880426	12.656259053525675	2.15
C 	31.4170962061361	13.20653118628766	2.15
C 	31.595069397797413	14.61533406215422	2.15
C 	32.90411507305308	15.165606194916208	2.15
C 	33.08208826471439	16.574409070782767	2.15
C 	34.39113393997007	17.124681203544746	2.15
C 	34.56910713163138	18.533484079411306	2.15
C 	35.878152806887044	19.083756212173295	2.15
C 	36.05612599854836	20.492559088039854	2.15
C 	37.36517167380403	21.042831220801833	2.15
C 	37.543144865465344	22.451634096668393	2.15
C 	38.85219054072101	23.001906229430382	2.15
C 	39.03016373238232	24.41070910529694	2.15
C 	40.339209407638	24.960981238058928	2.15
C 	40.51718259929931	26.369784113925487	2.15
C 	41.82622827455497	26.92005624668747	2.15
C 	42.00420146621629	28.32885912255403	2.15
C 	43.31324714147196	28.879131255316015	2.15
C 	43.49122033313328	30.287934131182574	2.15
C 	44.80026600838895	30.83820626394456	2.15
C 	44.97823920005026	32.24700913981112	2.15
C 	46.28728487530593	32.7972812725731	2.15
C 	46.46525806696724	34.206084148439665	2.15
C 	47.774303742222905	34.75635628120165	2.15
C 	47.95227693388422	36.16515915706821	2.15
C 	49.261322609139896	36.71543128983019	2.15
C 	49.43929580080121	38.124234165696755	2.15
C 	50.74834147605687	38.67450629845874	2.15
C 	50.92631466771818	40.083309174325294	2.15
C 	52.23536034297386	40.63358130708728	2.15
C 	52.41333353463517	42.04238418295384	2.15
C 	53.722379209890846	42.59265631571583	2.15
C 	53.900352401552155	44.00145919158239	2.15
C 	55.20939807680782	44.55173132434437	2.15
C 	55.38737126846914	45.96053420021093	2.15
C 	56.69641694372481	46.510806332972905	2.15
C 	17.258800303611515	-0.7490073965315479	2.15
C 	18.567845978867187	-0.19873526376956296	2.15
C 	18.7458191705285	1.2100676120969953	2.15
C 	20.05486484578417	1.7603397448589804	2.15
C 	20.232838037445482	3.169142620725539	2.15
C 	21.54188371270115	3.719414753487524	2.15
C 	21.719856904362462	5.128217629354082	2.15
C 	23.028902579618137	5.678489762116071	2.15
C 	23.20687577127945	7.087292637982629	2.15
C 	24.51592144653512	7.637564770744614	2.15
C 	24.693894638196433	9.046367646611172	2.15
C 	26.002940313452104	9.596639779373158	2.15
C 	26.180913505113416	11.005442655239715	2.15
C 	27.489959180369087	11.555714788001705	2.15
C 	27.6679323720304	12.96451766386826	2.15
C 	28.97697804728607	13.514789796630247	2.15
C 	29.154951238947383	14.923592672496808	2.15
C 	30.46399691420305	15.47386480525879	2.15
C 	30.641970105864363	16.882667681125348	2.15
C 	31.951015781120038	17.432939813887337	2.15
C 	32.12898897278135	18.841742689753893	2.15
C 	33.43803464803702	19.39201482251588	2.15
C 	33.61600783969833	20.800817698382435	2.15
C 	34.925053514954	21.351089831144424	2.15
C 	35.10302670661532	22.75989270701098	2.15
C 	36.412072381870985	23.310164839772966	2.15
C 	36.590045573532294	24.718967715639522	2.15
C 	37.89909124878797	25.26923984840151	2.15
C 	38.07706444044928	26.678042724268067	2.15
C 	39.386110115704945	27.228314857030057	2.15
C 	39.56408330736626	28.637117732896616	2.15
C 	40.873128982621935	29.187389865658602	2.15
C 	41.05110217428325	30.596192741525154	2.15
C 	42.36014784953892	31.14646487428714	2.15
C 	42.53812104120023	32.5552677501537	2.15
C 	43.8471667164559	33.10553988291569	2.15
C 	44.02513990811721	34.51434275878225	2.15
C 	45.334185583372886	35.06461489154423	2.15
C 	45.5121587750342	36.47341776741079	2.15
C 	46.82120445028986	37.023689900172776	2.15
C 	46.99917764195118	38.43249277603933	2.15
C 	48.30822331720685	38.98276490880133	2.15
C 	48.48619650886816	40.391567784667885	2.15
C 	49.795242184123836	40.94183991742987	2.15
C 	49.973215375785145	42.35064279329642	2.15
C 	51.28226105104081	42.900914926058405	2.15
C 	51.46023424270213	44.30971780192497	2.15
C 	52.769279917957796	44.859989934686965	2.15
C 	52.94725310961911	46.268792810553514	2.15
C 	54.25629878487479	46.8190649433155	2.15
C 	14.818682144761489	-0.44074878618896157	2.15
C 	16.12772782001716	0.10952334657302498	2.15
C 	16.305701011678472	1.5183262224395833	2.15
C 	17.61474668693414	2.0685983552015688	2.15
C 	17.792719878595452	3.4774012310681273	2.15
C 	19.101765553851127	4.027673363830112	2.15
C 	19.27973874551244	5.43647623969667	2.15
C 	20.588784420768107	5.986748372458655	2.15
C 	20.76675761242942	7.395551248325214	2.15
C 	22.07580328768509	7.9458233810872025	2.15
C 	22.253776479346403	9.354626256953761	2.15
C 	23.562822154602078	9.904898389715745	2.15
C 	23.74079534626339	11.313701265582303	2.15
C 	25.049841021519057	11.863973398344289	2.15
C 	25.22781421318037	13.272776274210848	2.15
C 	26.53685988843604	13.823048406972834	2.15
C 	26.714833080097353	15.231851282839393	2.15
C 	28.023878755353024	15.782123415601381	2.15
C 	28.201851947014337	17.19092629146794	2.15
C 	29.510897622270008	17.74119842422992	2.15
C 	29.68887081393132	19.15000130009648	2.15
C 	30.997916489186988	19.700273432858467	2.15
C 	31.1758896808483	21.10907630872503	2.15
C 	32.484935356103975	21.65934844148701	2.15
C 	32.66290854776529	23.068151317353568	2.15
C 	33.97195422302095	23.618423450115554	2.15
C 	34.14992741468227	25.027226325982113	2.15
C 	35.45897308993794	25.577498458744092	2.15
C 	35.63694628159925	26.986301334610655	2.15
C 	36.94599195685492	27.53657346737264	2.15
C 	37.123965148516234	28.9453763432392	2.15
C 	38.4330108237719	29.49564847600119	2.15
C 	38.61098401543322	30.90445135186775	2.15
C 	39.920029690688885	31.454723484629728	2.15
C 	40.098002882350194	32.86352636049629	2.15
C 	41.407048557605876	33.41379849325828	2.15
C 	41.585021749267185	34.82260136912483	2.15
C 	42.89406742452285	35.37287350188682	2.15
C 	43.07204061618417	36.78167637775338	2.15
C 	44.381086291439836	37.33194851051536	2.15
C 	44.55905948310115	38.74075138638192	2.15
C 	45.86810515835682	39.291023519143906	2.15
C 	46.04607835001813	40.69982639501047	2.15
C 	47.3551240252738	41.25009852777246	2.15
C 	47.53309721693511	42.658901403639014	2.15
C 	48.84214289219078	43.209173536400996	2.15
C 	49.020116083852095	44.61797641226755	2.15
C 	50.32916175910777	45.16824854502954	2.15
C 	12.378563985911457	-0.1324901758463747	2.15
C 	13.68760966116713	0.4177819569156118	2.15
C 	13.865582852828442	1.82658483278217	2.15
C 	15.174628528084114	2.3768569655441567	2.15
C 	15.352601719745426	3.785659841410715	2.15
C 	16.661647395001097	4.3359319741727	2.15
C 	16.83962058666241	5.744734850039259	2.15
C 	18.148666261918077	6.295006982801244	2.15
C 	18.32663945357939	7.703809858667802	2.15
C 	19.635685128835064	8.254081991429787	2.15
C 	19.813658320496376	9.662884867296345	2.15
C 	21.122703995752044	10.213157000058334	2.15
C 	21.300677187413356	11.621959875924892	2.15
C 	22.609722862669027	12.172232008686878	2.15
C 	22.78769605433034	13.581034884553434	2.15
C 	24.09674172958601	14.131307017315422	2.15
C 	24.274714921247323	15.540109893181981	2.15
C 	25.583760596502994	16.090382025943967	2.15
C 	25.761733788164307	17.499184901810526	2.15
C 	27.070779463419974	18.049457034572512	2.15
C 	27.248752655081287	19.458259910439068	2.15
C 	28.55779833033696	20.008532043201054	2.15
C 	28.735771521998274	21.417334919067613	2.15
C 	30.04481719725394	21.967607051829603	2.15
C 	30.222790388915254	23.376409927696162	2.15
C 	31.531836064170925	23.92668206045814	2.15
C 	31.709809255832237	25.3354849363247	2.15
C 	33.01885493108791	25.885757069086686	2.15
C 	33.196828122749224	27.29455994495325	2.15
C 	34.50587379800489	27.84483207771523	2.15
C 	34.6838469896662	29.253634953581788	2.15
C 	35.992892664921875	29.803907086343774	2.15
C 	36.170865856583184	31.212709962210333	2.15
C 	37.47991153183886	31.762982094972322	2.15
C 	37.65788472350017	33.171784970838885	2.15
C 	38.96693039875584	33.72205710360086	2.15
C 	39.14490359041715	35.130859979467424	2.15
C 	40.453949265672826	35.681132112229406	2.15
C 	40.63192245733414	37.08993498809597	2.15
C 	41.94096813258981	37.64020712085796	2.15
C 	42.118941324251125	39.049009996724514	2.15
C 	43.42798699950679	39.5992821294865	2.15
C 	43.6059601911681	41.00808500535305	2.15
C 	44.915005866423776	41.55835713811504	2.15
C 	45.092979058085085	42.967160013981605	2.15
C 	46.40202473334077	43.51743214674359	2.15
C 	46.579997925002075	44.92623502261015	2.15
C 	47.889043600257736	45.476507155372126	2.15
C 	9.938445827061429	0.1757684344962119	2.15
C 	11.2474915023171	0.7260405672581969	2.15
C 	11.425464693978412	2.134843443124755	2.15
C 	12.734510369234084	2.685115575886742	2.15
C 	12.912483560895396	4.0939184517533	2.15
C 	14.221529236151067	4.644190584515287	2.15
C 	14.39950242781238	6.052993460381845	2.15
C 	15.70854810306805	6.60326559314383	2.15
C 	15.886521294729363	8.012068469010389	2.15
C 	17.195566969985034	8.562340601772373	2.15
C 	17.373540161646346	9.971143477638932	2.15
C 	18.682585836902014	10.521415610400917	2.15
C 	18.860559028563326	11.930218486267476	2.15
C 	20.169604703819	12.480490619029464	2.15
C 	20.347577895480313	13.889293494896021	2.15
C 	21.65662357073598	14.439565627658007	2.15
C 	21.834596762397293	15.848368503524567	2.15
C 	23.143642437652964	16.39864063628655	2.15
C 	23.321615629314277	17.807443512153107	2.15
C 	24.630661304569948	18.357715644915096	2.15
C 	24.80863449623126	19.766518520781656	2.15
C 	26.11768017148693	20.31679065354364	2.15
C 	26.295653363148244	21.7255935294102	2.15
C 	27.60469903840391	22.275865662172183	2.15
C 	27.782672230065224	23.68466853803874	2.15
C 	29.0917179053209	24.234940670800732	2.15
C 	29.26969109698221	25.643743546667288	2.15
C 	30.57873677223788	26.19401567942927	2.15
C 	30.75670996389919	27.602818555295826	2.15
C 	32.06575563915486	28.15309068805782	2.15
C 	32.243728830816174	29.561893563924375	2.15
C 	33.55277450607185	30.11216569668636	2.15
C 	33.73074769773316	31.520968572552913	2.15
C 	35.039793372988825	32.0712407053149	2.15
C 	35.21776656465014	33.48004358118146	2.15
C 	36.52681223990581	34.03031571394345	2.15
C 	36.704785431567124	35.43911858981001	2.15
C 	38.01383110682279	35.989390722572	2.15
C 	38.19180429848411	37.398193598438546	2.15
C 	39.500849973739776	37.948465731200535	2.15
C 	39.67882316540109	39.35726860706709	2.15
C 	40.987868840656766	39.90754073982909	2.15
C 	41.165842032318075	41.316343615695644	2.15
C 	42.47488770757375	41.866615748457626	2.15
C 	42.65286089923506	43.27541862432418	2.15
C 	43.96190657449072	43.82569075708617	2.15
C 	44.139879766152035	45.23449363295273	2.15
C 	45.44892544140771	45.784765765714724	2.15
C 	7.498327668211401	0.4840270448387984	2.15
C 	8.80737334346707	1.0342991776007844	2.15
C 	8.985346535128382	2.4431020534673427	2.15
C 	10.294392210384053	2.9933741862293277	2.15
C 	10.472365402045366	4.402177062095886	2.15
C 	11.781411077301039	4.952449194857873	2.15
C 	11.959384268962351	6.361252070724431	2.15
C 	13.26842994421802	6.911524203486417	2.15
C 	13.446403135879333	8.320327079352976	2.15
C 	14.755448811135004	8.87059921211496	2.15
C 	14.933422002796316	10.27940208798152	2.15
C 	16.242467678051987	10.829674220743504	2.15
C 	16.4204408697133	12.238477096610064	2.15
C 	17.72948654496897	12.788749229372046	2.15
C 	17.907459736630283	14.197552105238607	2.15
C 	19.21650541188595	14.747824238000595	2.15
C 	19.394478603547263	16.156627113867152	2.15
C 	20.703524278802938	16.70689924662914	2.15
C 	20.88149747046425	18.115702122495698	2.15
C 	22.190543145719918	18.66597425525768	2.15
C 	22.36851633738123	20.07477713112424	2.15
C 	23.6775620126369	20.62504926388623	2.15
C 	23.855535204298214	22.03385213975279	2.15
C 	25.164580879553885	22.58412427251477	2.15
C 	25.342554071215197	23.99292714838133	2.15
C 	26.65159974647087	24.543199281143313	2.15
C 	26.82957293813218	25.952002157009876	2.15
C 	28.138618613387848	26.50227428977186	2.15
C 	28.31659180504916	27.91107716563842	2.15
C 	29.625637480304835	28.4613492984004	2.15
C 	29.803610671966148	29.870152174266963	2.15
C 	31.112656347221815	30.42042430702895	2.15
C 	31.290629538883127	31.829227182895508	2.15
C 	32.5996752141388	32.37949931565749	2.15
C 	32.77764840580011	33.788302191524046	2.15
C 	34.08669408105578	34.338574324286036	2.15
C 	34.2646672727171	35.74737720015259	2.15
C 	35.573712947972766	36.29764933291458	2.15
C 	35.751686139634074	37.706452208781144	2.15
C 	37.06073181488975	38.25672434154312	2.15
C 	37.23870500655106	39.66552721740968	2.15
C 	38.54775068180674	40.215799350171665	2.15
C 	38.72572387346805	41.62460222603823	2.15
C 	40.034769548723716	42.17487435880022	2.15
C 	40.212742740385025	43.58367723466677	2.15
C 	41.5217884156407	44.133949367428755	2.15
C 	41.699761607302015	45.54275224329531	2.15
C 	43.00880728255768	46.0930243760573	2.15
C 	5.058209509361371	0.7922856551813852	2.15
C 	6.367255184617042	1.342557787943371	2.15
C 	6.545228376278354	2.7513606638099293	2.15
C 	7.854274051534025	3.301632796571915	2.15
C 	8.032247243195338	4.710435672438473	2.15
C 	9.341292918451007	5.260707805200458	2.15
C 	9.51926611011232	6.669510681067017	2.15
C 	10.82831178536799	7.219782813829004	2.15
C 	11.006284977029303	8.628585689695562	2.15
C 	12.315330652284974	9.178857822457548	2.15
C 	12.493303843946286	10.587660698324107	2.15
C 	13.802349519201956	11.137932831086092	2.15
C 	13.980322710863268	12.546735706952651	2.15
C 	15.28936838611894	13.097007839714635	2.15
C 	15.467341577780251	14.505810715581195	2.15
C 	16.776387253035924	15.05608284834318	2.15
C 	16.954360444697237	16.464885724209736	2.15
C 	18.263406119952904	17.015157856971726	2.15
C 	18.441379311614217	18.423960732838285	2.15
C 	19.750424986869888	18.974232865600268	2.15
C 	19.9283981785312	20.383035741466827	2.15
C 	21.237443853786875	20.933307874228813	2.15
C 	21.415417045448187	22.342110750095372	2.15
C 	22.724462720703855	22.892382882857362	2.15
C 	22.902435912365167	24.301185758723918	2.15
C 	24.21148158762084	24.8514578914859	2.15
C 	24.38945477928215	26.26026076735246	2.15
C 	25.69850045453782	26.81053290011445	2.15
C 	25.876473646199134	28.219335775981005	2.15
C 	27.185519321454805	28.769607908742994	2.15
C 	27.363492513116118	30.178410784609554	2.15
C 	28.672538188371785	30.728682917371536	2.15
C 	28.850511380033097	32.13748579323809	2.15
C 	30.159557055288772	32.68775792600008	2.15
C 	30.337530246950084	34.09656080186664	2.15
C 	31.646575922205752	34.64683293462862	2.15
C 	31.824549113867064	36.055635810495176	2.15
C 	33.13359478912273	36.605907943257165	2.15
C 	33.31156798078405	38.01471081912373	2.15
C 	34.62061365603972	38.56498295188572	2.15
C 	34.79858684770103	39.973785827752266	2.15
C 	36.1076325229567	40.524057960514256	2.15
C 	36.285605714618015	41.932860836380804	2.15
C 	37.59465138987369	42.4831329691428	2.15
C 	37.772624581535	43.891935845009364	2.15
C 	39.08167025679068	44.442207977771346	2.15
C 	39.25964344845199	45.8510108536379	2.15
C 	40.56868912370765	46.40128298639989	2.15
C 	2.440118158850029	-0.3082586103425866	2.15
C 	2.6180913505113415	1.1005442655239717	2.15
C 	3.9271370257670126	1.6508163982859576	2.15
C 	4.105110217428325	3.059619274152516	2.15
C 	5.414155892683995	3.609891406914502	2.15
C 	5.5921290843453075	5.01869428278106	2.15
C 	6.901174759600978	5.568966415543046	2.15
C 	7.07914795126229	6.977769291409604	2.15
C 	8.388193626517962	7.52804142417159	2.15
C 	8.566166818179275	8.936844300038146	2.15
C 	9.875212493434944	9.487116432800134	2.15
C 	10.053185685096256	10.895919308666693	2.15
C 	11.362231360351927	11.446191441428681	2.15
C 	11.54020455201324	12.854994317295237	2.15
C 	12.84925022726891	13.405266450057225	2.15
C 	13.027223418930223	14.81406932592378	2.15
C 	14.336269094185893	15.364341458685768	2.15
C 	14.514242285847205	16.773144334552324	2.15
C 	15.823287961102876	17.32341646731431	2.15
C 	16.00126115276419	18.732219343180866	2.15
C 	17.31030682801986	19.28249147594286	2.15
C 	17.488280019681174	20.691294351809415	2.15
C 	18.797325694936845	21.2415664845714	2.15
C 	18.975298886598157	22.650369360437956	2.15
C 	20.284344561853825	23.200641493199946	2.15
C 	20.462317753515137	24.6094443690665	2.15
C 	21.77136342877081	25.15971650182849	2.15
C 	21.949336620432124	26.568519377695047	2.15
C 	23.25838229568779	27.118791510457033	2.15
C 	23.436355487349104	28.527594386323592	2.15
C 	24.745401162604775	29.07786651908558	2.15
C 	24.923374354266087	30.486669394952134	2.15
C 	26.23242002952176	31.03694152771412	2.15
C 	26.41039322118307	32.44574440358068	2.15
C 	27.719438896438742	32.99601653634266	2.15
C 	27.897412088100054	34.40481941220922	2.15
C 	29.206457763355722	34.95509154497121	2.15
C 	29.384430955017034	36.36389442083777	2.15
C 	30.69347663027271	36.91416655359975	2.15
C 	30.87144982193402	38.322969429466305	2.15
C 	32.18049549718969	38.873241562228294	2.15
C 	32.358468688851005	40.28204443809486	2.15
C 	33.66751436410667	40.83231657085684	2.15
C 	33.84548755576798	42.2411194467234	2.15
C 	35.154533231023656	42.79139157948538	2.15
C 	35.33250642268497	44.20019445535194	2.15
C 	36.64155209794064	44.75046658811393	2.15
C 	36.819525289601955	46.159269463980486	2.15
C 	38.12857096485762	46.709541596742476	2.15
C 	1.487018866916983	1.9590750086285442	2.15
C 	1.6649920585782954	3.3678778844951025	2.15
C 	2.974037733833966	3.9181500172570884	2.15
C 	3.1520109254952784	5.3269528931236465	2.15
C 	4.46105660075095	5.8772250258856324	2.15
C 	4.639029792412262	7.286027901752191	2.15
C 	5.948075467667932	7.836300034514177	2.15
C 	6.1260486593292445	9.245102910380735	2.15
C 	7.435094334584915	9.79537504314272	2.15
C 	7.613067526246227	11.204177919009279	2.15
C 	8.9221132015019	11.754450051771265	2.15
C 	9.100086393163211	13.163252927637824	2.15
C 	10.40913206841888	13.71352506039981	2.15
C 	10.587105260080193	15.122327936266368	2.15
C 	11.896150935335864	15.672600069028354	2.15
C 	12.074124126997177	17.081402944894915	2.15
C 	13.383169802252848	17.631675077656897	2.15
C 	13.56114299391416	19.040477953523453	2.15
C 	14.87018866916983	19.59075008628544	2.15
C 	15.048161860831142	20.999552962152002	2.15
C 	16.357207536086815	21.549825094913988	2.15
C 	16.535180727748127	22.958627970780547	2.15
C 	17.8442264030038	23.50890010354253	2.15
C 	18.02219959466511	24.917702979409086	2.15
C 	19.33124526992078	25.467975112171075	2.15
C 	19.509218461582094	26.876777988037635	2.15
C 	20.81826413683776	27.42705012079962	2.15
C 	20.996237328499074	28.83585299666618	2.15
C 	22.30528300375475	29.386125129428166	2.15
C 	22.48325619541606	30.79492800529472	2.15
C 	23.79230187067173	31.345200138056708	2.15
C 	23.97027506233304	32.75400301392327	2.15
C 	25.279320737588712	33.30427514668526	2.15
C 	25.457293929250024	34.71307802255181	2.15
C 	26.766339604505696	35.263350155313795	2.15
C 	26.944312796167008	36.67215303118036	2.15
C 	28.25335847142268	37.22242516394234	2.15
C 	28.43133166308399	38.6312280398089	2.15
C 	29.74037733833966	39.18150017257088	2.15
C 	29.91835053000097	40.59030304843744	2.15
C 	31.227396205256646	41.14057518119943	2.15
C 	31.40536939691796	42.54937805706599	2.15
C 	32.71441507217363	43.099650189827976	2.15
C 	32.89238826383494	44.50845306569453	2.15
C 	34.201433939090606	45.058725198456514	2.15
C 	9.456032776485836	15.98085867937094	2.15
C 	9.634005968147148	17.3896615552375	2.15
C 	10.943051643402818	17.939933687999485	2.15
C 	11.12102483506413	19.348736563866044	2.15
C 	12.430070510319801	19.899008696628027	2.15
C 	12.608043701981114	21.307811572494586	2.15
C 	13.917089377236785	21.858083705256572	2.15
C 	14.095062568898097	23.26688658112313	2.15
C 	15.404108244153766	23.817158713885117	2.15
C 	15.58208143581508	25.225961589751677	2.15
C 	16.89112711107075	25.77623372251366	2.15
C 	17.069100302732064	27.185036598380222	2.15
C 	18.378145977987735	27.735308731142204	2.15
C 	18.556119169649048	29.144111607008764	2.15
C 	19.86516484490472	29.69438373977075	2.15
C 	20.04313803656603	31.103186615637306	2.15
C 	21.3521837118217	31.653458748399295	2.15
C 	21.53015690348301	33.06226162426585	2.15
C 	22.839202578738686	33.61253375702784	2.15
C 	23.017175770399998	35.021336632894396	2.15
C 	24.326221445655666	35.571608765656386	2.15
C 	24.504194637316978	36.98041164152294	2.15
C 	25.81324031257265	37.53068377428493	2.15
C 	25.99121350423396	38.93948665015148	2.15
C 	27.300259179489633	39.489758782913476	2.15
C 	27.478232371150945	40.898561658780025	2.15
C 	28.787278046406616	41.448833791542015	2.15
C 	28.96525123806793	42.85763666740857	2.15
C 	30.274296913323596	43.40790880017056	2.15
C 	30.45227010498491	44.816711676037116	2.15
C 	31.761315780240583	45.366983808799105	2.15
C 	18.912065552971672	31.96171735874188	2.15
C 	19.090038744632984	33.37052023460844	2.15
C 	20.399084419888656	33.920792367370424	2.15
C 	20.577057611549968	35.32959524323698	2.15
C 	21.886103286805636	35.87986737599897	2.15
C 	22.064076478466948	37.288670251865526	2.15
C 	23.373122153722623	37.838942384627515	2.15
C 	23.551095345383935	39.24774526049408	2.15
C 	24.860141020639603	39.79801739325605	2.15
C 	25.038114212300915	41.206820269122616	2.15
C 	26.347159887556586	41.7570924018846	2.15
C 	26.5251330792179	43.16589527775116	2.15
C 	27.83417875447357	43.716167410513144	2.15
C 	28.012151946134882	45.1249702863797	2.15
C 	29.321197621390553	45.67524241914169	2.15
H 	51.817760877910786	-1.9196243381608609	2.15
H 	54.1316373883979	-0.9469602161660946	2.15
H 	55.61865625531489	1.0121147924624554	2.15
H 	57.10567512223187	2.9711898010910023	2.15
H 	58.592693989148856	4.930264809719546	2.15
H 	60.07971285606584	6.889339818348095	2.15
H 	60.394299272312246	9.379547718647434	2.15
H 	49.37764271906074	-1.61136572781828	2.15
H 	60.61363243104978	11.115748445947766	2.15
H 	62.10065129796676	13.074823454576304	2.15
H 	63.58767016488373	15.033898463204848	2.15
H 	65.07468903180072	16.9929734718334	2.15
H 	66.5617078987177	18.95204848046193	2.15
H 	68.04872676563468	20.911123489090468	2.15
H 	68.36331318188111	23.401331389389814	2.15
H 	46.93752456021071	-1.3031071174756934	2.15
H 	68.58264634061862	25.137532116690167	2.15
H 	70.06966520753562	27.096607125318712	2.15
H 	71.55668407445259	29.055682133947247	2.15
H 	73.04370294136959	31.014757142575817	2.15
H 	74.53072180828656	32.97383215120434	2.15
H 	76.01774067520354	34.93290715983287	2.15
H 	76.33232709144997	37.42311506013221	2.15
H 	44.497406401360685	-0.9948485071331067	2.15
H 	75.3792277995169	39.69044867910335	2.15
H 	42.057288242510644	-0.6865898967905188	2.15
H 	74.42612850758384	41.9577822980745	2.15
H 	39.617170083660625	-0.37833128644793346	2.15
H 	73.47302921565083	44.2251159170456	2.15
H 	35.6900330578936	-2.0291476847338883	2.15
H 	38.00390956838075	-1.0564835627391143	2.15
H 	71.47373912141009	45.74265969535017	2.15
H 	33.24991489904359	-1.7208890743913006	2.15
H 	69.03362096256006	46.05091830569277	2.15
H 	30.809796740193548	-1.41263046404872	2.15
H 	66.59350280371004	46.35917691603535	2.15
H 	28.36967858134352	-1.1043718537061298	2.15
H 	64.15338464485997	46.66743552637793	2.15
H 	25.9295604224935	-0.7961132433635403	2.15
H 	61.713266486009964	46.97569413672053	2.15
H 	23.48944226364346	-0.4878546330209602	2.15
H 	59.273148327159916	47.28395274706311	2.15
H 	21.049324104793424	-0.17959602267837116	2.15
H 	56.833030168309904	47.59221135740569	2.15
H 	17.12218707902642	-1.8304124209643282	2.15
H 	19.43606358951356	-0.857748298969552	2.15
H 	52.079035498972736	46.927805845753504	2.15
H 	54.392912009459884	47.900469967748286	2.15
H 	14.682068920176397	-1.5221538106217423	2.15
H 	50.46577498369286	46.249653569462325	2.15
H 	12.241950761326363	-1.2138952002791554	2.15
H 	48.02565682484281	46.55791217980491	2.15
H 	9.801832602476336	-0.9056365899365689	2.15
H 	45.5855386659928	46.86617079014751	2.15
H 	7.36171444362631	-0.5973779795939824	2.15
H 	43.14542050714278	47.174429400490084	2.15
H 	4.921596284776279	-0.2891193692513957	2.15
H 	40.705302348292726	47.482688010832675	2.15
H 	35.95130767895558	46.81828249918048	2.15
H 	38.265184189442714	47.79094662117526	2.15
H 	0.4821880316855176	1.5366830193957517	2.15
H 	0.7967744479319215	4.0268909196950915	2.15
H 	2.283793314848904	5.985965928323635	2.15
H 	3.770812181765888	7.9450409369521795	2.15
H 	5.2578310486828705	9.904115945580724	2.15
H 	6.744849915599853	11.863190954209268	2.15
H 	8.23186878251684	13.822265962837815	2.15
H 	34.33804716367568	46.1401302228893	2.15
H 	8.451201941254372	15.558466690138145	2.15
H 	8.765788357500776	18.04867459043749	2.15
H 	10.252807224417756	20.007749599066035	2.15
H 	11.73982609133474	21.966824607694576	2.15
H 	13.226844958251723	23.92589961632312	2.15
H 	14.71386382516871	25.88497462495167	2.15
H 	16.200882692085692	27.844049633580216	2.15
H 	17.687901559002675	29.803124642208754	2.15
H 	31.897929004825677	46.44838883323189	2.15
H 	17.90723471774021	31.539325369509083	2.15
H 	18.221821133986612	34.02953326980843	2.15
H 	19.708840000903592	35.98860827843697	2.15
H 	21.195858867820572	37.94768328706551	2.15
H 	22.68287773473757	39.90675829569408	2.15
H 	24.169896601654543	41.86583330432261	2.15
H 	25.656915468571526	43.82490831295115	2.15
H 	27.143934335488506	45.78398332157968	2.15
H 	29.457810845975647	46.75664744357447	2.15
