2358

C 	0.0	0.0	0.0
C 	1.2297560733739028	0.7099999999999999	0.0
C 	2.4595121467478056	-2.3647750424515833e-16	0.0
C 	3.689268220121708	0.7099999999999995	0.0
C 	4.919024293495611	-4.729550084903167e-16	0.0
C 	6.148780366869514	0.7099999999999993	0.0
C 	7.378536440243416	-7.09432512735475e-16	0.0
C 	8.60829251361732	0.7099999999999991	0.0
C 	9.838048586991222	-9.459100169806333e-16	0.0
C 	11.067804660365125	0.7099999999999989	0.0
C 	12.297560733739026	-1.1823875212257916e-15	0.0
C 	13.527316807112928	0.7099999999999986	0.0
C 	14.757072880486833	-1.41886502547095e-15	0.0
C 	15.986828953860735	0.7099999999999984	0.0
C 	17.21658502723464	-7.671641100159832e-16	0.0
C 	18.44634110060854	0.7099999999999982	0.0
C 	19.676097173982445	-1.8918200339612667e-15	0.0
C 	20.905853247356347	0.7099999999999989	0.0
C 	22.135609320730246	-2.128297538206425e-15	0.0
C 	23.36536539410415	0.7099999999999967	0.0
C 	24.59512146747805	-2.364775042451583e-15	0.0
C 	25.824877540851954	0.7099999999999983	0.0
C 	27.05463361422586	-8.248957072964913e-16	0.0
C 	28.284389687599763	0.7099999999999999	0.0
C 	29.514145760973665	-2.8377300509419e-15	0.0
C 	30.743901834347565	0.7099999999999961	0.0
C 	31.97365790772147	-3.0742075551870582e-15	0.0
C 	33.20341398109537	0.7099999999999976	0.0
C 	34.43317005446928	-1.5343282200319664e-15	0.0
C 	35.66292612784318	0.7099999999999992	0.0
C 	36.892682201217085	-1.7708057242771246e-15	0.0
C 	38.122438274590984	0.7099999999999972	0.0
C 	39.35219434796489	-3.783640067922533e-15	0.0
C 	40.58195042133879	0.7099999999999969	0.0
C 	41.811706494712695	-4.67403893367191e-16	0.0
C 	43.0414625680866	0.7100000000000002	0.0
C 	44.27121864146049	-4.25659507641285e-15	0.0
C 	45.5009747148344	0.7099999999999964	0.0
C 	46.730730788208305	-9.403589018575075e-16	0.0
C 	47.96048686158221	0.7099999999999997	0.0
C 	49.1902429349561	-4.729550084903166e-15	0.0
C 	50.41999900833001	0.709999999999996	0.0
C 	51.64975508170391	-1.413313910347824e-15	0.0
C 	52.879511155077815	0.7099999999999993	0.0
C 	54.10926722845172	-1.6497914145929826e-15	0.0
C 	55.33902330182562	0.7099999999999991	0.0
C 	56.56877937519952	-5.438982597638641e-15	0.0
C 	57.798535448573425	0.7099999999999953	0.0
C 	59.02829152194733	-5.6754601018838e-15	0.0
C 	60.25804759532124	0.709999999999995	0.0
C 	1.2297560733739028	2.1299999999999994	0.0
C 	2.4595121467478056	2.8399999999999994	0.0
C 	3.689268220121708	2.1299999999999994	0.0
C 	4.919024293495611	2.8399999999999994	0.0
C 	6.148780366869514	2.129999999999999	0.0
C 	7.378536440243416	2.839999999999999	0.0
C 	8.60829251361732	2.1299999999999986	0.0
C 	9.838048586991222	2.8399999999999985	0.0
C 	11.067804660365123	2.129999999999998	0.0
C 	12.297560733739028	2.839999999999999	0.0
C 	13.527316807112928	2.1299999999999977	0.0
C 	14.757072880486833	2.839999999999998	0.0
C 	15.986828953860735	2.129999999999998	0.0
C 	17.216585027234636	2.839999999999997	0.0
C 	18.446341100608542	2.129999999999998	0.0
C 	19.676097173982445	2.8399999999999985	0.0
C 	20.905853247356344	2.1299999999999977	0.0
C 	22.13560932073025	2.8399999999999985	0.0
C 	23.36536539410415	2.129999999999997	0.0
C 	24.595121467478055	2.839999999999997	0.0
C 	25.824877540851954	2.1299999999999963	0.0
C 	27.05463361422586	2.839999999999997	0.0
C 	28.284389687599763	2.129999999999998	0.0
C 	29.514145760973665	2.8399999999999985	0.0
C 	30.743901834347568	2.129999999999996	0.0
C 	31.97365790772147	2.8399999999999967	0.0
C 	33.20341398109537	2.129999999999996	0.0
C 	34.43317005446928	2.8399999999999963	0.0
C 	35.66292612784318	2.1299999999999972	0.0
C 	36.89268220121708	2.8399999999999963	0.0
C 	38.122438274590984	2.129999999999997	0.0
C 	39.35219434796489	2.8399999999999976	0.0
C 	40.58195042133879	2.1299999999999986	0.0
C 	41.81170649471269	2.839999999999996	0.0
C 	43.0414625680866	2.129999999999998	0.0
C 	44.2712186414605	2.8399999999999954	0.0
C 	45.5009747148344	2.129999999999998	0.0
C 	46.7307307882083	2.8399999999999954	0.0
C 	47.96048686158221	2.1299999999999977	0.0
C 	49.19024293495611	2.839999999999995	0.0
C 	50.41999900833001	2.1299999999999977	0.0
C 	51.64975508170391	2.8399999999999945	0.0
C 	52.879511155077815	2.1299999999999972	0.0
C 	54.10926722845171	2.8399999999999945	0.0
C 	55.33902330182563	2.130000000000001	0.0
C 	56.56877937519952	2.8399999999999976	0.0
C 	57.798535448573425	2.129999999999997	0.0
C 	59.028291521947324	2.839999999999994	0.0
C 	60.25804759532124	2.129999999999997	0.0
C 	61.487803668695136	2.8399999999999936	0.0
C 	2.4595121467478056	4.259999999999999	0.0
C 	3.689268220121708	4.969999999999999	0.0
C 	4.919024293495611	4.259999999999999	0.0
C 	6.148780366869514	4.969999999999999	0.0
C 	7.378536440243416	4.259999999999999	0.0
C 	8.60829251361732	4.969999999999999	0.0
C 	9.83804858699122	4.259999999999998	0.0
C 	11.067804660365125	4.969999999999999	0.0
C 	12.297560733739028	4.259999999999998	0.0
C 	13.52731680711293	4.969999999999998	0.0
C 	14.757072880486831	4.259999999999998	0.0
C 	15.986828953860735	4.969999999999998	0.0
C 	17.21658502723464	4.259999999999997	0.0
C 	18.446341100608542	4.969999999999998	0.0
C 	19.676097173982445	4.259999999999999	0.0
C 	20.905853247356347	4.969999999999997	0.0
C 	22.135609320730246	4.259999999999996	0.0
C 	23.365365394104153	4.969999999999997	0.0
C 	24.595121467478055	4.259999999999998	0.0
C 	25.824877540851958	4.969999999999997	0.0
C 	27.054633614225857	4.259999999999995	0.0
C 	28.28438968759976	4.969999999999996	0.0
C 	29.514145760973665	4.259999999999997	0.0
C 	30.743901834347568	4.969999999999997	0.0
C 	31.97365790772147	4.259999999999996	0.0
C 	33.20341398109537	4.969999999999995	0.0
C 	34.43317005446927	4.2599999999999945	0.0
C 	35.66292612784318	4.969999999999995	0.0
C 	36.892682201217085	4.259999999999996	0.0
C 	38.122438274590984	4.969999999999997	0.0
C 	39.35219434796489	4.259999999999997	0.0
C 	40.58195042133879	4.969999999999994	0.0
C 	41.81170649471269	4.259999999999995	0.0
C 	43.041462568086594	4.969999999999996	0.0
C 	44.2712186414605	4.259999999999997	0.0
C 	45.500974714834406	4.969999999999998	0.0
C 	46.7307307882083	4.259999999999994	0.0
C 	47.960486861582204	4.9699999999999935	0.0
C 	49.19024293495611	4.259999999999996	0.0
C 	50.41999900833001	4.969999999999997	0.0
C 	51.64975508170391	4.259999999999993	0.0
C 	52.879511155077815	4.9699999999999935	0.0
C 	54.10926722845171	4.259999999999996	0.0
C 	55.33902330182562	4.969999999999997	0.0
C 	56.568779375199526	4.259999999999996	0.0
C 	57.798535448573425	4.969999999999996	0.0
C 	59.028291521947324	4.259999999999995	0.0
C 	60.25804759532123	4.969999999999996	0.0
C 	61.487803668695136	4.259999999999992	0.0
C 	62.717559742069035	4.969999999999993	0.0
C 	3.6892682201217086	6.389999999999999	0.0
C 	4.919024293495611	7.099999999999999	0.0
C 	6.148780366869514	6.389999999999999	0.0
C 	7.378536440243416	7.099999999999999	0.0
C 	8.608292513617318	6.389999999999998	0.0
C 	9.838048586991222	7.099999999999999	0.0
C 	11.067804660365125	6.389999999999998	0.0
C 	12.297560733739028	7.099999999999998	0.0
C 	13.52731680711293	6.389999999999999	0.0
C 	14.757072880486833	7.099999999999998	0.0
C 	15.986828953860735	6.389999999999998	0.0
C 	17.216585027234636	7.099999999999997	0.0
C 	18.44634110060854	6.389999999999997	0.0
C 	19.676097173982445	7.099999999999998	0.0
C 	20.905853247356347	6.389999999999998	0.0
C 	22.13560932073025	7.099999999999997	0.0
C 	23.365365394104153	6.389999999999998	0.0
C 	24.59512146747805	7.099999999999997	0.0
C 	25.824877540851958	6.389999999999998	0.0
C 	27.054633614225857	7.099999999999997	0.0
C 	28.28438968759976	6.389999999999999	0.0
C 	29.514145760973662	7.099999999999997	0.0
C 	30.743901834347568	6.389999999999999	0.0
C 	31.97365790772147	7.099999999999998	0.0
C 	33.20341398109537	6.389999999999995	0.0
C 	34.43317005446928	7.099999999999994	0.0
C 	35.66292612784318	6.389999999999995	0.0
C 	36.892682201217085	7.099999999999996	0.0
C 	38.122438274590984	6.389999999999996	0.0
C 	39.35219434796489	7.099999999999997	0.0
C 	40.58195042133879	6.389999999999994	0.0
C 	41.811706494712695	7.099999999999995	0.0
C 	43.041462568086594	6.389999999999996	0.0
C 	44.2712186414605	7.099999999999997	0.0
C 	45.500974714834406	6.389999999999998	0.0
C 	46.730730788208305	7.099999999999998	0.0
C 	47.960486861582204	6.389999999999995	0.0
C 	49.19024293495611	7.099999999999996	0.0
C 	50.41999900833001	6.389999999999995	0.0
C 	51.649755081703915	7.099999999999996	0.0
C 	52.879511155077815	6.389999999999995	0.0
C 	54.10926722845172	7.099999999999996	0.0
C 	55.33902330182562	6.389999999999995	0.0
C 	56.568779375199526	7.099999999999995	0.0
C 	57.79853544857343	6.389999999999998	0.0
C 	59.02829152194733	7.099999999999999	0.0
C 	60.25804759532123	6.389999999999994	0.0
C 	61.487803668695136	7.099999999999995	0.0
C 	62.71755974206904	6.389999999999994	0.0
C 	63.94731581544294	7.099999999999995	0.0
C 	4.919024293495611	8.519999999999998	0.0
C 	6.148780366869514	9.229999999999999	0.0
C 	7.378536440243416	8.519999999999998	0.0
C 	8.60829251361732	9.229999999999999	0.0
C 	9.838048586991222	8.519999999999998	0.0
C 	11.067804660365125	9.229999999999999	0.0
C 	12.297560733739028	8.519999999999998	0.0
C 	13.52731680711293	9.229999999999997	0.0
C 	14.757072880486833	8.519999999999998	0.0
C 	15.986828953860737	9.229999999999999	0.0
C 	17.216585027234636	8.519999999999998	0.0
C 	18.44634110060854	9.229999999999997	0.0
C 	19.67609717398244	8.519999999999996	0.0
C 	20.905853247356347	9.229999999999997	0.0
C 	22.13560932073025	8.519999999999998	0.0
C 	23.365365394104153	9.229999999999999	0.0
C 	24.595121467478055	8.519999999999996	0.0
C 	25.824877540851954	9.229999999999995	0.0
C 	27.05463361422586	8.519999999999996	0.0
C 	28.284389687599763	9.229999999999997	0.0
C 	29.514145760973662	8.519999999999996	0.0
C 	30.743901834347565	9.229999999999995	0.0
C 	31.97365790772147	8.52	0.0
C 	33.20341398109537	9.229999999999997	0.0
C 	34.43317005446928	8.519999999999994	0.0
C 	35.66292612784318	9.229999999999995	0.0
C 	36.89268220121708	8.519999999999992	0.0
C 	38.122438274590984	9.229999999999993	0.0
C 	39.35219434796489	8.519999999999998	0.0
C 	40.58195042133879	9.229999999999995	0.0
C 	41.811706494712695	8.519999999999994	0.0
C 	43.0414625680866	9.229999999999995	0.0
C 	44.27121864146049	8.519999999999992	0.0
C 	45.5009747148344	9.229999999999993	0.0
C 	46.730730788208305	8.519999999999998	0.0
C 	47.960486861582204	9.229999999999995	0.0
C 	49.19024293495611	8.519999999999996	0.0
C 	50.41999900833001	9.229999999999993	0.0
C 	51.64975508170391	8.519999999999994	0.0
C 	52.879511155077815	9.229999999999995	0.0
C 	54.10926722845171	8.51999999999999	0.0
C 	55.33902330182562	9.229999999999992	0.0
C 	56.568779375199526	8.519999999999998	0.0
C 	57.798535448573425	9.229999999999995	0.0
C 	59.02829152194733	8.519999999999994	0.0
C 	60.25804759532123	9.229999999999993	0.0
C 	61.48780366869513	8.519999999999992	0.0
C 	62.717559742069035	9.229999999999993	0.0
C 	63.94731581544294	8.519999999999992	0.0
C 	65.17707188881684	9.22999999999999	0.0
C 	6.148780366869514	10.649999999999997	0.0
C 	7.378536440243416	11.359999999999998	0.0
C 	8.608292513617318	10.649999999999997	0.0
C 	9.838048586991222	11.359999999999998	0.0
C 	11.067804660365125	10.649999999999997	0.0
C 	12.297560733739028	11.359999999999996	0.0
C 	13.52731680711293	10.649999999999997	0.0
C 	14.757072880486831	11.359999999999996	0.0
C 	15.986828953860735	10.649999999999997	0.0
C 	17.216585027234636	11.359999999999996	0.0
C 	18.44634110060854	10.649999999999997	0.0
C 	19.676097173982445	11.359999999999998	0.0
C 	20.905853247356347	10.649999999999997	0.0
C 	22.13560932073025	11.359999999999996	0.0
C 	23.365365394104153	10.649999999999997	0.0
C 	24.595121467478055	11.359999999999996	0.0
C 	25.824877540851958	10.649999999999997	0.0
C 	27.05463361422586	11.359999999999996	0.0
C 	28.284389687599763	10.649999999999995	0.0
C 	29.514145760973662	11.359999999999994	0.0
C 	30.743901834347565	10.649999999999995	0.0
C 	31.97365790772147	11.359999999999996	0.0
C 	33.20341398109537	10.649999999999997	0.0
C 	34.43317005446928	11.359999999999998	0.0
C 	35.66292612784318	10.649999999999991	0.0
C 	36.89268220121708	11.359999999999992	0.0
C 	38.122438274590984	10.649999999999993	0.0
C 	39.35219434796489	11.359999999999994	0.0
C 	40.58195042133879	10.649999999999993	0.0
C 	41.811706494712695	11.359999999999994	0.0
C 	43.041462568086594	10.649999999999991	0.0
C 	44.2712186414605	11.359999999999992	0.0
C 	45.5009747148344	10.649999999999993	0.0
C 	46.730730788208305	11.359999999999994	0.0
C 	47.960486861582204	10.649999999999995	0.0
C 	49.19024293495611	11.359999999999996	0.0
C 	50.41999900833001	10.649999999999993	0.0
C 	51.649755081703915	11.359999999999994	0.0
C 	52.879511155077815	10.649999999999995	0.0
C 	54.10926722845172	11.359999999999996	0.0
C 	55.33902330182562	10.649999999999993	0.0
C 	56.568779375199526	11.359999999999994	0.0
C 	57.798535448573425	10.649999999999993	0.0
C 	59.02829152194733	11.359999999999992	0.0
C 	60.25804759532124	10.649999999999995	0.0
C 	61.487803668695136	11.359999999999996	0.0
C 	62.717559742069035	10.649999999999991	0.0
C 	63.94731581544294	11.359999999999992	0.0
C 	65.17707188881684	10.649999999999991	0.0
C 	66.40682796219075	11.359999999999992	0.0
C 	7.378536440243417	12.779999999999998	0.0
C 	8.60829251361732	13.489999999999998	0.0
C 	9.838048586991222	12.78	0.0
C 	11.067804660365125	13.489999999999997	0.0
C 	12.297560733739028	12.779999999999998	0.0
C 	13.527316807112932	13.489999999999998	0.0
C 	14.757072880486833	12.779999999999998	0.0
C 	15.986828953860737	13.489999999999997	0.0
C 	17.216585027234636	12.779999999999996	0.0
C 	18.446341100608542	13.489999999999997	0.0
C 	19.676097173982445	12.779999999999998	0.0
C 	20.905853247356347	13.489999999999997	0.0
C 	22.13560932073025	12.779999999999996	0.0
C 	23.36536539410415	13.489999999999995	0.0
C 	24.595121467478055	12.779999999999996	0.0
C 	25.824877540851958	13.489999999999997	0.0
C 	27.05463361422586	12.779999999999998	0.0
C 	28.284389687599763	13.489999999999997	0.0
C 	29.514145760973662	12.779999999999996	0.0
C 	30.743901834347568	13.489999999999997	0.0
C 	31.97365790772147	12.779999999999996	0.0
C 	33.20341398109537	13.489999999999997	0.0
C 	34.43317005446928	12.779999999999998	0.0
C 	35.66292612784318	13.489999999999995	0.0
C 	36.89268220121708	12.779999999999994	0.0
C 	38.122438274590984	13.489999999999995	0.0
C 	39.35219434796489	12.779999999999996	0.0
C 	40.581950421338796	13.489999999999997	0.0
C 	41.811706494712695	12.779999999999996	0.0
C 	43.041462568086594	13.489999999999993	0.0
C 	44.2712186414605	12.779999999999994	0.0
C 	45.5009747148344	13.489999999999995	0.0
C 	46.730730788208305	12.779999999999996	0.0
C 	47.96048686158221	13.489999999999997	0.0
C 	49.19024293495611	12.779999999999998	0.0
C 	50.41999900833001	13.489999999999995	0.0
C 	51.649755081703915	12.779999999999996	0.0
C 	52.879511155077815	13.489999999999993	0.0
C 	54.10926722845172	12.779999999999998	0.0
C 	55.33902330182563	13.489999999999998	0.0
C 	56.56877937519952	12.779999999999998	0.0
C 	57.798535448573425	13.489999999999997	0.0
C 	59.02829152194733	12.779999999999994	0.0
C 	60.25804759532123	13.489999999999991	0.0
C 	61.487803668695136	12.779999999999998	0.0
C 	62.71755974206904	13.489999999999998	0.0
C 	63.94731581544294	12.779999999999994	0.0
C 	65.17707188881684	13.489999999999995	0.0
C 	66.40682796219075	12.77999999999999	0.0
C 	67.63658403556465	13.489999999999988	0.0
C 	8.60829251361732	14.909999999999998	0.0
C 	9.838048586991222	15.619999999999996	0.0
C 	11.067804660365125	14.909999999999997	0.0
C 	12.297560733739026	15.619999999999996	0.0
C 	13.527316807112934	14.909999999999998	0.0
C 	14.757072880486831	15.619999999999996	0.0
C 	15.986828953860737	14.909999999999998	0.0
C 	17.21658502723464	15.619999999999997	0.0
C 	18.446341100608542	14.909999999999997	0.0
C 	19.676097173982445	15.619999999999996	0.0
C 	20.905853247356347	14.909999999999997	0.0
C 	22.135609320730246	15.619999999999996	0.0
C 	23.365365394104153	14.909999999999995	0.0
C 	24.595121467478055	15.619999999999996	0.0
C 	25.824877540851958	14.909999999999997	0.0
C 	27.05463361422586	15.619999999999996	0.0
C 	28.284389687599763	14.909999999999997	0.0
C 	29.514145760973665	15.619999999999996	0.0
C 	30.743901834347568	14.909999999999997	0.0
C 	31.973657907721474	15.619999999999997	0.0
C 	33.203413981095366	14.909999999999993	0.0
C 	34.43317005446927	15.619999999999994	0.0
C 	35.662926127843185	14.909999999999998	0.0
C 	36.892682201217085	15.619999999999996	0.0
C 	38.122438274590984	14.909999999999995	0.0
C 	39.35219434796489	15.619999999999996	0.0
C 	40.58195042133879	14.909999999999993	0.0
C 	41.811706494712695	15.619999999999994	0.0
C 	43.0414625680866	14.909999999999998	0.0
C 	44.2712186414605	15.619999999999996	0.0
C 	45.5009747148344	14.909999999999995	0.0
C 	46.730730788208305	15.619999999999996	0.0
C 	47.960486861582204	14.909999999999993	0.0
C 	49.19024293495611	15.619999999999994	0.0
C 	50.41999900833002	14.909999999999998	0.0
C 	51.649755081703915	15.619999999999996	0.0
C 	52.87951115507782	14.909999999999997	0.0
C 	54.10926722845171	15.619999999999994	0.0
C 	55.33902330182562	14.909999999999995	0.0
C 	56.568779375199526	15.619999999999994	0.0
C 	57.798535448573425	14.909999999999991	0.0
C 	59.028291521947324	15.619999999999992	0.0
C 	60.25804759532124	14.909999999999998	0.0
C 	61.487803668695136	15.619999999999996	0.0
C 	62.717559742069035	14.909999999999993	0.0
C 	63.94731581544294	15.619999999999994	0.0
C 	65.17707188881684	14.909999999999993	0.0
C 	66.40682796219075	15.619999999999994	0.0
C 	67.63658403556465	14.909999999999997	0.0
C 	68.86634010893854	15.61999999999999	0.0
C 	9.838048586991222	17.039999999999996	0.0
C 	11.067804660365127	17.749999999999996	0.0
C 	12.297560733739028	17.039999999999996	0.0
C 	13.527316807112932	17.749999999999996	0.0
C 	14.757072880486833	17.039999999999996	0.0
C 	15.986828953860735	17.749999999999996	0.0
C 	17.21658502723464	17.039999999999996	0.0
C 	18.446341100608546	17.749999999999996	0.0
C 	19.676097173982445	17.039999999999996	0.0
C 	20.905853247356347	17.749999999999996	0.0
C 	22.13560932073025	17.039999999999996	0.0
C 	23.365365394104153	17.749999999999996	0.0
C 	24.595121467478055	17.039999999999996	0.0
C 	25.82487754085196	17.749999999999996	0.0
C 	27.05463361422586	17.039999999999996	0.0
C 	28.28438968759977	17.75	0.0
C 	29.514145760973665	17.039999999999996	0.0
C 	30.74390183434757	17.749999999999996	0.0
C 	31.973657907721467	17.039999999999992	0.0
C 	33.20341398109537	17.749999999999993	0.0
C 	34.43317005446927	17.039999999999996	0.0
C 	35.66292612784318	17.749999999999996	0.0
C 	36.892682201217085	17.039999999999996	0.0
C 	38.122438274590984	17.749999999999996	0.0
C 	39.35219434796488	17.039999999999992	0.0
C 	40.58195042133879	17.749999999999993	0.0
C 	41.811706494712695	17.039999999999992	0.0
C 	43.041462568086594	17.749999999999993	0.0
C 	44.2712186414605	17.039999999999996	0.0
C 	45.500974714834406	17.749999999999996	0.0
C 	46.7307307882083	17.039999999999992	0.0
C 	47.960486861582204	17.749999999999993	0.0
C 	49.19024293495611	17.039999999999992	0.0
C 	50.41999900833002	17.749999999999993	0.0
C 	51.649755081703915	17.039999999999996	0.0
C 	52.87951115507782	17.749999999999996	0.0
C 	54.10926722845172	17.039999999999992	0.0
C 	55.33902330182562	17.749999999999993	0.0
C 	56.568779375199526	17.039999999999996	0.0
C 	57.79853544857343	17.749999999999996	0.0
C 	59.028291521947324	17.039999999999992	0.0
C 	60.25804759532123	17.749999999999993	0.0
C 	61.487803668695136	17.039999999999996	0.0
C 	62.71755974206904	17.749999999999996	0.0
C 	63.94731581544294	17.04	0.0
C 	65.17707188881684	17.749999999999993	0.0
C 	66.40682796219075	17.039999999999996	0.0
C 	67.63658403556464	17.74999999999999	0.0
C 	68.86634010893856	17.03999999999999	0.0
C 	70.09609618231246	17.74999999999999	0.0
C 	11.067804660365125	19.169999999999995	0.0
C 	12.297560733739026	19.879999999999995	0.0
C 	13.52731680711293	19.169999999999995	0.0
C 	14.757072880486831	19.879999999999995	0.0
C 	15.986828953860737	19.169999999999998	0.0
C 	17.216585027234636	19.879999999999992	0.0
C 	18.446341100608542	19.169999999999995	0.0
C 	19.676097173982445	19.879999999999995	0.0
C 	20.905853247356347	19.169999999999995	0.0
C 	22.135609320730246	19.879999999999995	0.0
C 	23.365365394104153	19.169999999999995	0.0
C 	24.59512146747805	19.879999999999995	0.0
C 	25.824877540851958	19.169999999999995	0.0
C 	27.05463361422586	19.879999999999995	0.0
C 	28.284389687599763	19.169999999999995	0.0
C 	29.51414576097367	19.879999999999995	0.0
C 	30.743901834347565	19.16999999999999	0.0
C 	31.97365790772147	19.879999999999992	0.0
C 	33.20341398109537	19.169999999999995	0.0
C 	34.43317005446927	19.879999999999992	0.0
C 	35.66292612784318	19.169999999999995	0.0
C 	36.89268220121708	19.879999999999992	0.0
C 	38.122438274590984	19.169999999999995	0.0
C 	39.35219434796488	19.879999999999992	0.0
C 	40.58195042133879	19.16999999999999	0.0
C 	41.81170649471269	19.87999999999999	0.0
C 	43.0414625680866	19.169999999999995	0.0
C 	44.27121864146049	19.879999999999992	0.0
C 	45.5009747148344	19.16999999999999	0.0
C 	46.730730788208305	19.879999999999992	0.0
C 	47.960486861582204	19.169999999999995	0.0
C 	49.1902429349561	19.879999999999992	0.0
C 	50.41999900833002	19.169999999999995	0.0
C 	51.649755081703915	19.879999999999992	0.0
C 	52.879511155077815	19.16999999999999	0.0
C 	54.10926722845172	19.879999999999992	0.0
C 	55.33902330182562	19.16999999999999	0.0
C 	56.56877937519952	19.879999999999992	0.0
C 	57.79853544857343	19.169999999999995	0.0
C 	59.02829152194733	19.879999999999992	0.0
C 	60.25804759532123	19.169999999999995	0.0
C 	61.48780366869513	19.879999999999992	0.0
C 	62.717559742069035	19.16999999999999	0.0
C 	63.94731581544294	19.879999999999992	0.0
C 	65.17707188881684	19.169999999999995	0.0
C 	66.40682796219075	19.87999999999999	0.0
C 	67.63658403556465	19.169999999999995	0.0
C 	68.86634010893854	19.87999999999999	0.0
C 	70.09609618231245	19.16999999999999	0.0
C 	71.32585225568636	19.879999999999992	0.0
C 	12.297560733739028	21.299999999999994	0.0
C 	13.527316807112932	22.009999999999994	0.0
C 	14.757072880486831	21.299999999999994	0.0
C 	15.986828953860735	22.009999999999994	0.0
C 	17.216585027234636	21.299999999999994	0.0
C 	18.44634110060854	22.009999999999994	0.0
C 	19.676097173982445	21.299999999999994	0.0
C 	20.905853247356347	22.009999999999994	0.0
C 	22.13560932073025	21.299999999999994	0.0
C 	23.365365394104153	22.009999999999994	0.0
C 	24.595121467478055	21.299999999999994	0.0
C 	25.824877540851958	22.009999999999994	0.0
C 	27.05463361422586	21.299999999999994	0.0
C 	28.284389687599766	22.009999999999994	0.0
C 	29.514145760973662	21.29999999999999	0.0
C 	30.743901834347568	22.00999999999999	0.0
C 	31.97365790772147	21.299999999999994	0.0
C 	33.20341398109537	22.009999999999994	0.0
C 	34.43317005446928	21.299999999999994	0.0
C 	35.662926127843185	22.009999999999994	0.0
C 	36.89268220121708	21.299999999999994	0.0
C 	38.122438274590984	22.009999999999994	0.0
C 	39.35219434796489	21.299999999999994	0.0
C 	40.58195042133879	22.009999999999994	0.0
C 	41.811706494712695	21.299999999999994	0.0
C 	43.0414625680866	22.009999999999994	0.0
C 	44.2712186414605	21.29999999999999	0.0
C 	45.5009747148344	22.00999999999999	0.0
C 	46.730730788208305	21.299999999999994	0.0
C 	47.96048686158221	22.009999999999994	0.0
C 	49.19024293495611	21.299999999999994	0.0
C 	50.41999900833002	22.009999999999994	0.0
C 	51.649755081703915	21.299999999999994	0.0
C 	52.879511155077815	22.00999999999999	0.0
C 	54.10926722845172	21.299999999999994	0.0
C 	55.33902330182563	22.009999999999994	0.0
C 	56.568779375199526	21.29999999999999	0.0
C 	57.798535448573425	22.00999999999999	0.0
C 	59.02829152194733	21.299999999999994	0.0
C 	60.25804759532124	22.009999999999994	0.0
C 	61.48780366869513	21.29999999999999	0.0
C 	62.717559742069035	22.00999999999999	0.0
C 	63.94731581544294	21.299999999999994	0.0
C 	65.17707188881684	22.009999999999987	0.0
C 	66.40682796219075	21.299999999999994	0.0
C 	67.63658403556465	22.009999999999994	0.0
C 	68.86634010893854	21.29999999999999	0.0
C 	70.09609618231245	22.00999999999999	0.0
C 	71.32585225568636	21.299999999999983	0.0
C 	72.55560832906026	22.00999999999999	0.0
C 	13.527316807112932	23.429999999999996	0.0
C 	14.757072880486836	24.139999999999997	0.0
C 	15.986828953860737	23.429999999999996	0.0
C 	17.216585027234643	24.139999999999997	0.0
C 	18.446341100608542	23.429999999999996	0.0
C 	19.676097173982445	24.139999999999997	0.0
C 	20.90585324735635	23.429999999999996	0.0
C 	22.135609320730254	24.139999999999997	0.0
C 	23.365365394104156	23.429999999999993	0.0
C 	24.595121467478062	24.139999999999997	0.0
C 	25.824877540851958	23.429999999999993	0.0
C 	27.054633614225864	24.139999999999993	0.0
C 	28.284389687599766	23.429999999999996	0.0
C 	29.514145760973673	24.139999999999997	0.0
C 	30.743901834347575	23.429999999999996	0.0
C 	31.973657907721478	24.139999999999997	0.0
C 	33.20341398109537	23.429999999999993	0.0
C 	34.43317005446928	24.139999999999993	0.0
C 	35.66292612784318	23.429999999999993	0.0
C 	36.892682201217085	24.139999999999993	0.0
C 	38.122438274590984	23.429999999999993	0.0
C 	39.35219434796489	24.139999999999993	0.0
C 	40.58195042133879	23.429999999999996	0.0
C 	41.811706494712695	24.139999999999993	0.0
C 	43.041462568086594	23.42999999999999	0.0
C 	44.2712186414605	24.13999999999999	0.0
C 	45.5009747148344	23.429999999999993	0.0
C 	46.730730788208305	24.139999999999993	0.0
C 	47.96048686158221	23.429999999999993	0.0
C 	49.19024293495611	24.139999999999993	0.0
C 	50.41999900833001	23.429999999999993	0.0
C 	51.649755081703915	24.13999999999999	0.0
C 	52.87951115507782	23.429999999999993	0.0
C 	54.10926722845172	24.139999999999993	0.0
C 	55.33902330182563	23.429999999999993	0.0
C 	56.56877937519953	24.139999999999993	0.0
C 	57.798535448573425	23.429999999999993	0.0
C 	59.02829152194733	24.139999999999993	0.0
C 	60.25804759532124	23.429999999999993	0.0
C 	61.487803668695136	24.13999999999999	0.0
C 	62.71755974206904	23.429999999999993	0.0
C 	63.947315815442934	24.139999999999986	0.0
C 	65.17707188881684	23.429999999999993	0.0
C 	66.40682796219075	24.139999999999993	0.0
C 	67.63658403556464	23.42999999999999	0.0
C 	68.86634010893856	24.139999999999997	0.0
C 	70.09609618231245	23.42999999999999	0.0
C 	71.32585225568636	24.139999999999997	0.0
C 	72.55560832906026	23.42999999999999	0.0
C 	73.78536440243417	24.13999999999999	0.0
C 	14.757072880486835	25.559999999999995	0.0
C 	15.986828953860735	26.269999999999996	0.0
C 	17.21658502723464	25.559999999999995	0.0
C 	18.44634110060854	26.269999999999996	0.0
C 	19.676097173982445	25.56	0.0
C 	20.905853247356344	26.269999999999996	0.0
C 	22.13560932073025	25.56	0.0
C 	23.365365394104153	26.269999999999996	0.0
C 	24.595121467478055	25.559999999999995	0.0
C 	25.824877540851958	26.269999999999996	0.0
C 	27.054633614225857	25.559999999999995	0.0
C 	28.28438968759976	26.269999999999996	0.0
C 	29.514145760973665	25.559999999999995	0.0
C 	30.743901834347568	26.269999999999996	0.0
C 	31.973657907721474	25.559999999999995	0.0
C 	33.20341398109538	26.269999999999996	0.0
C 	34.43317005446927	25.55999999999999	0.0
C 	35.66292612784318	26.269999999999992	0.0
C 	36.892682201217085	25.559999999999995	0.0
C 	38.12243827459098	26.269999999999992	0.0
C 	39.35219434796489	25.559999999999995	0.0
C 	40.58195042133879	26.269999999999992	0.0
C 	41.81170649471269	25.55999999999999	0.0
C 	43.041462568086594	26.269999999999992	0.0
C 	44.2712186414605	25.55999999999999	0.0
C 	45.5009747148344	26.26999999999999	0.0
C 	46.730730788208305	25.559999999999995	0.0
C 	47.960486861582204	26.269999999999992	0.0
C 	49.19024293495611	25.55999999999999	0.0
C 	50.41999900833001	26.269999999999992	0.0
C 	51.649755081703915	25.559999999999995	0.0
C 	52.879511155077815	26.269999999999992	0.0
C 	54.10926722845172	25.559999999999995	0.0
C 	55.33902330182562	26.269999999999992	0.0
C 	56.568779375199526	25.55999999999999	0.0
C 	57.79853544857343	26.269999999999992	0.0
C 	59.028291521947324	25.55999999999999	0.0
C 	60.25804759532123	26.269999999999992	0.0
C 	61.487803668695136	25.559999999999995	0.0
C 	62.717559742069035	26.26999999999999	0.0
C 	63.94731581544294	25.55999999999999	0.0
C 	65.17707188881683	26.269999999999985	0.0
C 	66.40682796219075	25.55999999999999	0.0
C 	67.63658403556465	26.269999999999992	0.0
C 	68.86634010893856	25.559999999999995	0.0
C 	70.09609618231246	26.269999999999996	0.0
C 	71.32585225568636	25.559999999999995	0.0
C 	72.55560832906026	26.269999999999996	0.0
C 	73.78536440243415	25.559999999999988	0.0
C 	75.01512047580806	26.26999999999999	0.0
C 	15.986828953860735	27.689999999999994	0.0
C 	17.21658502723464	28.399999999999995	0.0
C 	18.446341100608542	27.689999999999994	0.0
C 	19.676097173982445	28.399999999999995	0.0
C 	20.905853247356344	27.689999999999994	0.0
C 	22.13560932073025	28.399999999999995	0.0
C 	23.365365394104153	27.689999999999994	0.0
C 	24.59512146747806	28.399999999999995	0.0
C 	25.824877540851954	27.689999999999994	0.0
C 	27.054633614225857	28.399999999999995	0.0
C 	28.284389687599763	27.689999999999994	0.0
C 	29.514145760973665	28.399999999999995	0.0
C 	30.74390183434757	27.689999999999994	0.0
C 	31.973657907721474	28.399999999999995	0.0
C 	33.20341398109537	27.68999999999999	0.0
C 	34.43317005446928	28.39999999999999	0.0
C 	35.66292612784318	27.689999999999994	0.0
C 	36.892682201217085	28.399999999999995	0.0
C 	38.122438274590984	27.689999999999994	0.0
C 	39.35219434796489	28.399999999999995	0.0
C 	40.58195042133879	27.689999999999994	0.0
C 	41.811706494712695	28.399999999999995	0.0
C 	43.041462568086594	27.689999999999994	0.0
C 	44.2712186414605	28.399999999999995	0.0
C 	45.500974714834406	27.689999999999994	0.0
C 	46.730730788208305	28.399999999999995	0.0
C 	47.960486861582204	27.68999999999999	0.0
C 	49.19024293495611	28.39999999999999	0.0
C 	50.41999900833002	27.689999999999994	0.0
C 	51.649755081703915	28.399999999999995	0.0
C 	52.87951115507782	27.689999999999994	0.0
C 	54.10926722845173	28.399999999999995	0.0
C 	55.33902330182562	27.68999999999999	0.0
C 	56.568779375199526	28.39999999999999	0.0
C 	57.79853544857343	27.689999999999994	0.0
C 	59.02829152194733	28.39999999999999	0.0
C 	60.25804759532124	27.689999999999994	0.0
C 	61.48780366869513	28.399999999999988	0.0
C 	62.717559742069035	27.689999999999994	0.0
C 	63.94731581544294	28.399999999999995	0.0
C 	65.17707188881684	27.68999999999999	0.0
C 	66.40682796219075	28.39999999999999	0.0
C 	67.63658403556464	27.689999999999987	0.0
C 	68.86634010893856	28.399999999999995	0.0
C 	70.09609618231245	27.689999999999994	0.0
C 	71.32585225568636	28.399999999999995	0.0
C 	72.55560832906026	27.68999999999999	0.0
C 	73.78536440243415	28.39999999999999	0.0
C 	75.01512047580808	27.689999999999994	0.0
C 	76.24487654918197	28.399999999999984	0.0
C 	17.21658502723464	29.819999999999997	0.0
C 	18.446341100608546	30.529999999999998	0.0
C 	19.676097173982445	29.819999999999997	0.0
C 	20.905853247356355	30.529999999999998	0.0
C 	22.13560932073025	29.819999999999993	0.0
C 	23.365365394104156	30.529999999999994	0.0
C 	24.59512146747806	29.819999999999997	0.0
C 	25.82487754085196	30.529999999999998	0.0
C 	27.054633614225867	29.819999999999997	0.0
C 	28.28438968759977	30.529999999999998	0.0
C 	29.514145760973665	29.819999999999997	0.0
C 	30.74390183434757	30.529999999999998	0.0
C 	31.973657907721474	29.819999999999997	0.0
C 	33.20341398109538	30.529999999999998	0.0
C 	34.43317005446928	29.819999999999997	0.0
C 	35.662926127843185	30.529999999999998	0.0
C 	36.892682201217085	29.819999999999993	0.0
C 	38.12243827459099	30.529999999999994	0.0
C 	39.35219434796488	29.819999999999993	0.0
C 	40.58195042133879	30.529999999999994	0.0
C 	41.811706494712695	29.819999999999993	0.0
C 	43.0414625680866	30.529999999999994	0.0
C 	44.2712186414605	29.819999999999993	0.0
C 	45.500974714834406	30.529999999999994	0.0
C 	46.730730788208305	29.81999999999999	0.0
C 	47.960486861582204	30.52999999999999	0.0
C 	49.19024293495611	29.819999999999993	0.0
C 	50.41999900833002	30.529999999999994	0.0
C 	51.649755081703915	29.819999999999993	0.0
C 	52.87951115507782	30.529999999999994	0.0
C 	54.10926722845172	29.819999999999993	0.0
C 	55.33902330182563	30.52999999999999	0.0
C 	56.568779375199526	29.819999999999993	0.0
C 	57.798535448573425	30.52999999999999	0.0
C 	59.02829152194734	29.819999999999993	0.0
C 	60.25804759532124	30.529999999999994	0.0
C 	61.487803668695136	29.819999999999993	0.0
C 	62.71755974206904	30.529999999999994	0.0
C 	63.947315815442934	29.81999999999999	0.0
C 	65.17707188881685	30.529999999999998	0.0
C 	66.40682796219073	29.819999999999986	0.0
C 	67.63658403556465	30.529999999999994	0.0
C 	68.86634010893856	29.819999999999993	0.0
C 	70.09609618231245	30.529999999999994	0.0
C 	71.32585225568637	29.819999999999997	0.0
C 	72.55560832906026	30.52999999999999	0.0
C 	73.78536440243417	29.819999999999997	0.0
C 	75.01512047580806	30.529999999999987	0.0
C 	76.24487654918197	29.81999999999999	0.0
C 	77.47463262255587	30.52999999999999	0.0
C 	18.446341100608542	31.949999999999996	0.0
C 	19.676097173982445	32.65999999999999	0.0
C 	20.905853247356347	31.949999999999992	0.0
C 	22.135609320730254	32.66	0.0
C 	23.365365394104156	31.949999999999996	0.0
C 	24.595121467478055	32.65999999999999	0.0
C 	25.824877540851958	31.949999999999992	0.0
C 	27.05463361422586	32.66	0.0
C 	28.284389687599766	31.949999999999996	0.0
C 	29.51414576097367	32.66	0.0
C 	30.743901834347568	31.949999999999992	0.0
C 	31.97365790772147	32.66	0.0
C 	33.20341398109537	31.949999999999992	0.0
C 	34.43317005446928	32.66	0.0
C 	35.66292612784318	31.949999999999996	0.0
C 	36.892682201217085	32.66	0.0
C 	38.122438274590984	31.949999999999992	0.0
C 	39.35219434796489	32.65999999999999	0.0
C 	40.58195042133879	31.949999999999992	0.0
C 	41.81170649471269	32.65999999999999	0.0
C 	43.0414625680866	31.949999999999996	0.0
C 	44.2712186414605	32.65999999999999	0.0
C 	45.5009747148344	31.949999999999992	0.0
C 	46.730730788208305	32.65999999999999	0.0
C 	47.96048686158221	31.949999999999992	0.0
C 	49.1902429349561	32.65999999999999	0.0
C 	50.41999900833002	31.949999999999992	0.0
C 	51.649755081703915	32.65999999999999	0.0
C 	52.879511155077815	31.949999999999992	0.0
C 	54.10926722845172	32.65999999999999	0.0
C 	55.33902330182563	31.949999999999992	0.0
C 	56.568779375199526	32.65999999999999	0.0
C 	57.79853544857343	31.949999999999992	0.0
C 	59.028291521947324	32.65999999999999	0.0
C 	60.25804759532124	31.949999999999992	0.0
C 	61.487803668695136	32.65999999999999	0.0
C 	62.717559742069035	31.94999999999999	0.0
C 	63.94731581544294	32.65999999999999	0.0
C 	65.17707188881685	31.949999999999992	0.0
C 	66.40682796219076	32.66	0.0
C 	67.63658403556465	31.949999999999992	0.0
C 	68.86634010893856	32.65999999999999	0.0
C 	70.09609618231245	31.94999999999999	0.0
C 	71.32585225568636	32.65999999999999	0.0
C 	72.55560832906026	31.949999999999996	0.0
C 	73.78536440243415	32.65999999999999	0.0
C 	75.01512047580806	31.949999999999992	0.0
C 	76.24487654918195	32.65999999999998	0.0
C 	77.47463262255587	31.949999999999985	0.0
C 	78.70438869592978	32.65999999999999	0.0
C 	19.676097173982445	34.07999999999999	0.0
C 	20.90585324735635	34.78999999999999	0.0
C 	22.135609320730254	34.07999999999999	0.0
C 	23.365365394104156	34.78999999999999	0.0
C 	24.595121467478055	34.07999999999999	0.0
C 	25.824877540851958	34.78999999999999	0.0
C 	27.054633614225864	34.07999999999999	0.0
C 	28.284389687599766	34.78999999999999	0.0
C 	29.514145760973665	34.07999999999999	0.0
C 	30.743901834347568	34.78999999999999	0.0
C 	31.97365790772147	34.07999999999999	0.0
C 	33.20341398109537	34.78999999999999	0.0
C 	34.43317005446928	34.07999999999999	0.0
C 	35.662926127843185	34.78999999999999	0.0
C 	36.89268220121708	34.07999999999999	0.0
C 	38.122438274590984	34.78999999999999	0.0
C 	39.35219434796489	34.07999999999999	0.0
C 	40.581950421338796	34.78999999999999	0.0
C 	41.811706494712695	34.07999999999999	0.0
C 	43.0414625680866	34.78999999999999	0.0
C 	44.2712186414605	34.07999999999999	0.0
C 	45.5009747148344	34.78999999999999	0.0
C 	46.730730788208305	34.07999999999999	0.0
C 	47.96048686158221	34.78999999999999	0.0
C 	49.19024293495611	34.07999999999999	0.0
C 	50.41999900833002	34.78999999999999	0.0
C 	51.649755081703915	34.07999999999999	0.0
C 	52.87951115507782	34.78999999999999	0.0
C 	54.10926722845172	34.07999999999999	0.0
C 	55.33902330182562	34.78999999999999	0.0
C 	56.56877937519953	34.07999999999999	0.0
C 	57.79853544857343	34.78999999999999	0.0
C 	59.02829152194733	34.07999999999999	0.0
C 	60.25804759532124	34.78999999999999	0.0
C 	61.487803668695136	34.07999999999999	0.0
C 	62.71755974206905	34.79	0.0
C 	63.947315815442934	34.079999999999984	0.0
C 	65.17707188881685	34.78999999999999	0.0
C 	66.40682796219075	34.07999999999999	0.0
C 	67.63658403556465	34.78999999999999	0.0
C 	68.86634010893854	34.07999999999999	0.0
C 	70.09609618231245	34.78999999999999	0.0
C 	71.32585225568636	34.07999999999999	0.0
C 	72.55560832906025	34.789999999999985	0.0
C 	73.78536440243417	34.07999999999999	0.0
C 	75.01512047580808	34.78999999999999	0.0
C 	76.24487654918197	34.07999999999999	0.0
C 	77.47463262255587	34.78999999999999	0.0
C 	78.70438869592977	34.079999999999984	0.0
C 	79.93414476930369	34.78999999999999	0.0
C 	20.90585324735635	36.209999999999994	0.0
C 	22.135609320730254	36.919999999999995	0.0
C 	23.36536539410416	36.209999999999994	0.0
C 	24.595121467478062	36.919999999999995	0.0
C 	25.82487754085196	36.209999999999994	0.0
C 	27.054633614225864	36.919999999999995	0.0
C 	28.284389687599766	36.209999999999994	0.0
C 	29.514145760973673	36.919999999999995	0.0
C 	30.743901834347575	36.209999999999994	0.0
C 	31.973657907721478	36.919999999999995	0.0
C 	33.20341398109537	36.209999999999994	0.0
C 	34.43317005446928	36.919999999999995	0.0
C 	35.662926127843185	36.209999999999994	0.0
C 	36.89268220121709	36.919999999999995	0.0
C 	38.12243827459099	36.209999999999994	0.0
C 	39.3521943479649	36.919999999999995	0.0
C 	40.581950421338796	36.209999999999994	0.0
C 	41.811706494712695	36.919999999999995	0.0
C 	43.041462568086594	36.209999999999994	0.0
C 	44.2712186414605	36.919999999999995	0.0
C 	45.500974714834406	36.209999999999994	0.0
C 	46.730730788208305	36.919999999999995	0.0
C 	47.96048686158221	36.209999999999994	0.0
C 	49.19024293495612	36.919999999999995	0.0
C 	50.41999900833002	36.20999999999999	0.0
C 	51.649755081703915	36.91999999999999	0.0
C 	52.87951115507782	36.209999999999994	0.0
C 	54.10926722845172	36.91999999999999	0.0
C 	55.33902330182563	36.209999999999994	0.0
C 	56.56877937519953	36.919999999999995	0.0
C 	57.79853544857343	36.20999999999999	0.0
C 	59.02829152194733	36.91999999999999	0.0
C 	60.25804759532123	36.20999999999999	0.0
C 	61.48780366869515	36.919999999999995	0.0
C 	62.71755974206904	36.209999999999994	0.0
C 	63.94731581544295	36.919999999999995	0.0
C 	65.17707188881684	36.209999999999994	0.0
C 	66.40682796219075	36.919999999999995	0.0
C 	67.63658403556467	36.209999999999994	0.0
C 	68.86634010893856	36.91999999999999	0.0
C 	70.09609618231246	36.209999999999994	0.0
C 	71.32585225568636	36.91999999999999	0.0
C 	72.55560832906026	36.209999999999994	0.0
C 	73.78536440243417	36.919999999999995	0.0
C 	75.01512047580806	36.20999999999999	0.0
C 	76.24487654918198	36.919999999999995	0.0
C 	77.47463262255586	36.20999999999999	0.0
C 	78.70438869592978	36.919999999999995	0.0
C 	79.93414476930369	36.20999999999999	0.0
C 	81.16390084267759	36.91999999999999	0.0
C 	22.13560932073025	38.33999999999999	0.0
C 	23.365365394104153	39.04999999999999	0.0
C 	24.59512146747806	38.33999999999999	0.0
C 	25.82487754085196	39.04999999999999	0.0
C 	27.05463361422586	38.33999999999999	0.0
C 	28.284389687599763	39.04999999999999	0.0
C 	29.514145760973665	38.33999999999999	0.0
C 	30.74390183434757	39.04999999999999	0.0
C 	31.973657907721474	38.339999999999996	0.0
C 	33.20341398109538	39.04999999999999	0.0
C 	34.43317005446927	38.33999999999999	0.0
C 	35.66292612784318	39.04999999999999	0.0
C 	36.892682201217085	38.33999999999999	0.0
C 	38.12243827459099	39.04999999999999	0.0
C 	39.35219434796489	38.33999999999999	0.0
C 	40.581950421338796	39.04999999999999	0.0
C 	41.811706494712695	38.33999999999999	0.0
C 	43.0414625680866	39.04999999999999	0.0
C 	44.27121864146049	38.33999999999999	0.0
C 	45.5009747148344	39.04999999999999	0.0
C 	46.730730788208305	38.33999999999999	0.0
C 	47.960486861582204	39.04999999999999	0.0
C 	49.19024293495611	38.33999999999999	0.0
C 	50.41999900833002	39.04999999999999	0.0
C 	51.649755081703915	38.33999999999999	0.0
C 	52.879511155077815	39.04999999999999	0.0
C 	54.10926722845173	38.33999999999999	0.0
C 	55.33902330182562	39.04999999999998	0.0
C 	56.568779375199526	38.33999999999999	0.0
C 	57.79853544857343	39.04999999999999	0.0
C 	59.02829152194733	38.33999999999999	0.0
C 	60.25804759532123	39.04999999999999	0.0
C 	61.48780366869513	38.33999999999998	0.0
C 	62.71755974206905	39.04999999999999	0.0
C 	63.94731581544294	38.33999999999999	0.0
C 	65.17707188881685	39.04999999999999	0.0
C 	66.40682796219075	38.33999999999999	0.0
C 	67.63658403556465	39.04999999999999	0.0
C 	68.86634010893856	38.33999999999999	0.0
C 	70.09609618231245	39.04999999999998	0.0
C 	71.32585225568636	38.33999999999999	0.0
C 	72.55560832906025	39.04999999999998	0.0
C 	73.78536440243415	38.33999999999999	0.0
C 	75.01512047580806	39.04999999999999	0.0
C 	76.24487654918197	38.33999999999999	0.0
C 	77.47463262255587	39.05	0.0
C 	78.70438869592977	38.33999999999998	0.0
C 	79.93414476930369	39.04999999999999	0.0
C 	81.16390084267758	38.33999999999998	0.0
C 	82.39365691605148	39.04999999999998	0.0
C 	23.365365394104156	40.46999999999999	0.0
C 	24.59512146747806	41.17999999999999	0.0
C 	25.82487754085196	40.46999999999999	0.0
C 	27.054633614225867	41.17999999999999	0.0
C 	28.284389687599763	40.46999999999999	0.0
C 	29.51414576097367	41.17999999999999	0.0
C 	30.74390183434757	40.46999999999999	0.0
C 	31.973657907721474	41.17999999999999	0.0
C 	33.20341398109537	40.46999999999999	0.0
C 	34.43317005446928	41.17999999999999	0.0
C 	35.66292612784318	40.46999999999999	0.0
C 	36.892682201217085	41.17999999999999	0.0
C 	38.12243827459099	40.46999999999999	0.0
C 	39.3521943479649	41.17999999999999	0.0
C 	40.58195042133879	40.46999999999999	0.0
C 	41.811706494712695	41.17999999999999	0.0
C 	43.0414625680866	40.46999999999999	0.0
C 	44.2712186414605	41.17999999999999	0.0
C 	45.500974714834406	40.46999999999999	0.0
C 	46.73073078820831	41.17999999999999	0.0
C 	47.960486861582204	40.46999999999999	0.0
C 	49.19024293495611	41.17999999999999	0.0
C 	50.41999900833002	40.46999999999999	0.0
C 	51.649755081703915	41.179999999999986	0.0
C 	52.87951115507782	40.46999999999999	0.0
C 	54.10926722845173	41.17999999999999	0.0
C 	55.33902330182563	40.46999999999999	0.0
C 	56.568779375199526	41.17999999999999	0.0
C 	57.798535448573425	40.469999999999985	0.0
C 	59.028291521947345	41.17999999999999	0.0
C 	60.25804759532124	40.46999999999999	0.0
C 	61.48780366869514	41.17999999999999	0.0
C 	62.71755974206904	40.46999999999999	0.0
C 	63.94731581544295	41.17999999999999	0.0
C 	65.17707188881685	40.46999999999999	0.0
C 	66.40682796219075	41.179999999999986	0.0
C 	67.63658403556465	40.46999999999999	0.0
C 	68.86634010893854	41.179999999999986	0.0
C 	70.09609618231246	40.46999999999999	0.0
C 	71.32585225568636	41.17999999999999	0.0
C 	72.55560832906026	40.469999999999985	0.0
C 	73.78536440243417	41.179999999999986	0.0
C 	75.01512047580806	40.469999999999985	0.0
C 	76.24487654918198	41.17999999999999	0.0
C 	77.47463262255587	40.46999999999999	0.0
C 	78.70438869592978	41.17999999999999	0.0
C 	79.93414476930367	40.469999999999985	0.0
C 	81.16390084267758	41.179999999999986	0.0
C 	82.3936569160515	40.46999999999999	0.0
C 	83.62341298942539	41.179999999999986	0.0
C 	24.595121467478055	42.59999999999999	0.0
C 	25.82487754085196	43.30999999999999	0.0
C 	27.05463361422586	42.59999999999999	0.0
C 	28.284389687599766	43.30999999999999	0.0
C 	29.514145760973662	42.59999999999999	0.0
C 	30.743901834347568	43.30999999999999	0.0
C 	31.97365790772147	42.59999999999999	0.0
C 	33.20341398109537	43.30999999999999	0.0
C 	34.43317005446927	42.59999999999999	0.0
C 	35.66292612784318	43.30999999999999	0.0
C 	36.89268220121708	42.59999999999999	0.0
C 	38.122438274590984	43.30999999999999	0.0
C 	39.35219434796489	42.59999999999999	0.0
C 	40.581950421338796	43.30999999999999	0.0
C 	41.81170649471269	42.59999999999999	0.0
C 	43.041462568086594	43.30999999999999	0.0
C 	44.2712186414605	42.59999999999999	0.0
C 	45.5009747148344	43.30999999999999	0.0
C 	46.730730788208305	42.59999999999999	0.0
C 	47.96048686158221	43.30999999999999	0.0
C 	49.19024293495611	42.59999999999999	0.0
C 	50.41999900833001	43.30999999999999	0.0
C 	51.64975508170392	42.599999999999994	0.0
C 	52.879511155077815	43.30999999999999	0.0
C 	54.10926722845172	42.59999999999999	0.0
C 	55.33902330182563	43.30999999999999	0.0
C 	56.568779375199526	42.59999999999999	0.0
C 	57.798535448573425	43.30999999999999	0.0
C 	59.028291521947324	42.59999999999998	0.0
C 	60.258047595321244	43.30999999999999	0.0
C 	61.487803668695136	42.59999999999999	0.0
C 	62.71755974206904	43.30999999999999	0.0
C 	63.94731581544294	42.59999999999999	0.0
C 	65.17707188881684	43.30999999999999	0.0
C 	66.40682796219076	42.599999999999994	0.0
C 	67.63658403556465	43.30999999999999	0.0
C 	68.86634010893856	42.59999999999999	0.0
C 	70.09609618231245	43.30999999999998	0.0
C 	71.32585225568636	42.59999999999999	0.0
C 	72.55560832906026	43.30999999999999	0.0
C 	73.78536440243415	42.59999999999999	0.0
C 	75.01512047580806	43.30999999999999	0.0
C 	76.24487654918197	42.59999999999998	0.0
C 	77.47463262255587	43.30999999999999	0.0
C 	78.70438869592978	42.59999999999999	0.0
C 	79.93414476930367	43.30999999999999	0.0
C 	81.16390084267758	42.59999999999999	0.0
C 	82.39365691605148	43.30999999999999	0.0
C 	83.62341298942539	42.59999999999999	0.0
C 	84.85316906279928	43.30999999999998	0.0
C 	25.82487754085196	44.72999999999999	0.0
C 	27.054633614225864	45.43999999999999	0.0
C 	28.284389687599766	44.72999999999999	0.0
C 	29.514145760973673	45.43999999999999	0.0
C 	30.743901834347568	44.72999999999999	0.0
C 	31.97365790772147	45.43999999999999	0.0
C 	33.20341398109537	44.72999999999999	0.0
C 	34.43317005446928	45.43999999999999	0.0
C 	35.662926127843185	44.72999999999999	0.0
C 	36.892682201217085	45.43999999999999	0.0
C 	38.122438274590984	44.72999999999999	0.0
C 	39.35219434796489	45.43999999999999	0.0
C 	40.581950421338796	44.72999999999999	0.0
C 	41.811706494712695	45.43999999999999	0.0
C 	43.0414625680866	44.72999999999999	0.0
C 	44.27121864146051	45.43999999999999	0.0
C 	45.500974714834406	44.72999999999999	0.0
C 	46.730730788208305	45.43999999999999	0.0
C 	47.960486861582204	44.72999999999999	0.0
C 	49.19024293495611	45.43999999999998	0.0
C 	50.41999900833002	44.72999999999999	0.0
C 	51.64975508170391	45.43999999999998	0.0
C 	52.87951115507782	44.72999999999999	0.0
C 	54.10926722845172	45.43999999999999	0.0
C 	55.33902330182562	44.72999999999998	0.0
C 	56.568779375199526	45.43999999999998	0.0
C 	57.798535448573425	44.72999999999998	0.0
C 	59.02829152194734	45.43999999999999	0.0
C 	60.25804759532124	44.72999999999999	0.0
C 	61.48780366869514	45.43999999999999	0.0
C 	62.717559742069035	44.72999999999998	0.0
C 	63.94731581544294	45.43999999999998	0.0
C 	65.17707188881685	44.72999999999999	0.0
C 	66.40682796219075	45.43999999999998	0.0
C 	67.63658403556465	44.72999999999999	0.0
C 	68.86634010893856	45.43999999999999	0.0
C 	70.09609618231245	44.72999999999999	0.0
C 	71.32585225568636	45.43999999999998	0.0
C 	72.55560832906026	44.72999999999998	0.0
C 	73.78536440243417	45.43999999999999	0.0
C 	75.01512047580806	44.72999999999998	0.0
C 	76.24487654918198	45.43999999999999	0.0
C 	77.47463262255587	44.72999999999999	0.0
C 	78.70438869592978	45.43999999999999	0.0
C 	79.93414476930369	44.72999999999999	0.0
C 	81.16390084267758	45.43999999999998	0.0
C 	82.39365691605148	44.72999999999999	0.0
C 	83.62341298942538	45.43999999999998	0.0
C 	84.8531690627993	44.72999999999998	0.0
C 	86.08292513617319	45.43999999999998	0.0
C 	27.054633614225864	46.85999999999999	0.0
C 	28.28438968759977	47.56999999999999	0.0
C 	29.514145760973673	46.85999999999999	0.0
C 	30.74390183434758	47.56999999999999	0.0
C 	31.973657907721474	46.85999999999999	0.0
C 	33.20341398109538	47.56999999999999	0.0
C 	34.43317005446928	46.85999999999999	0.0
C 	35.662926127843185	47.56999999999999	0.0
C 	36.892682201217085	46.85999999999999	0.0
C 	38.122438274590984	47.56999999999999	0.0
C 	39.35219434796489	46.85999999999999	0.0
C 	40.581950421338796	47.56999999999999	0.0
C 	41.8117064947127	46.85999999999999	0.0
C 	43.0414625680866	47.56999999999999	0.0
C 	44.2712186414605	46.85999999999999	0.0
C 	45.500974714834406	47.56999999999999	0.0
C 	46.73073078820831	46.859999999999985	0.0
C 	47.960486861582204	47.569999999999986	0.0
C 	49.19024293495612	46.85999999999999	0.0
C 	50.41999900833002	47.56999999999999	0.0
C 	51.649755081703915	46.859999999999985	0.0
C 	52.87951115507782	47.569999999999986	0.0
C 	54.10926722845172	46.859999999999985	0.0
C 	55.339023301825634	47.56999999999999	0.0
C 	56.56877937519953	46.85999999999999	0.0
C 	57.79853544857344	47.56999999999999	0.0
C 	59.02829152194733	46.859999999999985	0.0
C 	60.25804759532124	47.569999999999986	0.0
C 	61.48780366869515	46.85999999999999	0.0
C 	62.71755974206904	47.569999999999986	0.0
C 	63.94731581544295	46.85999999999999	0.0
C 	65.17707188881685	47.56999999999999	0.0
C 	66.40682796219075	46.859999999999985	0.0
C 	67.63658403556465	47.569999999999986	0.0
C 	68.86634010893856	46.859999999999985	0.0
C 	70.09609618231246	47.56999999999999	0.0
C 	71.32585225568636	46.859999999999985	0.0
C 	72.55560832906028	47.56999999999999	0.0
C 	73.78536440243417	46.859999999999985	0.0
C 	75.01512047580808	47.569999999999986	0.0
C 	76.24487654918197	46.859999999999985	0.0
C 	77.47463262255587	47.569999999999986	0.0
C 	78.70438869592978	46.85999999999999	0.0
C 	79.93414476930367	47.569999999999986	0.0
C 	81.16390084267758	46.85999999999999	0.0
C 	82.39365691605148	47.56999999999999	0.0
C 	83.62341298942539	46.859999999999985	0.0
C 	84.8531690627993	47.569999999999986	0.0
C 	86.08292513617319	46.85999999999998	0.0
C 	87.31268120954711	47.569999999999986	0.0
C 	28.284389687599763	48.98999999999999	0.0
C 	29.51414576097367	49.69999999999999	0.0
C 	30.74390183434757	48.98999999999999	0.0
C 	31.973657907721478	49.69999999999999	0.0
C 	33.20341398109537	48.98999999999999	0.0
C 	34.43317005446928	49.69999999999999	0.0
C 	35.66292612784318	48.98999999999999	0.0
C 	36.892682201217085	49.69999999999999	0.0
C 	38.122438274590984	48.98999999999999	0.0
C 	39.35219434796488	49.69999999999999	0.0
C 	40.58195042133879	48.98999999999999	0.0
C 	41.811706494712695	49.69999999999999	0.0
C 	43.041462568086594	48.98999999999999	0.0
C 	44.2712186414605	49.69999999999999	0.0
C 	45.5009747148344	48.98999999999999	0.0
C 	46.730730788208305	49.69999999999998	0.0
C 	47.96048686158221	48.98999999999999	0.0
C 	49.1902429349561	49.69999999999998	0.0
C 	50.41999900833002	48.98999999999999	0.0
C 	51.64975508170392	49.69999999999999	0.0
C 	52.879511155077815	48.98999999999999	0.0
C 	54.10926722845172	49.69999999999999	0.0
C 	55.33902330182562	48.98999999999998	0.0
C 	56.56877937519953	49.69999999999999	0.0
C 	57.79853544857343	48.98999999999999	0.0
C 	59.02829152194734	49.69999999999999	0.0
C 	60.25804759532124	48.98999999999999	0.0
C 	61.487803668695136	49.69999999999999	0.0
C 	62.71755974206905	48.98999999999999	0.0
C 	63.94731581544294	49.69999999999998	0.0
C 	65.17707188881685	48.98999999999999	0.0
C 	66.40682796219075	49.69999999999999	0.0
C 	67.63658403556465	48.98999999999999	0.0
C 	68.86634010893856	49.69999999999999	0.0
C 	70.09609618231245	48.98999999999998	0.0
C 	71.32585225568637	49.69999999999999	0.0
C 	72.55560832906025	48.98999999999998	0.0
C 	73.78536440243417	49.69999999999999	0.0
C 	75.01512047580806	48.98999999999999	0.0
C 	76.24487654918197	49.69999999999999	0.0
C 	77.47463262255587	48.98999999999998	0.0
C 	78.70438869592978	49.69999999999998	0.0
C 	79.93414476930369	48.98999999999999	0.0
C 	81.16390084267758	49.69999999999998	0.0
C 	82.39365691605148	48.98999999999999	0.0
C 	83.62341298942539	49.69999999999999	0.0
C 	84.85316906279928	48.98999999999998	0.0
C 	86.08292513617319	49.69999999999998	0.0
C 	87.3126812095471	48.98999999999998	0.0
C 	88.542437282921	49.69999999999999	0.0
C 	29.51414576097367	51.11999999999999	0.0
C 	30.74390183434757	51.82999999999999	0.0
C 	31.973657907721474	51.11999999999999	0.0
C 	33.20341398109538	51.82999999999999	0.0
C 	34.43317005446928	51.11999999999999	0.0
C 	35.66292612784318	51.82999999999999	0.0
C 	36.892682201217085	51.11999999999999	0.0
C 	38.12243827459099	51.82999999999999	0.0
C 	39.35219434796489	51.12	0.0
C 	40.581950421338796	51.83	0.0
C 	41.811706494712695	51.11999999999999	0.0
C 	43.041462568086594	51.82999999999999	0.0
C 	44.2712186414605	51.12	0.0
C 	45.5009747148344	51.82999999999999	0.0
C 	46.73073078820831	51.11999999999999	0.0
C 	47.96048686158221	51.82999999999999	0.0
C 	49.19024293495611	51.11999999999999	0.0
C 	50.41999900833002	51.82999999999999	0.0
C 	51.649755081703915	51.11999999999998	0.0
C 	52.879511155077815	51.829999999999984	0.0
C 	54.10926722845171	51.11999999999999	0.0
C 	55.33902330182563	51.83	0.0
C 	56.568779375199526	51.11999999999999	0.0
C 	57.79853544857343	51.82999999999999	0.0
C 	59.02829152194733	51.11999999999999	0.0
C 	60.25804759532124	51.82999999999999	0.0
C 	61.48780366869514	51.11999999999999	0.0
C 	62.717559742069035	51.829999999999984	0.0
C 	63.94731581544295	51.11999999999999	0.0
C 	65.17707188881685	51.82999999999999	0.0
C 	66.40682796219075	51.11999999999999	0.0
C 	67.63658403556465	51.82999999999999	0.0
C 	68.86634010893854	51.11999999999998	0.0
C 	70.09609618231246	51.82999999999999	0.0
C 	71.32585225568636	51.11999999999999	0.0
C 	72.55560832906026	51.82999999999999	0.0
C 	73.78536440243417	51.11999999999999	0.0
C 	75.01512047580806	51.82999999999999	0.0
C 	76.24487654918198	51.11999999999999	0.0
C 	77.47463262255587	51.829999999999984	0.0
C 	78.70438869592978	51.11999999999999	0.0
C 	79.93414476930367	51.829999999999984	0.0
C 	81.16390084267758	51.11999999999999	0.0
C 	82.39365691605148	51.82999999999999	0.0
C 	83.62341298942538	51.11999999999998	0.0
C 	84.8531690627993	51.82999999999999	0.0
C 	86.08292513617319	51.11999999999998	0.0
C 	87.3126812095471	51.82999999999999	0.0
C 	88.542437282921	51.11999999999998	0.0
C 	89.7721933562949	51.829999999999984	0.0
C 	49.69999999999999	-1.259997669242488e-14	2.15
C 	51.12	-1.052675864827676e-14	2.15
C 	51.83	1.2297560733738906	2.15
C 	53.25	1.2297560733738961	2.15
C 	53.959999999999994	2.459512146747797	2.15
C 	55.379999999999995	2.4595121467477967	2.15
C 	56.08999999999999	3.6892682201216975	2.15
C 	45.43999999999999	-6.988643012601231e-15	2.15
C 	46.85999999999999	-4.439451587866312e-15	2.15
C 	47.56999999999999	1.2297560733738997	2.15
C 	48.989999999999995	1.2297560733738926	2.15
C 	49.699999999999996	2.4595121467477967	2.15
C 	51.11999999999999	2.459512146747796	2.15
C 	51.82999999999999	3.6892682201216997	2.15
C 	53.24999999999999	3.6892682201217024	2.15
C 	53.959999999999994	4.919024293495607	2.15
C 	55.379999999999995	4.9190242934956	2.15
C 	56.089999999999996	6.148780366869503	2.15
C 	57.51	6.148780366869506	2.15
C 	58.22	7.37853644024341	2.15
C 	41.17999999999999	-1.377309332777582e-15	2.15
C 	42.599999999999994	-8.534312183270568e-15	2.15
C 	43.309999999999995	1.2297560733738957	2.15
C 	44.72999999999999	1.2297560733738981	2.15
C 	45.43999999999999	2.459512146747802	2.15
C 	46.85999999999999	2.459512146747801	2.15
C 	47.56999999999999	3.6892682201217055	2.15
C 	48.98999999999999	3.689268220121702	2.15
C 	49.69999999999999	4.919024293495606	2.15
C 	51.12	4.919024293495605	2.15
C 	51.83	6.148780366869509	2.15
C 	53.24999999999999	6.1487803668695085	2.15
C 	53.96	7.378536440243412	2.15
C 	55.379999999999995	7.378536440243408	2.15
C 	56.089999999999996	8.608292513617313	2.15
C 	57.50999999999999	8.608292513617315	2.15
C 	58.21999999999999	9.838048586991219	2.15
C 	59.64	9.838048586991219	2.15
C 	60.35	11.067804660365123	2.15
C 	36.919999999999995	-5.472169928181837e-15	2.15
C 	38.339999999999996	-5.99971880166062e-15	2.15
C 	39.04999999999999	1.229756073373895	2.15
C 	40.47	1.229756073373897	2.15
C 	41.17999999999999	2.459512146747798	2.15
C 	42.599999999999994	2.4595121467477976	2.15
C 	43.30999999999999	3.689268220121699	2.15
C 	44.73	3.6892682201217006	2.15
C 	45.43999999999999	4.919024293495601	2.15
C 	46.85999999999999	4.919024293495608	2.15
C 	47.569999999999986	6.1487803668695085	2.15
C 	48.989999999999995	6.148780366869504	2.15
C 	49.69999999999999	7.378536440243406	2.15
C 	51.12	7.3785364402434075	2.15
C 	51.83	8.60829251361731	2.15
C 	53.25	8.608292513617311	2.15
C 	53.96	9.838048586991215	2.15
C 	55.379999999999995	9.838048586991208	2.15
C 	56.089999999999996	11.067804660365113	2.15
C 	57.51	11.067804660365121	2.15
C 	58.21999999999999	12.297560733739019	2.15
C 	59.64	12.297560733739019	2.15
C 	60.35	13.527316807112921	2.15
C 	61.769999999999996	13.527316807112918	2.15
C 	62.48	14.757072880486822	2.15
C 	32.66	-6.0143168447855916e-15	2.15
C 	34.08	-7.017839098851174e-15	2.15
C 	34.79	1.229756073373897	2.15
C 	36.209999999999994	1.2297560733738997	2.15
C 	36.919999999999995	2.459512146747804	2.15
C 	38.339999999999996	2.4595121467477967	2.15
C 	39.05	3.6892682201217006	2.15
C 	40.46999999999999	3.6892682201217033	2.15
C 	41.17999999999999	4.919024293495608	2.15
C 	42.599999999999994	4.9190242934956006	2.15
C 	43.309999999999995	6.148780366869504	2.15
C 	44.72999999999999	6.148780366869507	2.15
C 	45.43999999999999	7.378536440243411	2.15
C 	46.85999999999999	7.37853644024341	2.15
C 	47.56999999999999	8.608292513617315	2.15
C 	48.98999999999999	8.608292513617311	2.15
C 	49.69999999999999	9.838048586991215	2.15
C 	51.12	9.838048586991214	2.15
C 	51.83	11.067804660365118	2.15
C 	53.25	11.067804660365116	2.15
C 	53.96	12.29756073373902	2.15
C 	55.379999999999995	12.297560733739017	2.15
C 	56.089999999999996	13.527316807112921	2.15
C 	57.50999999999999	13.527316807112925	2.15
C 	58.21999999999999	14.757072880486827	2.15
C 	59.63999999999999	14.757072880486827	2.15
C 	60.349999999999994	15.986828953860732	2.15
C 	61.76999999999999	15.986828953860728	2.15
C 	62.47999999999999	17.216585027234633	2.15
C 	63.9	17.216585027234633	2.15
C 	64.61	18.446341100608535	2.15
C 	28.4	-8.570807291082995e-15	2.15
C 	29.819999999999997	-4.483245717241227e-15	2.15
C 	30.529999999999998	1.2297560733738966	2.15
C 	31.95	1.2297560733738955	2.15
C 	32.66	2.4595121467478	2.15
C 	34.08	2.459512146747799	2.15
C 	34.78999999999999	3.6892682201217	2.15
C 	36.21	3.6892682201217024	2.15
C 	36.919999999999995	4.919024293495603	2.15
C 	38.339999999999996	4.919024293495603	2.15
C 	39.04999999999999	6.148780366869504	2.15
C 	40.47	6.148780366869506	2.15
C 	41.17999999999999	7.378536440243407	2.15
C 	42.599999999999994	7.378536440243407	2.15
C 	43.30999999999999	8.608292513617307	2.15
C 	44.73	8.60829251361731	2.15
C 	45.43999999999999	9.83804858699121	2.15
C 	46.85999999999999	9.838048586991217	2.15
C 	47.56999999999999	11.067804660365118	2.15
C 	48.989999999999995	11.067804660365116	2.15
C 	49.699999999999996	12.297560733739015	2.15
C 	51.12	12.297560733739013	2.15
C 	51.83	13.527316807112918	2.15
C 	53.25	13.527316807112927	2.15
C 	53.959999999999994	14.757072880486824	2.15
C 	55.38	14.757072880486824	2.15
C 	56.089999999999996	15.986828953860721	2.15
C 	57.51	15.986828953860723	2.15
C 	58.22	17.21658502723463	2.15
C 	59.64	17.216585027234633	2.15
C 	60.349999999999994	18.44634110060853	2.15
C 	61.769999999999996	18.446341100608535	2.15
C 	62.47999999999999	19.67609717398243	2.15
C 	63.9	19.67609717398243	2.15
C 	64.61	20.905853247356333	2.15
C 	66.03	20.905853247356344	2.15
C 	66.74	22.135609320730243	2.15
C 	24.139999999999997	-2.7214869209659473e-15	2.15
C 	25.56	-5.26337932413838e-15	2.15
C 	26.27	1.2297560733738973	2.15
C 	27.689999999999998	1.2297560733738984	2.15
C 	28.4	2.4595121467478007	2.15
C 	29.82	2.459512146747798	2.15
C 	30.53	3.6892682201217024	2.15
C 	31.95	3.6892682201217046	2.15
C 	32.66	4.919024293495606	2.15
C 	34.08	4.919024293495601	2.15
C 	34.79	6.148780366869506	2.15
C 	36.209999999999994	6.1487803668695085	2.15
C 	36.919999999999995	7.378536440243413	2.15
C 	38.339999999999996	7.378536440243406	2.15
C 	39.05	8.60829251361731	2.15
C 	40.46999999999999	8.608292513617313	2.15
C 	41.17999999999999	9.838048586991217	2.15
C 	42.599999999999994	9.838048586991208	2.15
C 	43.309999999999995	11.067804660365113	2.15
C 	44.72999999999999	11.067804660365116	2.15
C 	45.44	12.29756073373902	2.15
C 	46.86	12.297560733739019	2.15
C 	47.57	13.527316807112923	2.15
C 	48.989999999999995	13.52731680711292	2.15
C 	49.699999999999996	14.757072880486824	2.15
C 	51.12	14.757072880486822	2.15
C 	51.83	15.986828953860726	2.15
C 	53.25	15.986828953860726	2.15
C 	53.96	17.21658502723463	2.15
C 	55.379999999999995	17.216585027234625	2.15
C 	56.089999999999996	18.44634110060853	2.15
C 	57.50999999999999	18.44634110060853	2.15
C 	58.21999999999999	19.676097173982438	2.15
C 	59.64	19.676097173982438	2.15
C 	60.35	20.90585324735634	2.15
C 	61.76999999999999	20.905853247356337	2.15
C 	62.47999999999999	22.13560932073024	2.15
C 	63.89999999999999	22.13560932073024	2.15
C 	64.61	23.365365394104145	2.15
C 	66.02999999999999	23.365365394104145	2.15
C 	66.74	24.59512146747805	2.15
C 	68.16	24.595121467478045	2.15
C 	68.86999999999999	25.824877540851947	2.15
C 	19.88	-3.5016205278631014e-15	2.15
C 	21.299999999999997	-4.267156091635284e-15	2.15
C 	22.009999999999998	1.2297560733738984	2.15
C 	23.429999999999996	1.2297560733739006	2.15
C 	24.139999999999997	2.4595121467478034	2.15
C 	25.56	2.4595121467478025	2.15
C 	26.27	3.6892682201217033	2.15
C 	27.689999999999998	3.689268220121704	2.15
C 	28.4	4.9190242934956085	2.15
C 	29.82	4.919024293495609	2.15
C 	30.53	6.148780366869513	2.15
C 	31.949999999999996	6.148780366869509	2.15
C 	32.66	7.37853644024341	2.15
C 	34.08	7.378536440243411	2.15
C 	34.79	8.608292513617315	2.15
C 	36.209999999999994	8.608292513617316	2.15
C 	36.919999999999995	9.83804858699122	2.15
C 	38.339999999999996	9.838048586991215	2.15
C 	39.05	11.06780466036512	2.15
C 	40.46999999999999	11.06780466036512	2.15
C 	41.17999999999999	12.297560733739024	2.15
C 	42.599999999999994	12.297560733739019	2.15
C 	43.309999999999995	13.527316807112923	2.15
C 	44.73	13.527316807112923	2.15
C 	45.44	14.757072880486827	2.15
C 	46.86	14.757072880486827	2.15
C 	47.57	15.986828953860732	2.15
C 	48.989999999999995	15.986828953860725	2.15
C 	49.699999999999996	17.21658502723463	2.15
C 	51.12	17.21658502723463	2.15
C 	51.83	18.44634110060853	2.15
C 	53.25	18.446341100608535	2.15
C 	53.96	19.676097173982438	2.15
C 	55.379999999999995	19.67609717398243	2.15
C 	56.089999999999996	20.905853247356337	2.15
C 	57.51	20.90585324735634	2.15
C 	58.22	22.135609320730243	2.15
C 	59.64	22.135609320730243	2.15
C 	60.35	23.365365394104145	2.15
C 	61.769999999999996	23.365365394104142	2.15
C 	62.48	24.595121467478048	2.15
C 	63.9	24.595121467478045	2.15
C 	64.61	25.82487754085195	2.15
C 	66.03	25.82487754085195	2.15
C 	66.74	27.054633614225857	2.15
C 	68.16	27.05463361422585	2.15
C 	68.87	28.284389687599752	2.15
C 	70.28999999999999	28.284389687599745	2.15
C 	71.0	29.51414576097365	2.15
C 	15.62	-2.743383985653404e-15	2.15
C 	17.04	-3.508919549425587e-15	2.15
C 	17.75	1.229756073373899	2.15
C 	19.169999999999998	1.2297560733738984	2.15
C 	19.88	2.4595121467478007	2.15
C 	21.299999999999997	2.4595121467478003	2.15
C 	22.009999999999998	3.689268220121703	2.15
C 	23.429999999999996	3.689268220121705	2.15
C 	24.139999999999997	4.919024293495606	2.15
C 	25.56	4.919024293495607	2.15
C 	26.27	6.148780366869511	2.15
C 	27.689999999999998	6.1487803668695085	2.15
C 	28.4	7.37853644024341	2.15
C 	29.819999999999997	7.378536440243414	2.15
C 	30.529999999999998	8.608292513617315	2.15
C 	31.95	8.608292513617316	2.15
C 	32.66	9.838048586991219	2.15
C 	34.08	9.838048586991215	2.15
C 	34.78999999999999	11.067804660365116	2.15
C 	36.21	11.06780466036512	2.15
C 	36.919999999999995	12.297560733739022	2.15
C 	38.339999999999996	12.297560733739019	2.15
C 	39.04999999999999	13.52731680711292	2.15
C 	40.47	13.527316807112925	2.15
C 	41.18	14.757072880486826	2.15
C 	42.599999999999994	14.757072880486826	2.15
C 	43.309999999999995	15.986828953860725	2.15
C 	44.73	15.986828953860725	2.15
C 	45.44	17.21658502723463	2.15
C 	46.86	17.216585027234636	2.15
C 	47.56999999999999	18.446341100608535	2.15
C 	48.989999999999995	18.446341100608535	2.15
C 	49.699999999999996	19.67609717398243	2.15
C 	51.12	19.67609717398243	2.15
C 	51.83	20.905853247356337	2.15
C 	53.25	20.90585324735634	2.15
C 	53.96	22.13560932073024	2.15
C 	55.379999999999995	22.135609320730243	2.15
C 	56.089999999999996	23.36536539410414	2.15
C 	57.50999999999999	23.365365394104142	2.15
C 	58.21999999999999	24.595121467478045	2.15
C 	59.64	24.59512146747805	2.15
C 	60.349999999999994	25.82487754085195	2.15
C 	61.769999999999996	25.82487754085195	2.15
C 	62.47999999999999	27.05463361422585	2.15
C 	63.9	27.05463361422585	2.15
C 	64.61	28.284389687599752	2.15
C 	66.02999999999999	28.284389687599763	2.15
C 	66.74	29.51414576097366	2.15
C 	68.16	29.51414576097366	2.15
C 	68.86999999999999	30.743901834347557	2.15
C 	70.28999999999999	30.743901834347554	2.15
C 	71.0	31.973657907721453	2.15
C 	72.42	31.973657907721467	2.15
C 	73.13000000000001	33.20341398109537	2.15
C 	11.359999999999998	-2.516345827703733e-15	2.15
C 	12.78	-2.63168966206919e-15	2.15
C 	13.49	1.2297560733739	2.15
C 	14.91	1.229756073373899	2.15
C 	15.620000000000001	2.4595121467478034	2.15
C 	17.04	2.4595121467478007	2.15
C 	17.75	3.689268220121705	2.15
C 	19.169999999999998	3.689268220121703	2.15
C 	19.88	4.919024293495607	2.15
C 	21.299999999999997	4.919024293495604	2.15
C 	22.009999999999998	6.1487803668695085	2.15
C 	23.43	6.148780366869509	2.15
C 	24.14	7.378536440243414	2.15
C 	25.56	7.378536440243411	2.15
C 	26.27	8.608292513617315	2.15
C 	27.689999999999998	8.608292513617313	2.15
C 	28.4	9.838048586991217	2.15
C 	29.82	9.838048586991219	2.15
C 	30.53	11.067804660365121	2.15
C 	31.949999999999996	11.06780466036512	2.15
C 	32.66	12.297560733739024	2.15
C 	34.08	12.297560733739022	2.15
C 	34.79	13.527316807112927	2.15
C 	36.209999999999994	13.527316807112925	2.15
C 	36.919999999999995	14.75707288048683	2.15
C 	38.339999999999996	14.757072880486824	2.15
C 	39.05	15.986828953860728	2.15
C 	40.47	15.986828953860728	2.15
C 	41.18	17.216585027234633	2.15
C 	42.599999999999994	17.216585027234625	2.15
C 	43.309999999999995	18.44634110060853	2.15
C 	44.73	18.44634110060853	2.15
C 	45.44	19.676097173982438	2.15
C 	46.86	19.676097173982438	2.15
C 	47.57	20.90585324735634	2.15
C 	48.989999999999995	20.905853247356337	2.15
C 	49.699999999999996	22.13560932073024	2.15
C 	51.12	22.135609320730236	2.15
C 	51.83	23.365365394104142	2.15
C 	53.25	23.365365394104145	2.15
C 	53.96	24.595121467478048	2.15
C 	55.379999999999995	24.59512146747804	2.15
C 	56.089999999999996	25.824877540851944	2.15
C 	57.51	25.824877540851947	2.15
C 	58.22	27.054633614225853	2.15
C 	59.64	27.05463361422585	2.15
C 	60.35	28.284389687599756	2.15
C 	61.769999999999996	28.284389687599752	2.15
C 	62.48	29.514145760973655	2.15
C 	63.9	29.514145760973655	2.15
C 	64.61	30.743901834347557	2.15
C 	66.03	30.74390183434756	2.15
C 	66.74	31.973657907721464	2.15
C 	68.16	31.973657907721456	2.15
C 	68.86999999999999	33.20341398109536	2.15
C 	70.28999999999999	33.20341398109535	2.15
C 	71.0	34.43317005446926	2.15
C 	72.42	34.433170054469265	2.15
C 	73.13000000000001	35.66292612784317	2.15
C 	74.55	35.662926127843164	2.15
C 	75.26	36.89268220121707	2.15
C 	7.1	-1.7581092854940362e-15	2.15
C 	8.52	-1.7544597747127935e-15	2.15
C 	9.229999999999999	1.2297560733739008	2.15
C 	10.649999999999999	1.2297560733739001	2.15
C 	11.359999999999998	2.4595121467478025	2.15
C 	12.78	2.4595121467478034	2.15
C 	13.489999999999998	3.689268220121706	2.15
C 	14.909999999999998	3.689268220121707	2.15
C 	15.62	4.919024293495609	2.15
C 	17.04	4.919024293495608	2.15
C 	17.749999999999996	6.14878036686951	2.15
C 	19.169999999999998	6.148780366869509	2.15
C 	19.88	7.378536440243412	2.15
C 	21.299999999999997	7.378536440243413	2.15
C 	22.009999999999998	8.608292513617315	2.15
C 	23.43	8.608292513617318	2.15
C 	24.139999999999997	9.838048586991219	2.15
C 	25.56	9.838048586991215	2.15
C 	26.27	11.06780466036512	2.15
C 	27.689999999999998	11.067804660365121	2.15
C 	28.4	12.297560733739022	2.15
C 	29.82	12.297560733739026	2.15
C 	30.529999999999998	13.527316807112927	2.15
C 	31.95	13.527316807112925	2.15
C 	32.66	14.75707288048683	2.15
C 	34.08	14.75707288048683	2.15
C 	34.79	15.98682895386073	2.15
C 	36.21	15.986828953860734	2.15
C 	36.92	17.21658502723464	2.15
C 	38.339999999999996	17.216585027234633	2.15
C 	39.05	18.446341100608535	2.15
C 	40.47	18.446341100608535	2.15
C 	41.18	19.676097173982434	2.15
C 	42.599999999999994	19.676097173982434	2.15
C 	43.309999999999995	20.905853247356333	2.15
C 	44.73	20.90585324735634	2.15
C 	45.44	22.135609320730243	2.15
C 	46.86	22.135609320730243	2.15
C 	47.56999999999999	23.365365394104142	2.15
C 	48.989999999999995	23.365365394104142	2.15
C 	49.699999999999996	24.59512146747804	2.15
C 	51.12	24.595121467478048	2.15
C 	51.83	25.82487754085195	2.15
C 	53.25	25.82487754085195	2.15
C 	53.96	27.054633614225846	2.15
C 	55.379999999999995	27.05463361422585	2.15
C 	56.089999999999996	28.28438968759975	2.15
C 	57.51	28.284389687599756	2.15
C 	58.22	29.514145760973662	2.15
C 	59.64	29.51414576097366	2.15
C 	60.349999999999994	30.743901834347557	2.15
C 	61.76999999999999	30.74390183434756	2.15
C 	62.47999999999999	31.97365790772146	2.15
C 	63.9	31.973657907721464	2.15
C 	64.61	33.203413981095366	2.15
C 	66.03	33.20341398109537	2.15
C 	66.74	34.433170054469265	2.15
C 	68.16	34.433170054469265	2.15
C 	68.87	35.662926127843164	2.15
C 	70.28999999999999	35.66292612784316	2.15
C 	71.0	36.89268220121706	2.15
C 	72.42	36.89268220121707	2.15
C 	73.13	38.12243827459098	2.15
C 	74.55	38.12243827459097	2.15
C 	75.26	39.35219434796487	2.15
C 	76.67999999999999	39.35219434796487	2.15
C 	77.39	40.581950421338775	2.15
C 	2.8399999999999994	-4.3679018828757694e-16	2.15
C 	4.26	-8.772298873563967e-16	2.15
C 	4.97	1.2297560733739017	2.15
C 	6.39	1.2297560733739017	2.15
C 	7.1	2.4595121467478043	2.15
C 	8.52	2.459512146747804	2.15
C 	9.229999999999999	3.6892682201217064	2.15
C 	10.649999999999999	3.6892682201217064	2.15
C 	11.359999999999998	4.919024293495608	2.15
C 	12.78	4.919024293495608	2.15
C 	13.49	6.148780366869512	2.15
C 	14.91	6.148780366869513	2.15
C 	15.62	7.378536440243414	2.15
C 	17.04	7.378536440243415	2.15
C 	17.75	8.608292513617316	2.15
C 	19.169999999999998	8.608292513617316	2.15
C 	19.88	9.838048586991217	2.15
C 	21.299999999999997	9.838048586991217	2.15
C 	22.009999999999998	11.067804660365118	2.15
C 	23.43	11.067804660365121	2.15
C 	24.139999999999997	12.297560733739024	2.15
C 	25.56	12.297560733739024	2.15
C 	26.27	13.527316807112925	2.15
C 	27.689999999999998	13.527316807112925	2.15
C 	28.4	14.757072880486826	2.15
C 	29.82	14.75707288048683	2.15
C 	30.529999999999998	15.986828953860732	2.15
C 	31.95	15.986828953860732	2.15
C 	32.66	17.216585027234633	2.15
C 	34.08	17.216585027234633	2.15
C 	34.79	18.446341100608535	2.15
C 	36.21	18.446341100608535	2.15
C 	36.92	19.676097173982438	2.15
C 	38.339999999999996	19.676097173982434	2.15
C 	39.05	20.905853247356337	2.15
C 	40.47	20.905853247356337	2.15
C 	41.18	22.135609320730243	2.15
C 	42.599999999999994	22.135609320730236	2.15
C 	43.309999999999995	23.36536539410414	2.15
C 	44.73	23.365365394104142	2.15
C 	45.44	24.595121467478045	2.15
C 	46.86	24.595121467478045	2.15
C 	47.57	25.82487754085195	2.15
C 	48.989999999999995	25.824877540851944	2.15
C 	49.699999999999996	27.05463361422585	2.15
C 	51.12	27.054633614225846	2.15
C 	51.83	28.284389687599752	2.15
C 	53.25	28.284389687599752	2.15
C 	53.96	29.51414576097366	2.15
C 	55.379999999999995	29.514145760973648	2.15
C 	56.089999999999996	30.743901834347554	2.15
C 	57.51	30.743901834347557	2.15
C 	58.22	31.97365790772146	2.15
C 	59.64	31.97365790772146	2.15
C 	60.35	33.203413981095366	2.15
C 	61.769999999999996	33.20341398109536	2.15
C 	62.48	34.433170054469265	2.15
C 	63.9	34.433170054469265	2.15
C 	64.61	35.662926127843164	2.15
C 	66.03	35.66292612784317	2.15
C 	66.74000000000001	36.89268220121708	2.15
C 	68.16000000000001	36.89268220121707	2.15
C 	68.87	38.12243827459098	2.15
C 	70.29	38.12243827459097	2.15
C 	71.0	39.352194347964875	2.15
C 	72.42	39.35219434796488	2.15
C 	73.13000000000001	40.58195042133879	2.15
C 	74.55000000000001	40.58195042133878	2.15
C 	75.26	41.81170649471268	2.15
C 	76.68	41.81170649471268	2.15
C 	77.39	43.04146256808659	2.15
C 	78.81	43.04146256808659	2.15
C 	79.52000000000001	44.27121864146049	2.15
C 	2.13	1.2297560733739024	2.15
C 	2.84	2.459512146747805	2.15
C 	4.26	2.4595121467478047	2.15
C 	4.97	3.6892682201217073	2.15
C 	6.39	3.689268220121707	2.15
C 	7.1	4.919024293495609	2.15
C 	8.52	4.919024293495609	2.15
C 	9.23	6.148780366869512	2.15
C 	10.649999999999999	6.148780366869511	2.15
C 	11.36	7.378536440243414	2.15
C 	12.78	7.378536440243414	2.15
C 	13.49	8.608292513617316	2.15
C 	14.91	8.608292513617316	2.15
C 	15.62	9.838048586991219	2.15
C 	17.04	9.838048586991219	2.15
C 	17.75	11.067804660365123	2.15
C 	19.169999999999998	11.067804660365121	2.15
C 	19.88	12.297560733739022	2.15
C 	21.299999999999997	12.297560733739022	2.15
C 	22.009999999999998	13.527316807112927	2.15
C 	23.43	13.527316807112927	2.15
C 	24.14	14.757072880486831	2.15
C 	25.56	14.757072880486827	2.15
C 	26.27	15.986828953860728	2.15
C 	27.689999999999998	15.98682895386073	2.15
C 	28.4	17.216585027234633	2.15
C 	29.82	17.216585027234633	2.15
C 	30.53	18.44634110060854	2.15
C 	31.95	18.446341100608535	2.15
C 	32.66	19.676097173982438	2.15
C 	34.08	19.676097173982438	2.15
C 	34.79	20.90585324735634	2.15
C 	36.21	20.905853247356344	2.15
C 	36.92	22.135609320730246	2.15
C 	38.339999999999996	22.135609320730243	2.15
C 	39.05	23.365365394104145	2.15
C 	40.47	23.365365394104145	2.15
C 	41.18	24.59512146747805	2.15
C 	42.599999999999994	24.595121467478045	2.15
C 	43.309999999999995	25.824877540851947	2.15
C 	44.73	25.824877540851947	2.15
C 	45.44	27.054633614225853	2.15
C 	46.86	27.054633614225853	2.15
C 	47.57	28.284389687599756	2.15
C 	48.989999999999995	28.284389687599752	2.15
C 	49.699999999999996	29.514145760973655	2.15
C 	51.12	29.514145760973655	2.15
C 	51.83	30.74390183434756	2.15
C 	53.25	30.74390183434756	2.15
C 	53.96	31.973657907721464	2.15
C 	55.379999999999995	31.97365790772146	2.15
C 	56.089999999999996	33.203413981095366	2.15
C 	57.51	33.203413981095366	2.15
C 	58.22	34.43317005446927	2.15
C 	59.64	34.433170054469265	2.15
C 	60.35	35.66292612784317	2.15
C 	61.769999999999996	35.66292612784317	2.15
C 	62.48	36.89268220121707	2.15
C 	63.9	36.89268220121707	2.15
C 	64.61	38.12243827459097	2.15
C 	66.03	38.12243827459098	2.15
C 	66.74	39.35219434796488	2.15
C 	68.16	39.352194347964875	2.15
C 	68.87	40.58195042133878	2.15
C 	70.29	40.581950421338775	2.15
C 	71.0	41.81170649471267	2.15
C 	72.42	41.81170649471269	2.15
C 	73.13000000000001	43.04146256808659	2.15
C 	74.55	43.04146256808658	2.15
C 	75.26	44.271218641460486	2.15
C 	76.67999999999999	44.271218641460486	2.15
C 	77.39	45.500974714834385	2.15
C 	78.81	45.50097471483439	2.15
C 	2.1300000000000003	3.6892682201217077	2.15
C 	2.8400000000000003	4.91902429349561	2.15
C 	4.260000000000001	4.91902429349561	2.15
C 	4.970000000000001	6.148780366869513	2.15
C 	6.390000000000001	6.148780366869512	2.15
C 	7.1000000000000005	7.378536440243415	2.15
C 	8.52	7.378536440243414	2.15
C 	9.23	8.608292513617318	2.15
C 	10.649999999999999	8.608292513617316	2.15
C 	11.36	9.83804858699122	2.15
C 	12.780000000000001	9.838048586991219	2.15
C 	13.49	11.067804660365121	2.15
C 	14.91	11.067804660365121	2.15
C 	15.620000000000001	12.297560733739026	2.15
C 	17.04	12.297560733739024	2.15
C 	17.75	13.527316807112927	2.15
C 	19.169999999999998	13.527316807112925	2.15
C 	19.88	14.75707288048683	2.15
C 	21.299999999999997	14.757072880486827	2.15
C 	22.009999999999998	15.986828953860732	2.15
C 	23.43	15.986828953860732	2.15
C 	24.14	17.216585027234636	2.15
C 	25.56	17.216585027234633	2.15
C 	26.27	18.446341100608535	2.15
C 	27.689999999999998	18.446341100608535	2.15
C 	28.4	19.676097173982438	2.15
C 	29.82	19.676097173982438	2.15
C 	30.53	20.90585324735634	2.15
C 	31.95	20.90585324735634	2.15
C 	32.660000000000004	22.135609320730243	2.15
C 	34.08	22.135609320730246	2.15
C 	34.79	23.365365394104142	2.15
C 	36.21	23.36536539410415	2.15
C 	36.92	24.595121467478048	2.15
C 	38.34	24.595121467478048	2.15
C 	39.05	25.824877540851947	2.15
C 	40.47	25.824877540851954	2.15
C 	41.18	27.054633614225853	2.15
C 	42.6	27.054633614225853	2.15
C 	43.309999999999995	28.284389687599752	2.15
C 	44.73	28.284389687599756	2.15
C 	45.44	29.514145760973655	2.15
C 	46.86	29.514145760973662	2.15
C 	47.57	30.743901834347557	2.15
C 	48.989999999999995	30.74390183434756	2.15
C 	49.699999999999996	31.973657907721456	2.15
C 	51.12	31.973657907721464	2.15
C 	51.83	33.20341398109536	2.15
C 	53.25	33.203413981095366	2.15
C 	53.96	34.433170054469265	2.15
C 	55.38	34.433170054469265	2.15
C 	56.089999999999996	35.662926127843164	2.15
C 	57.51	35.66292612784317	2.15
C 	58.21999999999999	36.89268220121707	2.15
C 	59.64	36.89268220121708	2.15
C 	60.349999999999994	38.12243827459098	2.15
C 	61.76999999999999	38.12243827459098	2.15
C 	62.47999999999999	39.352194347964875	2.15
C 	63.9	39.35219434796488	2.15
C 	64.61	40.58195042133879	2.15
C 	66.02999999999999	40.58195042133878	2.15
C 	66.74	41.81170649471269	2.15
C 	68.16	41.81170649471268	2.15
C 	68.86999999999999	43.04146256808658	2.15
C 	70.28999999999999	43.04146256808657	2.15
C 	71.0	44.27121864146048	2.15
C 	72.42	44.271218641460486	2.15
C 	73.13	45.50097471483439	2.15
C 	74.55	45.500974714834385	2.15
C 	75.26	46.73073078820829	2.15
C 	76.67999999999999	46.730730788208284	2.15
C 	4.260000000000001	7.3785364402434155	2.15
C 	4.970000000000001	8.608292513617318	2.15
C 	6.390000000000001	8.608292513617316	2.15
C 	7.100000000000001	9.83804858699122	2.15
C 	8.520000000000001	9.83804858699122	2.15
C 	9.23	11.067804660365123	2.15
C 	10.65	11.067804660365121	2.15
C 	11.36	12.297560733739024	2.15
C 	12.780000000000001	12.297560733739024	2.15
C 	13.490000000000002	13.527316807112928	2.15
C 	14.910000000000002	13.527316807112928	2.15
C 	15.620000000000001	14.75707288048683	2.15
C 	17.04	14.757072880486827	2.15
C 	17.75	15.986828953860732	2.15
C 	19.17	15.986828953860734	2.15
C 	19.88	17.216585027234633	2.15
C 	21.299999999999997	17.216585027234633	2.15
C 	22.009999999999998	18.446341100608535	2.15
C 	23.43	18.446341100608535	2.15
C 	24.14	19.67609717398244	2.15
C 	25.560000000000002	19.676097173982438	2.15
C 	26.27	20.90585324735634	2.15
C 	27.689999999999998	20.905853247356337	2.15
C 	28.400000000000002	22.135609320730243	2.15
C 	29.82	22.135609320730243	2.15
C 	30.53	23.365365394104145	2.15
C 	31.950000000000003	23.36536539410415	2.15
C 	32.66	24.595121467478045	2.15
C 	34.08	24.595121467478048	2.15
C 	34.79	25.82487754085195	2.15
C 	36.21	25.82487754085195	2.15
C 	36.92	27.054633614225857	2.15
C 	38.339999999999996	27.05463361422585	2.15
C 	39.05	28.284389687599756	2.15
C 	40.47	28.284389687599756	2.15
C 	41.18	29.51414576097366	2.15
C 	42.599999999999994	29.514145760973655	2.15
C 	43.309999999999995	30.743901834347557	2.15
C 	44.73	30.743901834347557	2.15
C 	45.44	31.973657907721464	2.15
C 	46.86	31.973657907721464	2.15
C 	47.57	33.203413981095366	2.15
C 	48.989999999999995	33.20341398109536	2.15
C 	49.699999999999996	34.433170054469265	2.15
C 	51.12	34.433170054469265	2.15
C 	51.83	35.66292612784317	2.15
C 	53.25	35.66292612784317	2.15
C 	53.96	36.89268220121707	2.15
C 	55.379999999999995	36.89268220121707	2.15
C 	56.089999999999996	38.12243827459097	2.15
C 	57.51	38.12243827459098	2.15
C 	58.22	39.352194347964875	2.15
C 	59.64	39.352194347964875	2.15
C 	60.35	40.581950421338775	2.15
C 	61.77	40.58195042133878	2.15
C 	62.48	41.81170649471267	2.15
C 	63.9	41.81170649471268	2.15
C 	64.61	43.04146256808659	2.15
C 	66.03	43.041462568086594	2.15
C 	66.74000000000001	44.2712186414605	2.15
C 	68.16	44.27121864146049	2.15
C 	68.87	45.50097471483439	2.15
C 	70.29	45.500974714834385	2.15
C 	71.0	46.73073078820829	2.15
C 	72.42	46.7307307882083	2.15
C 	6.3900000000000015	11.067804660365123	2.15
C 	7.100000000000001	12.297560733739026	2.15
C 	8.520000000000001	12.297560733739026	2.15
C 	9.23	13.527316807112928	2.15
C 	10.65	13.527316807112928	2.15
C 	11.36	14.75707288048683	2.15
C 	12.780000000000001	14.75707288048683	2.15
C 	13.490000000000002	15.986828953860734	2.15
C 	14.910000000000002	15.986828953860734	2.15
C 	15.620000000000001	17.216585027234636	2.15
C 	17.04	17.216585027234636	2.15
C 	17.75	18.446341100608535	2.15
C 	19.17	18.44634110060854	2.15
C 	19.88	19.676097173982438	2.15
C 	21.299999999999997	19.67609717398244	2.15
C 	22.009999999999998	20.90585324735634	2.15
C 	23.43	20.905853247356344	2.15
C 	24.139999999999997	22.135609320730246	2.15
C 	25.560000000000002	22.135609320730246	2.15
C 	26.270000000000003	23.365365394104145	2.15
C 	27.69	23.365365394104145	2.15
C 	28.400000000000002	24.595121467478048	2.15
C 	29.820000000000004	24.59512146747805	2.15
C 	30.530000000000005	25.824877540851954	2.15
C 	31.95	25.82487754085195	2.15
C 	32.660000000000004	27.054633614225853	2.15
C 	34.08	27.054633614225853	2.15
C 	34.79	28.28438968759976	2.15
C 	36.21	28.28438968759976	2.15
C 	36.92	29.514145760973662	2.15
C 	38.339999999999996	29.51414576097366	2.15
C 	39.05	30.74390183434756	2.15
C 	40.47	30.743901834347565	2.15
C 	41.18	31.973657907721467	2.15
C 	42.6	31.97365790772146	2.15
C 	43.31	33.203413981095366	2.15
C 	44.73	33.203413981095366	2.15
C 	45.44	34.43317005446927	2.15
C 	46.86	34.43317005446927	2.15
C 	47.57	35.66292612784318	2.15
C 	48.989999999999995	35.66292612784317	2.15
C 	49.699999999999996	36.89268220121707	2.15
C 	51.12	36.89268220121707	2.15
C 	51.83	38.12243827459098	2.15
C 	53.25	38.12243827459098	2.15
C 	53.96	39.35219434796488	2.15
C 	55.379999999999995	39.352194347964875	2.15
C 	56.089999999999996	40.58195042133878	2.15
C 	57.51	40.58195042133878	2.15
C 	58.22	41.81170649471268	2.15
C 	59.64000000000001	41.81170649471269	2.15
C 	60.35000000000001	43.04146256808659	2.15
C 	61.769999999999996	43.04146256808659	2.15
C 	62.48	44.27121864146049	2.15
C 	63.9	44.271218641460486	2.15
C 	64.61	45.500974714834385	2.15
C 	66.03	45.5009747148344	2.15
C 	66.74	46.7307307882083	2.15
C 	68.16	46.73073078820829	2.15
C 	8.520000000000001	14.757072880486831	2.15
C 	9.230000000000002	15.986828953860735	2.15
C 	10.65	15.986828953860734	2.15
C 	11.36	17.216585027234633	2.15
C 	12.780000000000001	17.216585027234633	2.15
C 	13.490000000000002	18.44634110060854	2.15
C 	14.910000000000002	18.44634110060854	2.15
C 	15.620000000000003	19.67609717398244	2.15
C 	17.040000000000003	19.67609717398244	2.15
C 	17.75	20.90585324735634	2.15
C 	19.17	20.90585324735634	2.15
C 	19.880000000000003	22.135609320730246	2.15
C 	21.3	22.135609320730243	2.15
C 	22.009999999999998	23.365365394104145	2.15
C 	23.43	23.36536539410415	2.15
C 	24.14	24.59512146747805	2.15
C 	25.560000000000002	24.595121467478048	2.15
C 	26.270000000000003	25.824877540851954	2.15
C 	27.69	25.824877540851947	2.15
C 	28.400000000000002	27.054633614225853	2.15
C 	29.820000000000004	27.054633614225857	2.15
C 	30.53	28.284389687599756	2.15
C 	31.950000000000003	28.284389687599756	2.15
C 	32.660000000000004	29.514145760973662	2.15
C 	34.08	29.514145760973655	2.15
C 	34.79	30.74390183434756	2.15
C 	36.21	30.743901834347568	2.15
C 	36.92	31.973657907721464	2.15
C 	38.34	31.973657907721467	2.15
C 	39.05	33.203413981095366	2.15
C 	40.47	33.203413981095366	2.15
C 	41.18	34.433170054469265	2.15
C 	42.599999999999994	34.433170054469265	2.15
C 	43.309999999999995	35.662926127843164	2.15
C 	44.730000000000004	35.66292612784317	2.15
C 	45.44	36.89268220121707	2.15
C 	46.86	36.89268220121707	2.15
C 	47.57	38.12243827459098	2.15
C 	48.989999999999995	38.12243827459097	2.15
C 	49.699999999999996	39.352194347964875	2.15
C 	51.120000000000005	39.352194347964875	2.15
C 	51.83	40.581950421338775	2.15
C 	53.25	40.581950421338775	2.15
C 	53.96	41.81170649471268	2.15
C 	55.379999999999995	41.81170649471267	2.15
C 	56.09	43.04146256808658	2.15
C 	57.510000000000005	43.04146256808659	2.15
C 	58.220000000000006	44.27121864146049	2.15
C 	59.64	44.271218641460486	2.15
C 	60.35	45.50097471483439	2.15
C 	61.769999999999996	45.500974714834385	2.15
C 	62.48	46.73073078820829	2.15
C 	63.900000000000006	46.7307307882083	2.15
C 	10.65	18.44634110060854	2.15
C 	11.360000000000001	19.67609717398244	2.15
C 	12.780000000000003	19.67609717398244	2.15
C 	13.490000000000002	20.905853247356344	2.15
C 	14.910000000000002	20.905853247356344	2.15
C 	15.620000000000001	22.135609320730243	2.15
C 	17.040000000000003	22.135609320730246	2.15
C 	17.750000000000004	23.36536539410415	2.15
C 	19.17	23.365365394104145	2.15
C 	19.88	24.595121467478048	2.15
C 	21.3	24.595121467478048	2.15
C 	22.01	25.82487754085195	2.15
C 	23.43	25.824877540851954	2.15
C 	24.14	27.054633614225857	2.15
C 	25.560000000000002	27.05463361422585	2.15
C 	26.270000000000003	28.284389687599756	2.15
C 	27.69	28.284389687599756	2.15
C 	28.400000000000002	29.51414576097366	2.15
C 	29.820000000000004	29.514145760973662	2.15
C 	30.530000000000005	30.743901834347565	2.15
C 	31.95	30.743901834347557	2.15
C 	32.660000000000004	31.973657907721464	2.15
C 	34.08	31.973657907721464	2.15
C 	34.79	33.203413981095366	2.15
C 	36.21	33.203413981095366	2.15
C 	36.92	34.43317005446927	2.15
C 	38.34	34.433170054469265	2.15
C 	39.050000000000004	35.66292612784317	2.15
C 	40.47	35.66292612784317	2.15
C 	41.18	36.89268220121708	2.15
C 	42.6	36.89268220121707	2.15
C 	43.31	38.12243827459098	2.15
C 	44.73	38.12243827459098	2.15
C 	45.44	39.35219434796488	2.15
C 	46.86	39.35219434796488	2.15
C 	47.57	40.58195042133878	2.15
C 	48.989999999999995	40.58195042133878	2.15
C 	49.699999999999996	41.81170649471268	2.15
C 	51.12	41.81170649471268	2.15
C 	51.83	43.04146256808659	2.15
C 	53.25	43.04146256808659	2.15
C 	53.96	44.271218641460486	2.15
C 	55.38	44.27121864146049	2.15
C 	56.089999999999996	45.500974714834385	2.15
C 	57.51	45.50097471483439	2.15
C 	58.22	46.7307307882083	2.15
C 	59.64	46.73073078820829	2.15
C 	12.780000000000003	22.135609320730246	2.15
C 	13.490000000000002	23.36536539410415	2.15
C 	14.910000000000002	23.36536539410415	2.15
C 	15.620000000000003	24.59512146747805	2.15
C 	17.040000000000003	24.59512146747805	2.15
C 	17.75	25.824877540851954	2.15
C 	19.169999999999998	25.82487754085195	2.15
C 	19.880000000000003	27.054633614225857	2.15
C 	21.3	27.054633614225857	2.15
C 	22.01	28.28438968759976	2.15
C 	23.430000000000003	28.28438968759976	2.15
C 	24.14	29.51414576097366	2.15
C 	25.560000000000002	29.51414576097366	2.15
C 	26.270000000000003	30.743901834347565	2.15
C 	27.69	30.743901834347565	2.15
C 	28.400000000000002	31.973657907721467	2.15
C 	29.820000000000004	31.973657907721467	2.15
C 	30.53	33.203413981095366	2.15
C 	31.95	33.203413981095366	2.15
C 	32.660000000000004	34.43317005446927	2.15
C 	34.08	34.43317005446927	2.15
C 	34.790000000000006	35.66292612784318	2.15
C 	36.21	35.66292612784318	2.15
C 	36.92	36.89268220121708	2.15
C 	38.34	36.89268220121708	2.15
C 	39.05	38.12243827459098	2.15
C 	40.47	38.12243827459098	2.15
C 	41.18	39.35219434796488	2.15
C 	42.599999999999994	39.35219434796488	2.15
C 	43.309999999999995	40.58195042133878	2.15
C 	44.730000000000004	40.58195042133878	2.15
C 	45.44	41.81170649471268	2.15
C 	46.86	41.81170649471269	2.15
C 	47.57	43.041462568086594	2.15
C 	48.99	43.04146256808659	2.15
C 	49.7	44.27121864146049	2.15
C 	51.120000000000005	44.27121864146049	2.15
C 	51.830000000000005	45.500974714834385	2.15
C 	53.25000000000001	45.5009747148344	2.15
C 	53.96000000000001	46.7307307882083	2.15
C 	55.38	46.73073078820829	2.15
C 	14.910000000000004	25.824877540851954	2.15
C 	15.620000000000003	27.054633614225857	2.15
C 	17.040000000000003	27.054633614225857	2.15
C 	17.750000000000004	28.28438968759976	2.15
C 	19.17	28.28438968759976	2.15
C 	19.880000000000003	29.514145760973662	2.15
C 	21.3	29.51414576097366	2.15
C 	22.01	30.74390183434756	2.15
C 	23.430000000000003	30.743901834347568	2.15
C 	24.14	31.973657907721467	2.15
C 	25.560000000000002	31.973657907721467	2.15
C 	26.270000000000003	33.20341398109537	2.15
C 	27.69	33.203413981095366	2.15
C 	28.400000000000002	34.43317005446927	2.15
C 	29.820000000000004	34.43317005446928	2.15
C 	30.53	35.66292612784317	2.15
C 	31.950000000000003	35.66292612784318	2.15
C 	32.660000000000004	36.89268220121708	2.15
C 	34.08	36.89268220121707	2.15
C 	34.79	38.12243827459098	2.15
C 	36.21000000000001	38.122438274590984	2.15
C 	36.92	39.35219434796488	2.15
C 	38.34	39.35219434796488	2.15
C 	39.05	40.58195042133878	2.15
C 	40.47	40.58195042133878	2.15
C 	41.18	41.81170649471269	2.15
C 	42.599999999999994	41.81170649471268	2.15
C 	43.309999999999995	43.04146256808659	2.15
C 	44.73	43.041462568086594	2.15
C 	45.44	44.27121864146049	2.15
C 	46.86	44.271218641460486	2.15
C 	47.57	45.50097471483439	2.15
C 	48.989999999999995	45.50097471483439	2.15
C 	49.699999999999996	46.73073078820829	2.15
C 	51.120000000000005	46.7307307882083	2.15
C 	17.040000000000003	29.514145760973662	2.15
C 	17.750000000000004	30.743901834347565	2.15
C 	19.17	30.74390183434756	2.15
C 	19.880000000000003	31.973657907721464	2.15
C 	21.3	31.973657907721467	2.15
C 	22.01	33.203413981095366	2.15
C 	23.430000000000003	33.20341398109537	2.15
C 	24.140000000000004	34.43317005446927	2.15
C 	25.560000000000002	34.433170054469265	2.15
C 	26.270000000000003	35.66292612784317	2.15
C 	27.69	35.66292612784317	2.15
C 	28.400000000000002	36.89268220121708	2.15
C 	29.820000000000004	36.89268220121708	2.15
C 	30.530000000000005	38.122438274590984	2.15
C 	31.950000000000003	38.12243827459098	2.15
C 	32.660000000000004	39.35219434796488	2.15
C 	34.080000000000005	39.35219434796488	2.15
C 	34.790000000000006	40.58195042133879	2.15
C 	36.21	40.58195042133879	2.15
C 	36.92	41.81170649471269	2.15
C 	38.34	41.81170649471268	2.15
C 	39.050000000000004	43.04146256808659	2.15
C 	40.47	43.04146256808659	2.15
C 	41.18	44.27121864146049	2.15
C 	42.6	44.271218641460486	2.15
C 	43.31	45.50097471483439	2.15
C 	44.73	45.50097471483439	2.15
C 	45.44	46.7307307882083	2.15
C 	46.86	46.7307307882083	2.15
C 	19.17	33.203413981095366	2.15
C 	19.88	34.433170054469265	2.15
C 	21.300000000000004	34.43317005446927	2.15
C 	22.01	35.66292612784317	2.15
C 	23.43	35.66292612784317	2.15
C 	24.14	36.89268220121708	2.15
C 	25.560000000000002	36.89268220121708	2.15
C 	26.27	38.12243827459098	2.15
C 	27.690000000000005	38.122438274590984	2.15
C 	28.400000000000002	39.352194347964875	2.15
C 	29.820000000000004	39.352194347964875	2.15
C 	30.530000000000005	40.58195042133878	2.15
C 	31.950000000000003	40.58195042133878	2.15
C 	32.660000000000004	41.81170649471268	2.15
C 	34.080000000000005	41.81170649471269	2.15
C 	34.79	43.04146256808659	2.15
C 	36.21	43.04146256808659	2.15
C 	36.92	44.27121864146049	2.15
C 	38.339999999999996	44.271218641460486	2.15
C 	39.05	45.50097471483439	2.15
C 	40.470000000000006	45.5009747148344	2.15
C 	41.18	46.73073078820829	2.15
C 	42.6	46.7307307882083	2.15
C 	21.3	36.89268220121708	2.15
C 	22.01	38.12243827459098	2.15
C 	23.430000000000003	38.12243827459098	2.15
C 	24.140000000000004	39.35219434796488	2.15
C 	25.560000000000006	39.35219434796488	2.15
C 	26.270000000000007	40.58195042133879	2.15
C 	27.690000000000005	40.58195042133878	2.15
C 	28.400000000000006	41.81170649471269	2.15
C 	29.820000000000004	41.81170649471269	2.15
C 	30.530000000000005	43.041462568086594	2.15
C 	31.950000000000006	43.041462568086594	2.15
C 	32.660000000000004	44.27121864146049	2.15
C 	34.080000000000005	44.27121864146049	2.15
C 	34.790000000000006	45.50097471483439	2.15
C 	36.21	45.50097471483439	2.15
C 	36.92	46.7307307882083	2.15
C 	38.34	46.73073078820829	2.15
C 	23.430000000000003	40.58195042133879	2.15
C 	24.140000000000008	41.81170649471269	2.15
C 	25.560000000000002	41.81170649471269	2.15
C 	26.270000000000007	43.04146256808659	2.15
C 	27.690000000000005	43.04146256808659	2.15
C 	28.400000000000006	44.27121864146049	2.15
C 	29.820000000000007	44.27121864146049	2.15
C 	30.53000000000001	45.5009747148344	2.15
C 	31.950000000000003	45.50097471483439	2.15
C 	32.660000000000004	46.7307307882083	2.15
C 	34.080000000000005	46.7307307882083	2.15
C 	25.560000000000006	44.27121864146049	2.15
C 	26.270000000000003	45.50097471483439	2.15
C 	27.690000000000005	45.5009747148344	2.15
C 	28.400000000000002	46.7307307882083	2.15
C 	29.820000000000004	46.7307307882083	2.15
H 	49.15499999999999	-0.9439676901250489	2.15
H 	51.665000000000006	-0.9439676901250453	2.15
H 	53.79500000000001	0.2857883832488619	2.15
H 	55.925	1.5155444566227616	2.15
H 	57.17999999999999	3.6892682201216966	2.15
H 	44.894999999999996	-0.9439676901250484	2.15
H 	47.40499999999999	-0.9439676901250444	2.15
H 	58.05499999999999	5.204812676744465	2.15
H 	59.31	7.37853644024341	2.15
H 	40.634999999999984	-0.9439676901250347	2.15
H 	43.144999999999996	-0.9439676901250457	2.15
H 	60.185	8.894080896866184	2.15
H 	61.440000000000005	11.067804660365129	2.15
H 	36.375	-0.943967690125046	2.15
H 	38.885	-0.9439676901250412	2.15
H 	62.31499999999999	12.583349116987877	2.15
H 	63.57	14.757072880486819	2.15
H 	32.11499999999999	-0.9439676901250412	2.15
H 	34.625	-0.943967690125043	2.15
H 	64.44500000000001	16.272617337109597	2.15
H 	65.7	18.446341100608542	2.15
H 	27.855000000000004	-0.9439676901250504	2.15
H 	30.365	-0.9439676901250412	2.15
H 	66.57500000000002	19.961885557231312	2.15
H 	67.83	22.135609320730236	2.15
H 	23.594999999999995	-0.9439676901250403	2.15
H 	26.105	-0.9439676901250436	2.15
H 	68.705	23.65115377735301	2.15
H 	69.96	25.824877540851947	2.15
H 	19.334999999999997	-0.9439676901250411	2.15
H 	21.84499999999999	-0.9439676901250446	2.15
H 	70.83499999999998	27.3404219974747	2.15
H 	72.09	29.51414576097366	2.15
H 	15.074999999999998	-0.9439676901250403	2.15
H 	17.585	-0.9439676901250416	2.15
H 	72.965	31.029690217596432	2.15
H 	74.22000000000001	33.20341398109539	2.15
H 	10.814999999999994	-0.9439676901250393	2.15
H 	13.325	-0.9439676901250406	2.15
H 	75.09499999999998	34.718958437718115	2.15
H 	76.35000000000001	36.89268220121707	2.15
H 	6.555	-0.9439676901250399	2.15
H 	9.065	-0.9439676901250397	2.15
H 	77.22499999999998	38.40822665783982	2.15
H 	78.48	40.581950421338775	2.15
H 	2.2949999999999986	-0.9439676901250382	2.15
H 	4.805000000000001	-0.9439676901250389	2.15
H 	79.35499999999999	42.09749487796154	2.15
H 	80.61000000000001	44.27121864146049	2.15
H 	1.0399999999999998	1.2297560733739024	2.15
H 	79.35499999999999	46.444942404959434	2.15
H 	1.0400000000000003	3.6892682201217077	2.15
H 	2.295	5.862991983620649	2.15
H 	74.71500000000002	47.67469847833334	2.15
H 	77.22499999999998	47.674698478333326	2.15
H 	3.170000000000001	7.3785364402434155	2.15
H 	4.425000000000001	9.552260203742357	2.15
H 	70.455	47.674698478333326	2.15
H 	72.965	47.67469847833333	2.15
H 	5.300000000000002	11.067804660365123	2.15
H 	6.555000000000001	13.241528423864064	2.15
H 	66.195	47.67469847833333	2.15
H 	68.70499999999998	47.67469847833333	2.15
H 	7.4300000000000015	14.757072880486831	2.15
H 	8.685000000000004	16.930796643985776	2.15
H 	61.93499999999999	47.674698478333326	2.15
H 	64.44500000000001	47.67469847833334	2.15
H 	9.56	18.446341100608546	2.15
H 	10.815000000000001	20.62006486410748	2.15
H 	57.675	47.67469847833333	2.15
H 	60.18500000000001	47.674698478333326	2.15
H 	11.690000000000003	22.135609320730246	2.15
H 	12.945	24.309333084229188	2.15
H 	53.41500000000001	47.67469847833334	2.15
H 	55.925000000000004	47.674698478333326	2.15
H 	13.820000000000004	25.824877540851954	2.15
H 	15.075000000000003	27.998601304350895	2.15
H 	49.15499999999999	47.674698478333326	2.15
H 	51.665000000000006	47.67469847833334	2.15
H 	15.950000000000003	29.514145760973662	2.15
H 	17.205000000000005	31.687869524472603	2.15
H 	44.894999999999996	47.67469847833333	2.15
H 	47.405	47.67469847833333	2.15
H 	18.080000000000002	33.203413981095366	2.15
H 	19.33499999999999	35.3771377445943	2.15
H 	40.63499999999999	47.674698478333326	2.15
H 	43.144999999999996	47.67469847833334	2.15
H 	20.21	36.89268220121709	2.15
H 	21.464999999999996	39.06640596471601	2.15
H 	36.375	47.67469847833333	2.15
H 	38.88500000000001	47.674698478333326	2.15
H 	22.340000000000003	40.58195042133879	2.15
H 	23.595000000000013	42.75567418483773	2.15
H 	32.11500000000001	47.67469847833334	2.15
H 	34.625	47.67469847833334	2.15
H 	24.470000000000006	44.27121864146049	2.15
H 	25.724999999999994	46.44494240495943	2.15
H 	27.855000000000004	47.67469847833333	2.15
H 	30.365000000000002	47.67469847833333	2.15
