2348

C 	0.0	0.0	0.0
C 	1.2297560733739028	0.7099999999999999	0.0
C 	2.4595121467478056	-2.3647750424515833e-16	0.0
C 	3.689268220121708	0.7099999999999995	0.0
C 	4.919024293495611	-4.729550084903167e-16	0.0
C 	6.148780366869514	0.7099999999999993	0.0
C 	7.378536440243416	-7.09432512735475e-16	0.0
C 	8.60829251361732	0.7099999999999991	0.0
C 	9.838048586991222	-9.459100169806333e-16	0.0
C 	11.067804660365125	0.7099999999999989	0.0
C 	12.297560733739026	-1.1823875212257916e-15	0.0
C 	13.527316807112928	0.7099999999999986	0.0
C 	14.757072880486833	-1.41886502547095e-15	0.0
C 	15.986828953860735	0.7099999999999984	0.0
C 	17.21658502723464	-7.671641100159832e-16	0.0
C 	18.44634110060854	0.7099999999999982	0.0
C 	19.676097173982445	-1.8918200339612667e-15	0.0
C 	20.905853247356347	0.7099999999999989	0.0
C 	22.135609320730246	-2.128297538206425e-15	0.0
C 	23.36536539410415	0.7099999999999967	0.0
C 	24.59512146747805	-2.364775042451583e-15	0.0
C 	25.824877540851954	0.7099999999999983	0.0
C 	27.05463361422586	-8.248957072964913e-16	0.0
C 	28.284389687599763	0.7099999999999999	0.0
C 	29.514145760973665	-2.8377300509419e-15	0.0
C 	30.743901834347565	0.7099999999999961	0.0
C 	31.97365790772147	-3.0742075551870582e-15	0.0
C 	33.20341398109537	0.7099999999999976	0.0
C 	34.43317005446928	-1.5343282200319664e-15	0.0
C 	35.66292612784318	0.7099999999999992	0.0
C 	36.892682201217085	-1.7708057242771246e-15	0.0
C 	38.122438274590984	0.7099999999999972	0.0
C 	39.35219434796489	-3.783640067922533e-15	0.0
C 	40.58195042133879	0.7099999999999969	0.0
C 	41.811706494712695	-4.67403893367191e-16	0.0
C 	43.0414625680866	0.7100000000000002	0.0
C 	44.27121864146049	-4.25659507641285e-15	0.0
C 	45.5009747148344	0.7099999999999964	0.0
C 	46.730730788208305	-9.403589018575075e-16	0.0
C 	47.96048686158221	0.7099999999999997	0.0
C 	49.1902429349561	-4.729550084903166e-15	0.0
C 	50.41999900833001	0.709999999999996	0.0
C 	51.64975508170391	-1.413313910347824e-15	0.0
C 	52.879511155077815	0.7099999999999993	0.0
C 	54.10926722845172	-1.6497914145929826e-15	0.0
C 	55.33902330182562	0.7099999999999991	0.0
C 	56.56877937519952	-5.438982597638641e-15	0.0
C 	57.798535448573425	0.7099999999999953	0.0
C 	59.02829152194733	-5.6754601018838e-15	0.0
C 	60.25804759532124	0.709999999999995	0.0
C 	1.2297560733739028	2.1299999999999994	0.0
C 	2.4595121467478056	2.8399999999999994	0.0
C 	3.689268220121708	2.1299999999999994	0.0
C 	4.919024293495611	2.8399999999999994	0.0
C 	6.148780366869514	2.129999999999999	0.0
C 	7.378536440243416	2.839999999999999	0.0
C 	8.60829251361732	2.1299999999999986	0.0
C 	9.838048586991222	2.8399999999999985	0.0
C 	11.067804660365123	2.129999999999998	0.0
C 	12.297560733739028	2.839999999999999	0.0
C 	13.527316807112928	2.1299999999999977	0.0
C 	14.757072880486833	2.839999999999998	0.0
C 	15.986828953860735	2.129999999999998	0.0
C 	17.216585027234636	2.839999999999997	0.0
C 	18.446341100608542	2.129999999999998	0.0
C 	19.676097173982445	2.8399999999999985	0.0
C 	20.905853247356344	2.1299999999999977	0.0
C 	22.13560932073025	2.8399999999999985	0.0
C 	23.36536539410415	2.129999999999997	0.0
C 	24.595121467478055	2.839999999999997	0.0
C 	25.824877540851954	2.1299999999999963	0.0
C 	27.05463361422586	2.839999999999997	0.0
C 	28.284389687599763	2.129999999999998	0.0
C 	29.514145760973665	2.8399999999999985	0.0
C 	30.743901834347568	2.129999999999996	0.0
C 	31.97365790772147	2.8399999999999967	0.0
C 	33.20341398109537	2.129999999999996	0.0
C 	34.43317005446928	2.8399999999999963	0.0
C 	35.66292612784318	2.1299999999999972	0.0
C 	36.89268220121708	2.8399999999999963	0.0
C 	38.122438274590984	2.129999999999997	0.0
C 	39.35219434796489	2.8399999999999976	0.0
C 	40.58195042133879	2.1299999999999986	0.0
C 	41.81170649471269	2.839999999999996	0.0
C 	43.0414625680866	2.129999999999998	0.0
C 	44.2712186414605	2.8399999999999954	0.0
C 	45.5009747148344	2.129999999999998	0.0
C 	46.7307307882083	2.8399999999999954	0.0
C 	47.96048686158221	2.1299999999999977	0.0
C 	49.19024293495611	2.839999999999995	0.0
C 	50.41999900833001	2.1299999999999977	0.0
C 	51.64975508170391	2.8399999999999945	0.0
C 	52.879511155077815	2.1299999999999972	0.0
C 	54.10926722845171	2.8399999999999945	0.0
C 	55.33902330182563	2.130000000000001	0.0
C 	56.56877937519952	2.8399999999999976	0.0
C 	57.798535448573425	2.129999999999997	0.0
C 	59.028291521947324	2.839999999999994	0.0
C 	60.25804759532124	2.129999999999997	0.0
C 	61.487803668695136	2.8399999999999936	0.0
C 	2.4595121467478056	4.259999999999999	0.0
C 	3.689268220121708	4.969999999999999	0.0
C 	4.919024293495611	4.259999999999999	0.0
C 	6.148780366869514	4.969999999999999	0.0
C 	7.378536440243416	4.259999999999999	0.0
C 	8.60829251361732	4.969999999999999	0.0
C 	9.83804858699122	4.259999999999998	0.0
C 	11.067804660365125	4.969999999999999	0.0
C 	12.297560733739028	4.259999999999998	0.0
C 	13.52731680711293	4.969999999999998	0.0
C 	14.757072880486831	4.259999999999998	0.0
C 	15.986828953860735	4.969999999999998	0.0
C 	17.21658502723464	4.259999999999997	0.0
C 	18.446341100608542	4.969999999999998	0.0
C 	19.676097173982445	4.259999999999999	0.0
C 	20.905853247356347	4.969999999999997	0.0
C 	22.135609320730246	4.259999999999996	0.0
C 	23.365365394104153	4.969999999999997	0.0
C 	24.595121467478055	4.259999999999998	0.0
C 	25.824877540851958	4.969999999999997	0.0
C 	27.054633614225857	4.259999999999995	0.0
C 	28.28438968759976	4.969999999999996	0.0
C 	29.514145760973665	4.259999999999997	0.0
C 	30.743901834347568	4.969999999999997	0.0
C 	31.97365790772147	4.259999999999996	0.0
C 	33.20341398109537	4.969999999999995	0.0
C 	34.43317005446927	4.2599999999999945	0.0
C 	35.66292612784318	4.969999999999995	0.0
C 	36.892682201217085	4.259999999999996	0.0
C 	38.122438274590984	4.969999999999997	0.0
C 	39.35219434796489	4.259999999999997	0.0
C 	40.58195042133879	4.969999999999994	0.0
C 	41.81170649471269	4.259999999999995	0.0
C 	43.041462568086594	4.969999999999996	0.0
C 	44.2712186414605	4.259999999999997	0.0
C 	45.500974714834406	4.969999999999998	0.0
C 	46.7307307882083	4.259999999999994	0.0
C 	47.960486861582204	4.9699999999999935	0.0
C 	49.19024293495611	4.259999999999996	0.0
C 	50.41999900833001	4.969999999999997	0.0
C 	51.64975508170391	4.259999999999993	0.0
C 	52.879511155077815	4.9699999999999935	0.0
C 	54.10926722845171	4.259999999999996	0.0
C 	55.33902330182562	4.969999999999997	0.0
C 	56.568779375199526	4.259999999999996	0.0
C 	57.798535448573425	4.969999999999996	0.0
C 	59.028291521947324	4.259999999999995	0.0
C 	60.25804759532123	4.969999999999996	0.0
C 	61.487803668695136	4.259999999999992	0.0
C 	62.717559742069035	4.969999999999993	0.0
C 	3.6892682201217086	6.389999999999999	0.0
C 	4.919024293495611	7.099999999999999	0.0
C 	6.148780366869514	6.389999999999999	0.0
C 	7.378536440243416	7.099999999999999	0.0
C 	8.608292513617318	6.389999999999998	0.0
C 	9.838048586991222	7.099999999999999	0.0
C 	11.067804660365125	6.389999999999998	0.0
C 	12.297560733739028	7.099999999999998	0.0
C 	13.52731680711293	6.389999999999999	0.0
C 	14.757072880486833	7.099999999999998	0.0
C 	15.986828953860735	6.389999999999998	0.0
C 	17.216585027234636	7.099999999999997	0.0
C 	18.44634110060854	6.389999999999997	0.0
C 	19.676097173982445	7.099999999999998	0.0
C 	20.905853247356347	6.389999999999998	0.0
C 	22.13560932073025	7.099999999999997	0.0
C 	23.365365394104153	6.389999999999998	0.0
C 	24.59512146747805	7.099999999999997	0.0
C 	25.824877540851958	6.389999999999998	0.0
C 	27.054633614225857	7.099999999999997	0.0
C 	28.28438968759976	6.389999999999999	0.0
C 	29.514145760973662	7.099999999999997	0.0
C 	30.743901834347568	6.389999999999999	0.0
C 	31.97365790772147	7.099999999999998	0.0
C 	33.20341398109537	6.389999999999995	0.0
C 	34.43317005446928	7.099999999999994	0.0
C 	35.66292612784318	6.389999999999995	0.0
C 	36.892682201217085	7.099999999999996	0.0
C 	38.122438274590984	6.389999999999996	0.0
C 	39.35219434796489	7.099999999999997	0.0
C 	40.58195042133879	6.389999999999994	0.0
C 	41.811706494712695	7.099999999999995	0.0
C 	43.041462568086594	6.389999999999996	0.0
C 	44.2712186414605	7.099999999999997	0.0
C 	45.500974714834406	6.389999999999998	0.0
C 	46.730730788208305	7.099999999999998	0.0
C 	47.960486861582204	6.389999999999995	0.0
C 	49.19024293495611	7.099999999999996	0.0
C 	50.41999900833001	6.389999999999995	0.0
C 	51.649755081703915	7.099999999999996	0.0
C 	52.879511155077815	6.389999999999995	0.0
C 	54.10926722845172	7.099999999999996	0.0
C 	55.33902330182562	6.389999999999995	0.0
C 	56.568779375199526	7.099999999999995	0.0
C 	57.79853544857343	6.389999999999998	0.0
C 	59.02829152194733	7.099999999999999	0.0
C 	60.25804759532123	6.389999999999994	0.0
C 	61.487803668695136	7.099999999999995	0.0
C 	62.71755974206904	6.389999999999994	0.0
C 	63.94731581544294	7.099999999999995	0.0
C 	4.919024293495611	8.519999999999998	0.0
C 	6.148780366869514	9.229999999999999	0.0
C 	7.378536440243416	8.519999999999998	0.0
C 	8.60829251361732	9.229999999999999	0.0
C 	9.838048586991222	8.519999999999998	0.0
C 	11.067804660365125	9.229999999999999	0.0
C 	12.297560733739028	8.519999999999998	0.0
C 	13.52731680711293	9.229999999999997	0.0
C 	14.757072880486833	8.519999999999998	0.0
C 	15.986828953860737	9.229999999999999	0.0
C 	17.216585027234636	8.519999999999998	0.0
C 	18.44634110060854	9.229999999999997	0.0
C 	19.67609717398244	8.519999999999996	0.0
C 	20.905853247356347	9.229999999999997	0.0
C 	22.13560932073025	8.519999999999998	0.0
C 	23.365365394104153	9.229999999999999	0.0
C 	24.595121467478055	8.519999999999996	0.0
C 	25.824877540851954	9.229999999999995	0.0
C 	27.05463361422586	8.519999999999996	0.0
C 	28.284389687599763	9.229999999999997	0.0
C 	29.514145760973662	8.519999999999996	0.0
C 	30.743901834347565	9.229999999999995	0.0
C 	31.97365790772147	8.52	0.0
C 	33.20341398109537	9.229999999999997	0.0
C 	34.43317005446928	8.519999999999994	0.0
C 	35.66292612784318	9.229999999999995	0.0
C 	36.89268220121708	8.519999999999992	0.0
C 	38.122438274590984	9.229999999999993	0.0
C 	39.35219434796489	8.519999999999998	0.0
C 	40.58195042133879	9.229999999999995	0.0
C 	41.811706494712695	8.519999999999994	0.0
C 	43.0414625680866	9.229999999999995	0.0
C 	44.27121864146049	8.519999999999992	0.0
C 	45.5009747148344	9.229999999999993	0.0
C 	46.730730788208305	8.519999999999998	0.0
C 	47.960486861582204	9.229999999999995	0.0
C 	49.19024293495611	8.519999999999996	0.0
C 	50.41999900833001	9.229999999999993	0.0
C 	51.64975508170391	8.519999999999994	0.0
C 	52.879511155077815	9.229999999999995	0.0
C 	54.10926722845171	8.51999999999999	0.0
C 	55.33902330182562	9.229999999999992	0.0
C 	56.568779375199526	8.519999999999998	0.0
C 	57.798535448573425	9.229999999999995	0.0
C 	59.02829152194733	8.519999999999994	0.0
C 	60.25804759532123	9.229999999999993	0.0
C 	61.48780366869513	8.519999999999992	0.0
C 	62.717559742069035	9.229999999999993	0.0
C 	63.94731581544294	8.519999999999992	0.0
C 	65.17707188881684	9.22999999999999	0.0
C 	6.148780366869514	10.649999999999997	0.0
C 	7.378536440243416	11.359999999999998	0.0
C 	8.608292513617318	10.649999999999997	0.0
C 	9.838048586991222	11.359999999999998	0.0
C 	11.067804660365125	10.649999999999997	0.0
C 	12.297560733739028	11.359999999999996	0.0
C 	13.52731680711293	10.649999999999997	0.0
C 	14.757072880486831	11.359999999999996	0.0
C 	15.986828953860735	10.649999999999997	0.0
C 	17.216585027234636	11.359999999999996	0.0
C 	18.44634110060854	10.649999999999997	0.0
C 	19.676097173982445	11.359999999999998	0.0
C 	20.905853247356347	10.649999999999997	0.0
C 	22.13560932073025	11.359999999999996	0.0
C 	23.365365394104153	10.649999999999997	0.0
C 	24.595121467478055	11.359999999999996	0.0
C 	25.824877540851958	10.649999999999997	0.0
C 	27.05463361422586	11.359999999999996	0.0
C 	28.284389687599763	10.649999999999995	0.0
C 	29.514145760973662	11.359999999999994	0.0
C 	30.743901834347565	10.649999999999995	0.0
C 	31.97365790772147	11.359999999999996	0.0
C 	33.20341398109537	10.649999999999997	0.0
C 	34.43317005446928	11.359999999999998	0.0
C 	35.66292612784318	10.649999999999991	0.0
C 	36.89268220121708	11.359999999999992	0.0
C 	38.122438274590984	10.649999999999993	0.0
C 	39.35219434796489	11.359999999999994	0.0
C 	40.58195042133879	10.649999999999993	0.0
C 	41.811706494712695	11.359999999999994	0.0
C 	43.041462568086594	10.649999999999991	0.0
C 	44.2712186414605	11.359999999999992	0.0
C 	45.5009747148344	10.649999999999993	0.0
C 	46.730730788208305	11.359999999999994	0.0
C 	47.960486861582204	10.649999999999995	0.0
C 	49.19024293495611	11.359999999999996	0.0
C 	50.41999900833001	10.649999999999993	0.0
C 	51.649755081703915	11.359999999999994	0.0
C 	52.879511155077815	10.649999999999995	0.0
C 	54.10926722845172	11.359999999999996	0.0
C 	55.33902330182562	10.649999999999993	0.0
C 	56.568779375199526	11.359999999999994	0.0
C 	57.798535448573425	10.649999999999993	0.0
C 	59.02829152194733	11.359999999999992	0.0
C 	60.25804759532124	10.649999999999995	0.0
C 	61.487803668695136	11.359999999999996	0.0
C 	62.717559742069035	10.649999999999991	0.0
C 	63.94731581544294	11.359999999999992	0.0
C 	65.17707188881684	10.649999999999991	0.0
C 	66.40682796219075	11.359999999999992	0.0
C 	7.378536440243417	12.779999999999998	0.0
C 	8.60829251361732	13.489999999999998	0.0
C 	9.838048586991222	12.78	0.0
C 	11.067804660365125	13.489999999999997	0.0
C 	12.297560733739028	12.779999999999998	0.0
C 	13.527316807112932	13.489999999999998	0.0
C 	14.757072880486833	12.779999999999998	0.0
C 	15.986828953860737	13.489999999999997	0.0
C 	17.216585027234636	12.779999999999996	0.0
C 	18.446341100608542	13.489999999999997	0.0
C 	19.676097173982445	12.779999999999998	0.0
C 	20.905853247356347	13.489999999999997	0.0
C 	22.13560932073025	12.779999999999996	0.0
C 	23.36536539410415	13.489999999999995	0.0
C 	24.595121467478055	12.779999999999996	0.0
C 	25.824877540851958	13.489999999999997	0.0
C 	27.05463361422586	12.779999999999998	0.0
C 	28.284389687599763	13.489999999999997	0.0
C 	29.514145760973662	12.779999999999996	0.0
C 	30.743901834347568	13.489999999999997	0.0
C 	31.97365790772147	12.779999999999996	0.0
C 	33.20341398109537	13.489999999999997	0.0
C 	34.43317005446928	12.779999999999998	0.0
C 	35.66292612784318	13.489999999999995	0.0
C 	36.89268220121708	12.779999999999994	0.0
C 	38.122438274590984	13.489999999999995	0.0
C 	39.35219434796489	12.779999999999996	0.0
C 	40.581950421338796	13.489999999999997	0.0
C 	41.811706494712695	12.779999999999996	0.0
C 	43.041462568086594	13.489999999999993	0.0
C 	44.2712186414605	12.779999999999994	0.0
C 	45.5009747148344	13.489999999999995	0.0
C 	46.730730788208305	12.779999999999996	0.0
C 	47.96048686158221	13.489999999999997	0.0
C 	49.19024293495611	12.779999999999998	0.0
C 	50.41999900833001	13.489999999999995	0.0
C 	51.649755081703915	12.779999999999996	0.0
C 	52.879511155077815	13.489999999999993	0.0
C 	54.10926722845172	12.779999999999998	0.0
C 	55.33902330182563	13.489999999999998	0.0
C 	56.56877937519952	12.779999999999998	0.0
C 	57.798535448573425	13.489999999999997	0.0
C 	59.02829152194733	12.779999999999994	0.0
C 	60.25804759532123	13.489999999999991	0.0
C 	61.487803668695136	12.779999999999998	0.0
C 	62.71755974206904	13.489999999999998	0.0
C 	63.94731581544294	12.779999999999994	0.0
C 	65.17707188881684	13.489999999999995	0.0
C 	66.40682796219075	12.77999999999999	0.0
C 	67.63658403556465	13.489999999999988	0.0
C 	8.60829251361732	14.909999999999998	0.0
C 	9.838048586991222	15.619999999999996	0.0
C 	11.067804660365125	14.909999999999997	0.0
C 	12.297560733739026	15.619999999999996	0.0
C 	13.527316807112934	14.909999999999998	0.0
C 	14.757072880486831	15.619999999999996	0.0
C 	15.986828953860737	14.909999999999998	0.0
C 	17.21658502723464	15.619999999999997	0.0
C 	18.446341100608542	14.909999999999997	0.0
C 	19.676097173982445	15.619999999999996	0.0
C 	20.905853247356347	14.909999999999997	0.0
C 	22.135609320730246	15.619999999999996	0.0
C 	23.365365394104153	14.909999999999995	0.0
C 	24.595121467478055	15.619999999999996	0.0
C 	25.824877540851958	14.909999999999997	0.0
C 	27.05463361422586	15.619999999999996	0.0
C 	28.284389687599763	14.909999999999997	0.0
C 	29.514145760973665	15.619999999999996	0.0
C 	30.743901834347568	14.909999999999997	0.0
C 	31.973657907721474	15.619999999999997	0.0
C 	33.203413981095366	14.909999999999993	0.0
C 	34.43317005446927	15.619999999999994	0.0
C 	35.662926127843185	14.909999999999998	0.0
C 	36.892682201217085	15.619999999999996	0.0
C 	38.122438274590984	14.909999999999995	0.0
C 	39.35219434796489	15.619999999999996	0.0
C 	40.58195042133879	14.909999999999993	0.0
C 	41.811706494712695	15.619999999999994	0.0
C 	43.0414625680866	14.909999999999998	0.0
C 	44.2712186414605	15.619999999999996	0.0
C 	45.5009747148344	14.909999999999995	0.0
C 	46.730730788208305	15.619999999999996	0.0
C 	47.960486861582204	14.909999999999993	0.0
C 	49.19024293495611	15.619999999999994	0.0
C 	50.41999900833002	14.909999999999998	0.0
C 	51.649755081703915	15.619999999999996	0.0
C 	52.87951115507782	14.909999999999997	0.0
C 	54.10926722845171	15.619999999999994	0.0
C 	55.33902330182562	14.909999999999995	0.0
C 	56.568779375199526	15.619999999999994	0.0
C 	57.798535448573425	14.909999999999991	0.0
C 	59.028291521947324	15.619999999999992	0.0
C 	60.25804759532124	14.909999999999998	0.0
C 	61.487803668695136	15.619999999999996	0.0
C 	62.717559742069035	14.909999999999993	0.0
C 	63.94731581544294	15.619999999999994	0.0
C 	65.17707188881684	14.909999999999993	0.0
C 	66.40682796219075	15.619999999999994	0.0
C 	67.63658403556465	14.909999999999997	0.0
C 	68.86634010893854	15.61999999999999	0.0
C 	9.838048586991222	17.039999999999996	0.0
C 	11.067804660365127	17.749999999999996	0.0
C 	12.297560733739028	17.039999999999996	0.0
C 	13.527316807112932	17.749999999999996	0.0
C 	14.757072880486833	17.039999999999996	0.0
C 	15.986828953860735	17.749999999999996	0.0
C 	17.21658502723464	17.039999999999996	0.0
C 	18.446341100608546	17.749999999999996	0.0
C 	19.676097173982445	17.039999999999996	0.0
C 	20.905853247356347	17.749999999999996	0.0
C 	22.13560932073025	17.039999999999996	0.0
C 	23.365365394104153	17.749999999999996	0.0
C 	24.595121467478055	17.039999999999996	0.0
C 	25.82487754085196	17.749999999999996	0.0
C 	27.05463361422586	17.039999999999996	0.0
C 	28.28438968759977	17.75	0.0
C 	29.514145760973665	17.039999999999996	0.0
C 	30.74390183434757	17.749999999999996	0.0
C 	31.973657907721467	17.039999999999992	0.0
C 	33.20341398109537	17.749999999999993	0.0
C 	34.43317005446927	17.039999999999996	0.0
C 	35.66292612784318	17.749999999999996	0.0
C 	36.892682201217085	17.039999999999996	0.0
C 	38.122438274590984	17.749999999999996	0.0
C 	39.35219434796488	17.039999999999992	0.0
C 	40.58195042133879	17.749999999999993	0.0
C 	41.811706494712695	17.039999999999992	0.0
C 	43.041462568086594	17.749999999999993	0.0
C 	44.2712186414605	17.039999999999996	0.0
C 	45.500974714834406	17.749999999999996	0.0
C 	46.7307307882083	17.039999999999992	0.0
C 	47.960486861582204	17.749999999999993	0.0
C 	49.19024293495611	17.039999999999992	0.0
C 	50.41999900833002	17.749999999999993	0.0
C 	51.649755081703915	17.039999999999996	0.0
C 	52.87951115507782	17.749999999999996	0.0
C 	54.10926722845172	17.039999999999992	0.0
C 	55.33902330182562	17.749999999999993	0.0
C 	56.568779375199526	17.039999999999996	0.0
C 	57.79853544857343	17.749999999999996	0.0
C 	59.028291521947324	17.039999999999992	0.0
C 	60.25804759532123	17.749999999999993	0.0
C 	61.487803668695136	17.039999999999996	0.0
C 	62.71755974206904	17.749999999999996	0.0
C 	63.94731581544294	17.04	0.0
C 	65.17707188881684	17.749999999999993	0.0
C 	66.40682796219075	17.039999999999996	0.0
C 	67.63658403556464	17.74999999999999	0.0
C 	68.86634010893856	17.03999999999999	0.0
C 	70.09609618231246	17.74999999999999	0.0
C 	11.067804660365125	19.169999999999995	0.0
C 	12.297560733739026	19.879999999999995	0.0
C 	13.52731680711293	19.169999999999995	0.0
C 	14.757072880486831	19.879999999999995	0.0
C 	15.986828953860737	19.169999999999998	0.0
C 	17.216585027234636	19.879999999999992	0.0
C 	18.446341100608542	19.169999999999995	0.0
C 	19.676097173982445	19.879999999999995	0.0
C 	20.905853247356347	19.169999999999995	0.0
C 	22.135609320730246	19.879999999999995	0.0
C 	23.365365394104153	19.169999999999995	0.0
C 	24.59512146747805	19.879999999999995	0.0
C 	25.824877540851958	19.169999999999995	0.0
C 	27.05463361422586	19.879999999999995	0.0
C 	28.284389687599763	19.169999999999995	0.0
C 	29.51414576097367	19.879999999999995	0.0
C 	30.743901834347565	19.16999999999999	0.0
C 	31.97365790772147	19.879999999999992	0.0
C 	33.20341398109537	19.169999999999995	0.0
C 	34.43317005446927	19.879999999999992	0.0
C 	35.66292612784318	19.169999999999995	0.0
C 	36.89268220121708	19.879999999999992	0.0
C 	38.122438274590984	19.169999999999995	0.0
C 	39.35219434796488	19.879999999999992	0.0
C 	40.58195042133879	19.16999999999999	0.0
C 	41.81170649471269	19.87999999999999	0.0
C 	43.0414625680866	19.169999999999995	0.0
C 	44.27121864146049	19.879999999999992	0.0
C 	45.5009747148344	19.16999999999999	0.0
C 	46.730730788208305	19.879999999999992	0.0
C 	47.960486861582204	19.169999999999995	0.0
C 	49.1902429349561	19.879999999999992	0.0
C 	50.41999900833002	19.169999999999995	0.0
C 	51.649755081703915	19.879999999999992	0.0
C 	52.879511155077815	19.16999999999999	0.0
C 	54.10926722845172	19.879999999999992	0.0
C 	55.33902330182562	19.16999999999999	0.0
C 	56.56877937519952	19.879999999999992	0.0
C 	57.79853544857343	19.169999999999995	0.0
C 	59.02829152194733	19.879999999999992	0.0
C 	60.25804759532123	19.169999999999995	0.0
C 	61.48780366869513	19.879999999999992	0.0
C 	62.717559742069035	19.16999999999999	0.0
C 	63.94731581544294	19.879999999999992	0.0
C 	65.17707188881684	19.169999999999995	0.0
C 	66.40682796219075	19.87999999999999	0.0
C 	67.63658403556465	19.169999999999995	0.0
C 	68.86634010893854	19.87999999999999	0.0
C 	70.09609618231245	19.16999999999999	0.0
C 	71.32585225568636	19.879999999999992	0.0
C 	12.297560733739028	21.299999999999994	0.0
C 	13.527316807112932	22.009999999999994	0.0
C 	14.757072880486831	21.299999999999994	0.0
C 	15.986828953860735	22.009999999999994	0.0
C 	17.216585027234636	21.299999999999994	0.0
C 	18.44634110060854	22.009999999999994	0.0
C 	19.676097173982445	21.299999999999994	0.0
C 	20.905853247356347	22.009999999999994	0.0
C 	22.13560932073025	21.299999999999994	0.0
C 	23.365365394104153	22.009999999999994	0.0
C 	24.595121467478055	21.299999999999994	0.0
C 	25.824877540851958	22.009999999999994	0.0
C 	27.05463361422586	21.299999999999994	0.0
C 	28.284389687599766	22.009999999999994	0.0
C 	29.514145760973662	21.29999999999999	0.0
C 	30.743901834347568	22.00999999999999	0.0
C 	31.97365790772147	21.299999999999994	0.0
C 	33.20341398109537	22.009999999999994	0.0
C 	34.43317005446928	21.299999999999994	0.0
C 	35.662926127843185	22.009999999999994	0.0
C 	36.89268220121708	21.299999999999994	0.0
C 	38.122438274590984	22.009999999999994	0.0
C 	39.35219434796489	21.299999999999994	0.0
C 	40.58195042133879	22.009999999999994	0.0
C 	41.811706494712695	21.299999999999994	0.0
C 	43.0414625680866	22.009999999999994	0.0
C 	44.2712186414605	21.29999999999999	0.0
C 	45.5009747148344	22.00999999999999	0.0
C 	46.730730788208305	21.299999999999994	0.0
C 	47.96048686158221	22.009999999999994	0.0
C 	49.19024293495611	21.299999999999994	0.0
C 	50.41999900833002	22.009999999999994	0.0
C 	51.649755081703915	21.299999999999994	0.0
C 	52.879511155077815	22.00999999999999	0.0
C 	54.10926722845172	21.299999999999994	0.0
C 	55.33902330182563	22.009999999999994	0.0
C 	56.568779375199526	21.29999999999999	0.0
C 	57.798535448573425	22.00999999999999	0.0
C 	59.02829152194733	21.299999999999994	0.0
C 	60.25804759532124	22.009999999999994	0.0
C 	61.48780366869513	21.29999999999999	0.0
C 	62.717559742069035	22.00999999999999	0.0
C 	63.94731581544294	21.299999999999994	0.0
C 	65.17707188881684	22.009999999999987	0.0
C 	66.40682796219075	21.299999999999994	0.0
C 	67.63658403556465	22.009999999999994	0.0
C 	68.86634010893854	21.29999999999999	0.0
C 	70.09609618231245	22.00999999999999	0.0
C 	71.32585225568636	21.299999999999983	0.0
C 	72.55560832906026	22.00999999999999	0.0
C 	13.527316807112932	23.429999999999996	0.0
C 	14.757072880486836	24.139999999999997	0.0
C 	15.986828953860737	23.429999999999996	0.0
C 	17.216585027234643	24.139999999999997	0.0
C 	18.446341100608542	23.429999999999996	0.0
C 	19.676097173982445	24.139999999999997	0.0
C 	20.90585324735635	23.429999999999996	0.0
C 	22.135609320730254	24.139999999999997	0.0
C 	23.365365394104156	23.429999999999993	0.0
C 	24.595121467478062	24.139999999999997	0.0
C 	25.824877540851958	23.429999999999993	0.0
C 	27.054633614225864	24.139999999999993	0.0
C 	28.284389687599766	23.429999999999996	0.0
C 	29.514145760973673	24.139999999999997	0.0
C 	30.743901834347575	23.429999999999996	0.0
C 	31.973657907721478	24.139999999999997	0.0
C 	33.20341398109537	23.429999999999993	0.0
C 	34.43317005446928	24.139999999999993	0.0
C 	35.66292612784318	23.429999999999993	0.0
C 	36.892682201217085	24.139999999999993	0.0
C 	38.122438274590984	23.429999999999993	0.0
C 	39.35219434796489	24.139999999999993	0.0
C 	40.58195042133879	23.429999999999996	0.0
C 	41.811706494712695	24.139999999999993	0.0
C 	43.041462568086594	23.42999999999999	0.0
C 	44.2712186414605	24.13999999999999	0.0
C 	45.5009747148344	23.429999999999993	0.0
C 	46.730730788208305	24.139999999999993	0.0
C 	47.96048686158221	23.429999999999993	0.0
C 	49.19024293495611	24.139999999999993	0.0
C 	50.41999900833001	23.429999999999993	0.0
C 	51.649755081703915	24.13999999999999	0.0
C 	52.87951115507782	23.429999999999993	0.0
C 	54.10926722845172	24.139999999999993	0.0
C 	55.33902330182563	23.429999999999993	0.0
C 	56.56877937519953	24.139999999999993	0.0
C 	57.798535448573425	23.429999999999993	0.0
C 	59.02829152194733	24.139999999999993	0.0
C 	60.25804759532124	23.429999999999993	0.0
C 	61.487803668695136	24.13999999999999	0.0
C 	62.71755974206904	23.429999999999993	0.0
C 	63.947315815442934	24.139999999999986	0.0
C 	65.17707188881684	23.429999999999993	0.0
C 	66.40682796219075	24.139999999999993	0.0
C 	67.63658403556464	23.42999999999999	0.0
C 	68.86634010893856	24.139999999999997	0.0
C 	70.09609618231245	23.42999999999999	0.0
C 	71.32585225568636	24.139999999999997	0.0
C 	72.55560832906026	23.42999999999999	0.0
C 	73.78536440243417	24.13999999999999	0.0
C 	14.757072880486835	25.559999999999995	0.0
C 	15.986828953860735	26.269999999999996	0.0
C 	17.21658502723464	25.559999999999995	0.0
C 	18.44634110060854	26.269999999999996	0.0
C 	19.676097173982445	25.56	0.0
C 	20.905853247356344	26.269999999999996	0.0
C 	22.13560932073025	25.56	0.0
C 	23.365365394104153	26.269999999999996	0.0
C 	24.595121467478055	25.559999999999995	0.0
C 	25.824877540851958	26.269999999999996	0.0
C 	27.054633614225857	25.559999999999995	0.0
C 	28.28438968759976	26.269999999999996	0.0
C 	29.514145760973665	25.559999999999995	0.0
C 	30.743901834347568	26.269999999999996	0.0
C 	31.973657907721474	25.559999999999995	0.0
C 	33.20341398109538	26.269999999999996	0.0
C 	34.43317005446927	25.55999999999999	0.0
C 	35.66292612784318	26.269999999999992	0.0
C 	36.892682201217085	25.559999999999995	0.0
C 	38.12243827459098	26.269999999999992	0.0
C 	39.35219434796489	25.559999999999995	0.0
C 	40.58195042133879	26.269999999999992	0.0
C 	41.81170649471269	25.55999999999999	0.0
C 	43.041462568086594	26.269999999999992	0.0
C 	44.2712186414605	25.55999999999999	0.0
C 	45.5009747148344	26.26999999999999	0.0
C 	46.730730788208305	25.559999999999995	0.0
C 	47.960486861582204	26.269999999999992	0.0
C 	49.19024293495611	25.55999999999999	0.0
C 	50.41999900833001	26.269999999999992	0.0
C 	51.649755081703915	25.559999999999995	0.0
C 	52.879511155077815	26.269999999999992	0.0
C 	54.10926722845172	25.559999999999995	0.0
C 	55.33902330182562	26.269999999999992	0.0
C 	56.568779375199526	25.55999999999999	0.0
C 	57.79853544857343	26.269999999999992	0.0
C 	59.028291521947324	25.55999999999999	0.0
C 	60.25804759532123	26.269999999999992	0.0
C 	61.487803668695136	25.559999999999995	0.0
C 	62.717559742069035	26.26999999999999	0.0
C 	63.94731581544294	25.55999999999999	0.0
C 	65.17707188881683	26.269999999999985	0.0
C 	66.40682796219075	25.55999999999999	0.0
C 	67.63658403556465	26.269999999999992	0.0
C 	68.86634010893856	25.559999999999995	0.0
C 	70.09609618231246	26.269999999999996	0.0
C 	71.32585225568636	25.559999999999995	0.0
C 	72.55560832906026	26.269999999999996	0.0
C 	73.78536440243415	25.559999999999988	0.0
C 	75.01512047580806	26.26999999999999	0.0
C 	15.986828953860735	27.689999999999994	0.0
C 	17.21658502723464	28.399999999999995	0.0
C 	18.446341100608542	27.689999999999994	0.0
C 	19.676097173982445	28.399999999999995	0.0
C 	20.905853247356344	27.689999999999994	0.0
C 	22.13560932073025	28.399999999999995	0.0
C 	23.365365394104153	27.689999999999994	0.0
C 	24.59512146747806	28.399999999999995	0.0
C 	25.824877540851954	27.689999999999994	0.0
C 	27.054633614225857	28.399999999999995	0.0
C 	28.284389687599763	27.689999999999994	0.0
C 	29.514145760973665	28.399999999999995	0.0
C 	30.74390183434757	27.689999999999994	0.0
C 	31.973657907721474	28.399999999999995	0.0
C 	33.20341398109537	27.68999999999999	0.0
C 	34.43317005446928	28.39999999999999	0.0
C 	35.66292612784318	27.689999999999994	0.0
C 	36.892682201217085	28.399999999999995	0.0
C 	38.122438274590984	27.689999999999994	0.0
C 	39.35219434796489	28.399999999999995	0.0
C 	40.58195042133879	27.689999999999994	0.0
C 	41.811706494712695	28.399999999999995	0.0
C 	43.041462568086594	27.689999999999994	0.0
C 	44.2712186414605	28.399999999999995	0.0
C 	45.500974714834406	27.689999999999994	0.0
C 	46.730730788208305	28.399999999999995	0.0
C 	47.960486861582204	27.68999999999999	0.0
C 	49.19024293495611	28.39999999999999	0.0
C 	50.41999900833002	27.689999999999994	0.0
C 	51.649755081703915	28.399999999999995	0.0
C 	52.87951115507782	27.689999999999994	0.0
C 	54.10926722845173	28.399999999999995	0.0
C 	55.33902330182562	27.68999999999999	0.0
C 	56.568779375199526	28.39999999999999	0.0
C 	57.79853544857343	27.689999999999994	0.0
C 	59.02829152194733	28.39999999999999	0.0
C 	60.25804759532124	27.689999999999994	0.0
C 	61.48780366869513	28.399999999999988	0.0
C 	62.717559742069035	27.689999999999994	0.0
C 	63.94731581544294	28.399999999999995	0.0
C 	65.17707188881684	27.68999999999999	0.0
C 	66.40682796219075	28.39999999999999	0.0
C 	67.63658403556464	27.689999999999987	0.0
C 	68.86634010893856	28.399999999999995	0.0
C 	70.09609618231245	27.689999999999994	0.0
C 	71.32585225568636	28.399999999999995	0.0
C 	72.55560832906026	27.68999999999999	0.0
C 	73.78536440243415	28.39999999999999	0.0
C 	75.01512047580808	27.689999999999994	0.0
C 	76.24487654918197	28.399999999999984	0.0
C 	17.21658502723464	29.819999999999997	0.0
C 	18.446341100608546	30.529999999999998	0.0
C 	19.676097173982445	29.819999999999997	0.0
C 	20.905853247356355	30.529999999999998	0.0
C 	22.13560932073025	29.819999999999993	0.0
C 	23.365365394104156	30.529999999999994	0.0
C 	24.59512146747806	29.819999999999997	0.0
C 	25.82487754085196	30.529999999999998	0.0
C 	27.054633614225867	29.819999999999997	0.0
C 	28.28438968759977	30.529999999999998	0.0
C 	29.514145760973665	29.819999999999997	0.0
C 	30.74390183434757	30.529999999999998	0.0
C 	31.973657907721474	29.819999999999997	0.0
C 	33.20341398109538	30.529999999999998	0.0
C 	34.43317005446928	29.819999999999997	0.0
C 	35.662926127843185	30.529999999999998	0.0
C 	36.892682201217085	29.819999999999993	0.0
C 	38.12243827459099	30.529999999999994	0.0
C 	39.35219434796488	29.819999999999993	0.0
C 	40.58195042133879	30.529999999999994	0.0
C 	41.811706494712695	29.819999999999993	0.0
C 	43.0414625680866	30.529999999999994	0.0
C 	44.2712186414605	29.819999999999993	0.0
C 	45.500974714834406	30.529999999999994	0.0
C 	46.730730788208305	29.81999999999999	0.0
C 	47.960486861582204	30.52999999999999	0.0
C 	49.19024293495611	29.819999999999993	0.0
C 	50.41999900833002	30.529999999999994	0.0
C 	51.649755081703915	29.819999999999993	0.0
C 	52.87951115507782	30.529999999999994	0.0
C 	54.10926722845172	29.819999999999993	0.0
C 	55.33902330182563	30.52999999999999	0.0
C 	56.568779375199526	29.819999999999993	0.0
C 	57.798535448573425	30.52999999999999	0.0
C 	59.02829152194734	29.819999999999993	0.0
C 	60.25804759532124	30.529999999999994	0.0
C 	61.487803668695136	29.819999999999993	0.0
C 	62.71755974206904	30.529999999999994	0.0
C 	63.947315815442934	29.81999999999999	0.0
C 	65.17707188881685	30.529999999999998	0.0
C 	66.40682796219073	29.819999999999986	0.0
C 	67.63658403556465	30.529999999999994	0.0
C 	68.86634010893856	29.819999999999993	0.0
C 	70.09609618231245	30.529999999999994	0.0
C 	71.32585225568637	29.819999999999997	0.0
C 	72.55560832906026	30.52999999999999	0.0
C 	73.78536440243417	29.819999999999997	0.0
C 	75.01512047580806	30.529999999999987	0.0
C 	76.24487654918197	29.81999999999999	0.0
C 	77.47463262255587	30.52999999999999	0.0
C 	18.446341100608542	31.949999999999996	0.0
C 	19.676097173982445	32.65999999999999	0.0
C 	20.905853247356347	31.949999999999992	0.0
C 	22.135609320730254	32.66	0.0
C 	23.365365394104156	31.949999999999996	0.0
C 	24.595121467478055	32.65999999999999	0.0
C 	25.824877540851958	31.949999999999992	0.0
C 	27.05463361422586	32.66	0.0
C 	28.284389687599766	31.949999999999996	0.0
C 	29.51414576097367	32.66	0.0
C 	30.743901834347568	31.949999999999992	0.0
C 	31.97365790772147	32.66	0.0
C 	33.20341398109537	31.949999999999992	0.0
C 	34.43317005446928	32.66	0.0
C 	35.66292612784318	31.949999999999996	0.0
C 	36.892682201217085	32.66	0.0
C 	38.122438274590984	31.949999999999992	0.0
C 	39.35219434796489	32.65999999999999	0.0
C 	40.58195042133879	31.949999999999992	0.0
C 	41.81170649471269	32.65999999999999	0.0
C 	43.0414625680866	31.949999999999996	0.0
C 	44.2712186414605	32.65999999999999	0.0
C 	45.5009747148344	31.949999999999992	0.0
C 	46.730730788208305	32.65999999999999	0.0
C 	47.96048686158221	31.949999999999992	0.0
C 	49.1902429349561	32.65999999999999	0.0
C 	50.41999900833002	31.949999999999992	0.0
C 	51.649755081703915	32.65999999999999	0.0
C 	52.879511155077815	31.949999999999992	0.0
C 	54.10926722845172	32.65999999999999	0.0
C 	55.33902330182563	31.949999999999992	0.0
C 	56.568779375199526	32.65999999999999	0.0
C 	57.79853544857343	31.949999999999992	0.0
C 	59.028291521947324	32.65999999999999	0.0
C 	60.25804759532124	31.949999999999992	0.0
C 	61.487803668695136	32.65999999999999	0.0
C 	62.717559742069035	31.94999999999999	0.0
C 	63.94731581544294	32.65999999999999	0.0
C 	65.17707188881685	31.949999999999992	0.0
C 	66.40682796219076	32.66	0.0
C 	67.63658403556465	31.949999999999992	0.0
C 	68.86634010893856	32.65999999999999	0.0
C 	70.09609618231245	31.94999999999999	0.0
C 	71.32585225568636	32.65999999999999	0.0
C 	72.55560832906026	31.949999999999996	0.0
C 	73.78536440243415	32.65999999999999	0.0
C 	75.01512047580806	31.949999999999992	0.0
C 	76.24487654918195	32.65999999999998	0.0
C 	77.47463262255587	31.949999999999985	0.0
C 	78.70438869592978	32.65999999999999	0.0
C 	19.676097173982445	34.07999999999999	0.0
C 	20.90585324735635	34.78999999999999	0.0
C 	22.135609320730254	34.07999999999999	0.0
C 	23.365365394104156	34.78999999999999	0.0
C 	24.595121467478055	34.07999999999999	0.0
C 	25.824877540851958	34.78999999999999	0.0
C 	27.054633614225864	34.07999999999999	0.0
C 	28.284389687599766	34.78999999999999	0.0
C 	29.514145760973665	34.07999999999999	0.0
C 	30.743901834347568	34.78999999999999	0.0
C 	31.97365790772147	34.07999999999999	0.0
C 	33.20341398109537	34.78999999999999	0.0
C 	34.43317005446928	34.07999999999999	0.0
C 	35.662926127843185	34.78999999999999	0.0
C 	36.89268220121708	34.07999999999999	0.0
C 	38.122438274590984	34.78999999999999	0.0
C 	39.35219434796489	34.07999999999999	0.0
C 	40.581950421338796	34.78999999999999	0.0
C 	41.811706494712695	34.07999999999999	0.0
C 	43.0414625680866	34.78999999999999	0.0
C 	44.2712186414605	34.07999999999999	0.0
C 	45.5009747148344	34.78999999999999	0.0
C 	46.730730788208305	34.07999999999999	0.0
C 	47.96048686158221	34.78999999999999	0.0
C 	49.19024293495611	34.07999999999999	0.0
C 	50.41999900833002	34.78999999999999	0.0
C 	51.649755081703915	34.07999999999999	0.0
C 	52.87951115507782	34.78999999999999	0.0
C 	54.10926722845172	34.07999999999999	0.0
C 	55.33902330182562	34.78999999999999	0.0
C 	56.56877937519953	34.07999999999999	0.0
C 	57.79853544857343	34.78999999999999	0.0
C 	59.02829152194733	34.07999999999999	0.0
C 	60.25804759532124	34.78999999999999	0.0
C 	61.487803668695136	34.07999999999999	0.0
C 	62.71755974206905	34.79	0.0
C 	63.947315815442934	34.079999999999984	0.0
C 	65.17707188881685	34.78999999999999	0.0
C 	66.40682796219075	34.07999999999999	0.0
C 	67.63658403556465	34.78999999999999	0.0
C 	68.86634010893854	34.07999999999999	0.0
C 	70.09609618231245	34.78999999999999	0.0
C 	71.32585225568636	34.07999999999999	0.0
C 	72.55560832906025	34.789999999999985	0.0
C 	73.78536440243417	34.07999999999999	0.0
C 	75.01512047580808	34.78999999999999	0.0
C 	76.24487654918197	34.07999999999999	0.0
C 	77.47463262255587	34.78999999999999	0.0
C 	78.70438869592977	34.079999999999984	0.0
C 	79.93414476930369	34.78999999999999	0.0
C 	20.90585324735635	36.209999999999994	0.0
C 	22.135609320730254	36.919999999999995	0.0
C 	23.36536539410416	36.209999999999994	0.0
C 	24.595121467478062	36.919999999999995	0.0
C 	25.82487754085196	36.209999999999994	0.0
C 	27.054633614225864	36.919999999999995	0.0
C 	28.284389687599766	36.209999999999994	0.0
C 	29.514145760973673	36.919999999999995	0.0
C 	30.743901834347575	36.209999999999994	0.0
C 	31.973657907721478	36.919999999999995	0.0
C 	33.20341398109537	36.209999999999994	0.0
C 	34.43317005446928	36.919999999999995	0.0
C 	35.662926127843185	36.209999999999994	0.0
C 	36.89268220121709	36.919999999999995	0.0
C 	38.12243827459099	36.209999999999994	0.0
C 	39.3521943479649	36.919999999999995	0.0
C 	40.581950421338796	36.209999999999994	0.0
C 	41.811706494712695	36.919999999999995	0.0
C 	43.041462568086594	36.209999999999994	0.0
C 	44.2712186414605	36.919999999999995	0.0
C 	45.500974714834406	36.209999999999994	0.0
C 	46.730730788208305	36.919999999999995	0.0
C 	47.96048686158221	36.209999999999994	0.0
C 	49.19024293495612	36.919999999999995	0.0
C 	50.41999900833002	36.20999999999999	0.0
C 	51.649755081703915	36.91999999999999	0.0
C 	52.87951115507782	36.209999999999994	0.0
C 	54.10926722845172	36.91999999999999	0.0
C 	55.33902330182563	36.209999999999994	0.0
C 	56.56877937519953	36.919999999999995	0.0
C 	57.79853544857343	36.20999999999999	0.0
C 	59.02829152194733	36.91999999999999	0.0
C 	60.25804759532123	36.20999999999999	0.0
C 	61.48780366869515	36.919999999999995	0.0
C 	62.71755974206904	36.209999999999994	0.0
C 	63.94731581544295	36.919999999999995	0.0
C 	65.17707188881684	36.209999999999994	0.0
C 	66.40682796219075	36.919999999999995	0.0
C 	67.63658403556467	36.209999999999994	0.0
C 	68.86634010893856	36.91999999999999	0.0
C 	70.09609618231246	36.209999999999994	0.0
C 	71.32585225568636	36.91999999999999	0.0
C 	72.55560832906026	36.209999999999994	0.0
C 	73.78536440243417	36.919999999999995	0.0
C 	75.01512047580806	36.20999999999999	0.0
C 	76.24487654918198	36.919999999999995	0.0
C 	77.47463262255586	36.20999999999999	0.0
C 	78.70438869592978	36.919999999999995	0.0
C 	79.93414476930369	36.20999999999999	0.0
C 	81.16390084267759	36.91999999999999	0.0
C 	22.13560932073025	38.33999999999999	0.0
C 	23.365365394104153	39.04999999999999	0.0
C 	24.59512146747806	38.33999999999999	0.0
C 	25.82487754085196	39.04999999999999	0.0
C 	27.05463361422586	38.33999999999999	0.0
C 	28.284389687599763	39.04999999999999	0.0
C 	29.514145760973665	38.33999999999999	0.0
C 	30.74390183434757	39.04999999999999	0.0
C 	31.973657907721474	38.339999999999996	0.0
C 	33.20341398109538	39.04999999999999	0.0
C 	34.43317005446927	38.33999999999999	0.0
C 	35.66292612784318	39.04999999999999	0.0
C 	36.892682201217085	38.33999999999999	0.0
C 	38.12243827459099	39.04999999999999	0.0
C 	39.35219434796489	38.33999999999999	0.0
C 	40.581950421338796	39.04999999999999	0.0
C 	41.811706494712695	38.33999999999999	0.0
C 	43.0414625680866	39.04999999999999	0.0
C 	44.27121864146049	38.33999999999999	0.0
C 	45.5009747148344	39.04999999999999	0.0
C 	46.730730788208305	38.33999999999999	0.0
C 	47.960486861582204	39.04999999999999	0.0
C 	49.19024293495611	38.33999999999999	0.0
C 	50.41999900833002	39.04999999999999	0.0
C 	51.649755081703915	38.33999999999999	0.0
C 	52.879511155077815	39.04999999999999	0.0
C 	54.10926722845173	38.33999999999999	0.0
C 	55.33902330182562	39.04999999999998	0.0
C 	56.568779375199526	38.33999999999999	0.0
C 	57.79853544857343	39.04999999999999	0.0
C 	59.02829152194733	38.33999999999999	0.0
C 	60.25804759532123	39.04999999999999	0.0
C 	61.48780366869513	38.33999999999998	0.0
C 	62.71755974206905	39.04999999999999	0.0
C 	63.94731581544294	38.33999999999999	0.0
C 	65.17707188881685	39.04999999999999	0.0
C 	66.40682796219075	38.33999999999999	0.0
C 	67.63658403556465	39.04999999999999	0.0
C 	68.86634010893856	38.33999999999999	0.0
C 	70.09609618231245	39.04999999999998	0.0
C 	71.32585225568636	38.33999999999999	0.0
C 	72.55560832906025	39.04999999999998	0.0
C 	73.78536440243415	38.33999999999999	0.0
C 	75.01512047580806	39.04999999999999	0.0
C 	76.24487654918197	38.33999999999999	0.0
C 	77.47463262255587	39.05	0.0
C 	78.70438869592977	38.33999999999998	0.0
C 	79.93414476930369	39.04999999999999	0.0
C 	81.16390084267758	38.33999999999998	0.0
C 	82.39365691605148	39.04999999999998	0.0
C 	23.365365394104156	40.46999999999999	0.0
C 	24.59512146747806	41.17999999999999	0.0
C 	25.82487754085196	40.46999999999999	0.0
C 	27.054633614225867	41.17999999999999	0.0
C 	28.284389687599763	40.46999999999999	0.0
C 	29.51414576097367	41.17999999999999	0.0
C 	30.74390183434757	40.46999999999999	0.0
C 	31.973657907721474	41.17999999999999	0.0
C 	33.20341398109537	40.46999999999999	0.0
C 	34.43317005446928	41.17999999999999	0.0
C 	35.66292612784318	40.46999999999999	0.0
C 	36.892682201217085	41.17999999999999	0.0
C 	38.12243827459099	40.46999999999999	0.0
C 	39.3521943479649	41.17999999999999	0.0
C 	40.58195042133879	40.46999999999999	0.0
C 	41.811706494712695	41.17999999999999	0.0
C 	43.0414625680866	40.46999999999999	0.0
C 	44.2712186414605	41.17999999999999	0.0
C 	45.500974714834406	40.46999999999999	0.0
C 	46.73073078820831	41.17999999999999	0.0
C 	47.960486861582204	40.46999999999999	0.0
C 	49.19024293495611	41.17999999999999	0.0
C 	50.41999900833002	40.46999999999999	0.0
C 	51.649755081703915	41.179999999999986	0.0
C 	52.87951115507782	40.46999999999999	0.0
C 	54.10926722845173	41.17999999999999	0.0
C 	55.33902330182563	40.46999999999999	0.0
C 	56.568779375199526	41.17999999999999	0.0
C 	57.798535448573425	40.469999999999985	0.0
C 	59.028291521947345	41.17999999999999	0.0
C 	60.25804759532124	40.46999999999999	0.0
C 	61.48780366869514	41.17999999999999	0.0
C 	62.71755974206904	40.46999999999999	0.0
C 	63.94731581544295	41.17999999999999	0.0
C 	65.17707188881685	40.46999999999999	0.0
C 	66.40682796219075	41.179999999999986	0.0
C 	67.63658403556465	40.46999999999999	0.0
C 	68.86634010893854	41.179999999999986	0.0
C 	70.09609618231246	40.46999999999999	0.0
C 	71.32585225568636	41.17999999999999	0.0
C 	72.55560832906026	40.469999999999985	0.0
C 	73.78536440243417	41.179999999999986	0.0
C 	75.01512047580806	40.469999999999985	0.0
C 	76.24487654918198	41.17999999999999	0.0
C 	77.47463262255587	40.46999999999999	0.0
C 	78.70438869592978	41.17999999999999	0.0
C 	79.93414476930367	40.469999999999985	0.0
C 	81.16390084267758	41.179999999999986	0.0
C 	82.3936569160515	40.46999999999999	0.0
C 	83.62341298942539	41.179999999999986	0.0
C 	24.595121467478055	42.59999999999999	0.0
C 	25.82487754085196	43.30999999999999	0.0
C 	27.05463361422586	42.59999999999999	0.0
C 	28.284389687599766	43.30999999999999	0.0
C 	29.514145760973662	42.59999999999999	0.0
C 	30.743901834347568	43.30999999999999	0.0
C 	31.97365790772147	42.59999999999999	0.0
C 	33.20341398109537	43.30999999999999	0.0
C 	34.43317005446927	42.59999999999999	0.0
C 	35.66292612784318	43.30999999999999	0.0
C 	36.89268220121708	42.59999999999999	0.0
C 	38.122438274590984	43.30999999999999	0.0
C 	39.35219434796489	42.59999999999999	0.0
C 	40.581950421338796	43.30999999999999	0.0
C 	41.81170649471269	42.59999999999999	0.0
C 	43.041462568086594	43.30999999999999	0.0
C 	44.2712186414605	42.59999999999999	0.0
C 	45.5009747148344	43.30999999999999	0.0
C 	46.730730788208305	42.59999999999999	0.0
C 	47.96048686158221	43.30999999999999	0.0
C 	49.19024293495611	42.59999999999999	0.0
C 	50.41999900833001	43.30999999999999	0.0
C 	51.64975508170392	42.599999999999994	0.0
C 	52.879511155077815	43.30999999999999	0.0
C 	54.10926722845172	42.59999999999999	0.0
C 	55.33902330182563	43.30999999999999	0.0
C 	56.568779375199526	42.59999999999999	0.0
C 	57.798535448573425	43.30999999999999	0.0
C 	59.028291521947324	42.59999999999998	0.0
C 	60.258047595321244	43.30999999999999	0.0
C 	61.487803668695136	42.59999999999999	0.0
C 	62.71755974206904	43.30999999999999	0.0
C 	63.94731581544294	42.59999999999999	0.0
C 	65.17707188881684	43.30999999999999	0.0
C 	66.40682796219076	42.599999999999994	0.0
C 	67.63658403556465	43.30999999999999	0.0
C 	68.86634010893856	42.59999999999999	0.0
C 	70.09609618231245	43.30999999999998	0.0
C 	71.32585225568636	42.59999999999999	0.0
C 	72.55560832906026	43.30999999999999	0.0
C 	73.78536440243415	42.59999999999999	0.0
C 	75.01512047580806	43.30999999999999	0.0
C 	76.24487654918197	42.59999999999998	0.0
C 	77.47463262255587	43.30999999999999	0.0
C 	78.70438869592978	42.59999999999999	0.0
C 	79.93414476930367	43.30999999999999	0.0
C 	81.16390084267758	42.59999999999999	0.0
C 	82.39365691605148	43.30999999999999	0.0
C 	83.62341298942539	42.59999999999999	0.0
C 	84.85316906279928	43.30999999999998	0.0
C 	25.82487754085196	44.72999999999999	0.0
C 	27.054633614225864	45.43999999999999	0.0
C 	28.284389687599766	44.72999999999999	0.0
C 	29.514145760973673	45.43999999999999	0.0
C 	30.743901834347568	44.72999999999999	0.0
C 	31.97365790772147	45.43999999999999	0.0
C 	33.20341398109537	44.72999999999999	0.0
C 	34.43317005446928	45.43999999999999	0.0
C 	35.662926127843185	44.72999999999999	0.0
C 	36.892682201217085	45.43999999999999	0.0
C 	38.122438274590984	44.72999999999999	0.0
C 	39.35219434796489	45.43999999999999	0.0
C 	40.581950421338796	44.72999999999999	0.0
C 	41.811706494712695	45.43999999999999	0.0
C 	43.0414625680866	44.72999999999999	0.0
C 	44.27121864146051	45.43999999999999	0.0
C 	45.500974714834406	44.72999999999999	0.0
C 	46.730730788208305	45.43999999999999	0.0
C 	47.960486861582204	44.72999999999999	0.0
C 	49.19024293495611	45.43999999999998	0.0
C 	50.41999900833002	44.72999999999999	0.0
C 	51.64975508170391	45.43999999999998	0.0
C 	52.87951115507782	44.72999999999999	0.0
C 	54.10926722845172	45.43999999999999	0.0
C 	55.33902330182562	44.72999999999998	0.0
C 	56.568779375199526	45.43999999999998	0.0
C 	57.798535448573425	44.72999999999998	0.0
C 	59.02829152194734	45.43999999999999	0.0
C 	60.25804759532124	44.72999999999999	0.0
C 	61.48780366869514	45.43999999999999	0.0
C 	62.717559742069035	44.72999999999998	0.0
C 	63.94731581544294	45.43999999999998	0.0
C 	65.17707188881685	44.72999999999999	0.0
C 	66.40682796219075	45.43999999999998	0.0
C 	67.63658403556465	44.72999999999999	0.0
C 	68.86634010893856	45.43999999999999	0.0
C 	70.09609618231245	44.72999999999999	0.0
C 	71.32585225568636	45.43999999999998	0.0
C 	72.55560832906026	44.72999999999998	0.0
C 	73.78536440243417	45.43999999999999	0.0
C 	75.01512047580806	44.72999999999998	0.0
C 	76.24487654918198	45.43999999999999	0.0
C 	77.47463262255587	44.72999999999999	0.0
C 	78.70438869592978	45.43999999999999	0.0
C 	79.93414476930369	44.72999999999999	0.0
C 	81.16390084267758	45.43999999999998	0.0
C 	82.39365691605148	44.72999999999999	0.0
C 	83.62341298942538	45.43999999999998	0.0
C 	84.8531690627993	44.72999999999998	0.0
C 	86.08292513617319	45.43999999999998	0.0
C 	27.054633614225864	46.85999999999999	0.0
C 	28.28438968759977	47.56999999999999	0.0
C 	29.514145760973673	46.85999999999999	0.0
C 	30.74390183434758	47.56999999999999	0.0
C 	31.973657907721474	46.85999999999999	0.0
C 	33.20341398109538	47.56999999999999	0.0
C 	34.43317005446928	46.85999999999999	0.0
C 	35.662926127843185	47.56999999999999	0.0
C 	36.892682201217085	46.85999999999999	0.0
C 	38.122438274590984	47.56999999999999	0.0
C 	39.35219434796489	46.85999999999999	0.0
C 	40.581950421338796	47.56999999999999	0.0
C 	41.8117064947127	46.85999999999999	0.0
C 	43.0414625680866	47.56999999999999	0.0
C 	44.2712186414605	46.85999999999999	0.0
C 	45.500974714834406	47.56999999999999	0.0
C 	46.73073078820831	46.859999999999985	0.0
C 	47.960486861582204	47.569999999999986	0.0
C 	49.19024293495612	46.85999999999999	0.0
C 	50.41999900833002	47.56999999999999	0.0
C 	51.649755081703915	46.859999999999985	0.0
C 	52.87951115507782	47.569999999999986	0.0
C 	54.10926722845172	46.859999999999985	0.0
C 	55.339023301825634	47.56999999999999	0.0
C 	56.56877937519953	46.85999999999999	0.0
C 	57.79853544857344	47.56999999999999	0.0
C 	59.02829152194733	46.859999999999985	0.0
C 	60.25804759532124	47.569999999999986	0.0
C 	61.48780366869515	46.85999999999999	0.0
C 	62.71755974206904	47.569999999999986	0.0
C 	63.94731581544295	46.85999999999999	0.0
C 	65.17707188881685	47.56999999999999	0.0
C 	66.40682796219075	46.859999999999985	0.0
C 	67.63658403556465	47.569999999999986	0.0
C 	68.86634010893856	46.859999999999985	0.0
C 	70.09609618231246	47.56999999999999	0.0
C 	71.32585225568636	46.859999999999985	0.0
C 	72.55560832906028	47.56999999999999	0.0
C 	73.78536440243417	46.859999999999985	0.0
C 	75.01512047580808	47.569999999999986	0.0
C 	76.24487654918197	46.859999999999985	0.0
C 	77.47463262255587	47.569999999999986	0.0
C 	78.70438869592978	46.85999999999999	0.0
C 	79.93414476930367	47.569999999999986	0.0
C 	81.16390084267758	46.85999999999999	0.0
C 	82.39365691605148	47.56999999999999	0.0
C 	83.62341298942539	46.859999999999985	0.0
C 	84.8531690627993	47.569999999999986	0.0
C 	86.08292513617319	46.85999999999998	0.0
C 	87.31268120954711	47.569999999999986	0.0
C 	28.284389687599763	48.98999999999999	0.0
C 	29.51414576097367	49.69999999999999	0.0
C 	30.74390183434757	48.98999999999999	0.0
C 	31.973657907721478	49.69999999999999	0.0
C 	33.20341398109537	48.98999999999999	0.0
C 	34.43317005446928	49.69999999999999	0.0
C 	35.66292612784318	48.98999999999999	0.0
C 	36.892682201217085	49.69999999999999	0.0
C 	38.122438274590984	48.98999999999999	0.0
C 	39.35219434796488	49.69999999999999	0.0
C 	40.58195042133879	48.98999999999999	0.0
C 	41.811706494712695	49.69999999999999	0.0
C 	43.041462568086594	48.98999999999999	0.0
C 	44.2712186414605	49.69999999999999	0.0
C 	45.5009747148344	48.98999999999999	0.0
C 	46.730730788208305	49.69999999999998	0.0
C 	47.96048686158221	48.98999999999999	0.0
C 	49.1902429349561	49.69999999999998	0.0
C 	50.41999900833002	48.98999999999999	0.0
C 	51.64975508170392	49.69999999999999	0.0
C 	52.879511155077815	48.98999999999999	0.0
C 	54.10926722845172	49.69999999999999	0.0
C 	55.33902330182562	48.98999999999998	0.0
C 	56.56877937519953	49.69999999999999	0.0
C 	57.79853544857343	48.98999999999999	0.0
C 	59.02829152194734	49.69999999999999	0.0
C 	60.25804759532124	48.98999999999999	0.0
C 	61.487803668695136	49.69999999999999	0.0
C 	62.71755974206905	48.98999999999999	0.0
C 	63.94731581544294	49.69999999999998	0.0
C 	65.17707188881685	48.98999999999999	0.0
C 	66.40682796219075	49.69999999999999	0.0
C 	67.63658403556465	48.98999999999999	0.0
C 	68.86634010893856	49.69999999999999	0.0
C 	70.09609618231245	48.98999999999998	0.0
C 	71.32585225568637	49.69999999999999	0.0
C 	72.55560832906025	48.98999999999998	0.0
C 	73.78536440243417	49.69999999999999	0.0
C 	75.01512047580806	48.98999999999999	0.0
C 	76.24487654918197	49.69999999999999	0.0
C 	77.47463262255587	48.98999999999998	0.0
C 	78.70438869592978	49.69999999999998	0.0
C 	79.93414476930369	48.98999999999999	0.0
C 	81.16390084267758	49.69999999999998	0.0
C 	82.39365691605148	48.98999999999999	0.0
C 	83.62341298942539	49.69999999999999	0.0
C 	84.85316906279928	48.98999999999998	0.0
C 	86.08292513617319	49.69999999999998	0.0
C 	87.3126812095471	48.98999999999998	0.0
C 	88.542437282921	49.69999999999999	0.0
C 	29.51414576097367	51.11999999999999	0.0
C 	30.74390183434757	51.82999999999999	0.0
C 	31.973657907721474	51.11999999999999	0.0
C 	33.20341398109538	51.82999999999999	0.0
C 	34.43317005446928	51.11999999999999	0.0
C 	35.66292612784318	51.82999999999999	0.0
C 	36.892682201217085	51.11999999999999	0.0
C 	38.12243827459099	51.82999999999999	0.0
C 	39.35219434796489	51.12	0.0
C 	40.581950421338796	51.83	0.0
C 	41.811706494712695	51.11999999999999	0.0
C 	43.041462568086594	51.82999999999999	0.0
C 	44.2712186414605	51.12	0.0
C 	45.5009747148344	51.82999999999999	0.0
C 	46.73073078820831	51.11999999999999	0.0
C 	47.96048686158221	51.82999999999999	0.0
C 	49.19024293495611	51.11999999999999	0.0
C 	50.41999900833002	51.82999999999999	0.0
C 	51.649755081703915	51.11999999999998	0.0
C 	52.879511155077815	51.829999999999984	0.0
C 	54.10926722845171	51.11999999999999	0.0
C 	55.33902330182563	51.83	0.0
C 	56.568779375199526	51.11999999999999	0.0
C 	57.79853544857343	51.82999999999999	0.0
C 	59.02829152194733	51.11999999999999	0.0
C 	60.25804759532124	51.82999999999999	0.0
C 	61.48780366869514	51.11999999999999	0.0
C 	62.717559742069035	51.829999999999984	0.0
C 	63.94731581544295	51.11999999999999	0.0
C 	65.17707188881685	51.82999999999999	0.0
C 	66.40682796219075	51.11999999999999	0.0
C 	67.63658403556465	51.82999999999999	0.0
C 	68.86634010893854	51.11999999999998	0.0
C 	70.09609618231246	51.82999999999999	0.0
C 	71.32585225568636	51.11999999999999	0.0
C 	72.55560832906026	51.82999999999999	0.0
C 	73.78536440243417	51.11999999999999	0.0
C 	75.01512047580806	51.82999999999999	0.0
C 	76.24487654918198	51.11999999999999	0.0
C 	77.47463262255587	51.829999999999984	0.0
C 	78.70438869592978	51.11999999999999	0.0
C 	79.93414476930367	51.829999999999984	0.0
C 	81.16390084267758	51.11999999999999	0.0
C 	82.39365691605148	51.82999999999999	0.0
C 	83.62341298942538	51.11999999999998	0.0
C 	84.8531690627993	51.82999999999999	0.0
C 	86.08292513617319	51.11999999999998	0.0
C 	87.3126812095471	51.82999999999999	0.0
C 	88.542437282921	51.11999999999998	0.0
C 	89.7721933562949	51.829999999999984	0.0
C 	52.539768755225836	0.1558818379251985	2.15
C 	53.939883127865954	0.39269345826206753	2.15
C 	54.43485543506293	1.7236338833405551	2.15
C 	55.83496980770304	1.9604455036774138	2.15
C 	56.32994211490002	3.2913859287559015	2.15
C 	48.33942563730548	-0.5545530230853944	2.15
C 	49.7395400099456	-0.3177414027485323	2.15
C 	50.234512317142574	1.0131990223299518	2.15
C 	51.6346266897827	1.2500106426668207	2.15
C 	52.129598996979674	2.5809510677453047	2.15
C 	53.52971336961979	2.81776268808217	2.15
C 	54.02468567681677	4.148703113160654	2.15
C 	55.424800049456884	4.38551473349752	2.15
C 	55.91977235665386	5.716455158576004	2.15
C 	57.31988672929398	5.953266778912873	2.15
C 	57.81485903649095	7.2842072039913575	2.15
C 	59.214973409131076	7.521018824328226	2.15
C 	59.70994571632805	8.85195924940671	2.15
C 	46.034169199222234	0.30276416131935846	2.15
C 	47.434283571862345	0.5395757816562258	2.15
C 	47.92925587905932	1.8705162067347132	2.15
C 	49.32937025169943	2.1073278270715736	2.15
C 	49.82434255889641	3.438268252150061	2.15
C 	51.22445693153653	3.675079872486927	2.15
C 	51.71942923873351	5.0060202975654144	2.15
C 	53.11954361137363	5.242831917902279	2.15
C 	53.61451591857061	6.573772342980767	2.15
C 	55.01463029121073	6.810583963317622	2.15
C 	55.5096025984077	8.14152438839611	2.15
C 	56.909716971047814	8.378336008732983	2.15
C 	57.40468927824479	9.70927643381147	2.15
C 	58.80480365088491	9.946088054148332	2.15
C 	59.29977595808189	11.27702847922682	2.15
C 	60.699890330722006	11.513840099563678	2.15
C 	61.19486263791899	12.844780524642166	2.15
C 	41.83382608130188	-0.4076706996912314	2.15
C 	43.23394045394199	-0.17085907935437078	2.15
C 	43.72891276113897	1.1600813457241166	2.15
C 	45.12902713377909	1.3968929660609821	2.15
C 	45.623999440976064	2.7278333911394697	2.15
C 	47.02411381361619	2.964645011476333	2.15
C 	47.519086120813164	4.295585436554821	2.15
C 	48.919200493453275	4.532397056891681	2.15
C 	49.414172800650256	5.863337481970169	2.15
C 	50.814287173290374	6.100149102307034	2.15
C 	51.309259480487356	7.431089527385522	2.15
C 	52.70937385312747	7.6679011477223895	2.15
C 	53.20434616032445	8.998841572800877	2.15
C 	54.604460532964566	9.235653193137736	2.15
C 	55.09943284016154	10.566593618216222	2.15
C 	56.49954721280165	10.803405238553088	2.15
C 	56.99451951999863	12.134345663631576	2.15
C 	58.39463389263875	12.371157283968442	2.15
C 	58.88960619983573	13.702097709046928	2.15
C 	60.289720572475844	13.938909329383788	2.15
C 	60.78469287967282	15.269849754462275	2.15
C 	62.18480725231294	15.50666137479914	2.15
C 	62.67977955950992	16.83760179987763	2.15
C 	64.07989393215003	17.074413420214498	2.15
C 	64.57486623934702	18.405353845292986	2.15
C 	39.52856964321862	0.4496464847135184	2.15
C 	40.92868401585874	0.6864581050503854	2.15
C 	41.423656323055724	2.0173985301288697	2.15
C 	42.823770695695835	2.2542101504657337	2.15
C 	43.31874300289281	3.5851505755442177	2.15
C 	44.71885737553293	3.8219621958810883	2.15
C 	45.2138296827299	5.152902620959573	2.15
C 	46.61394405537002	5.389714241296441	2.15
C 	47.108916362567	6.720654666374926	2.15
C 	48.50903073520712	6.957466286711786	2.15
C 	49.00400304240409	8.28840671179027	2.15
C 	50.40411741504422	8.525218332127139	2.15
C 	50.89908972224119	9.856158757205623	2.15
C 	52.29920409488131	10.092970377542493	2.15
C 	52.794176402078286	11.423910802620977	2.15
C 	54.1942907747184	11.660722422957841	2.15
C 	54.68926308191538	12.991662848036325	2.15
C 	56.089377454555496	13.228474468373195	2.15
C 	56.58434976175248	14.55941489345168	2.15
C 	57.984464134392596	14.796226513788541	2.15
C 	58.47943644158957	16.127166938867028	2.15
C 	59.879550814229674	16.363978559203893	2.15
C 	60.374523121426655	17.69491898428238	2.15
C 	61.77463749406678	17.93173060461925	2.15
C 	62.269609801263755	19.26267102969773	2.15
C 	63.66972417390387	19.499482650034597	2.15
C 	64.16469648110085	20.830423075113085	2.15
C 	65.56481085374097	21.067234695449944	2.15
C 	66.05978316093795	22.398175120528432	2.15
C 	67.45989753357807	22.63498674086529	2.15
C 	67.95486984077505	23.965927165943775	2.15
C 	35.32822652529827	-0.26078837629707147	2.15
C 	36.72834089793839	-0.023976755960207718	2.15
C 	37.22331320513536	1.3069636691182798	2.15
C 	38.62342757777547	1.5437752894551404	2.15
C 	39.118399884972455	2.874715714533628	2.15
C 	40.51851425761257	3.1115273348704933	2.15
C 	41.01348656480955	4.442467759948981	2.15
C 	42.413600937449665	4.679279380285841	2.15
C 	42.90857324464665	6.010219805364329	2.15
C 	44.308687617286765	6.247031425701192	2.15
C 	44.803659924483746	7.57797185077968	2.15
C 	46.20377429712386	7.814783471116547	2.15
C 	46.69874660432084	9.145723896195035	2.15
C 	48.09886097696096	9.382535516531894	2.15
C 	48.59383328415793	10.713475941610382	2.15
C 	49.993947656798056	10.950287561947246	2.15
C 	50.48891996399503	12.281227987025732	2.15
C 	51.88903433663514	12.5180396073626	2.15
C 	52.38400664383212	13.848980032441087	2.15
C 	53.78412101647224	14.085791652777946	2.15
C 	54.27909332366922	15.416732077856434	2.15
C 	55.679207696309334	15.653543698193301	2.15
C 	56.17418000350631	16.984484123271788	2.15
C 	57.57429437614643	17.221295743608653	2.15
C 	58.06926668334341	18.55223616868714	2.15
C 	59.46938105598352	18.789047789024	2.15
C 	59.9643533631805	20.119988214102488	2.15
C 	61.36446773582062	20.356799834439354	2.15
C 	61.8594400430176	21.68774025951784	2.15
C 	63.25955441565771	21.924551879854707	2.15
C 	63.75452672285469	23.255492304933192	2.15
C 	65.15464109549481	23.49230392527005	2.15
C 	65.64961340269178	24.82324435034854	2.15
C 	67.0497277753319	25.060055970685397	2.15
C 	67.54470008252888	26.390996395763885	2.15
C 	68.944814455169	26.627808016100758	2.15
C 	69.43978676236597	27.958748441179246	2.15
C 	70.83990113500609	28.195560061516105	2.15
C 	71.33487344220308	29.526500486594593	2.15
C 	31.12788340737792	-0.9712232373076648	2.15
C 	32.52799778001803	-0.7344116169708009	2.15
C 	33.022970087215015	0.5965288081076866	2.15
C 	34.42308445985513	0.8333404284445487	2.15
C 	34.918056767052114	2.164280853523036	2.15
C 	36.318171139692225	2.4010924738599035	2.15
C 	36.8131434468892	3.732032898938391	2.15
C 	38.21325781952932	3.968844519275248	2.15
C 	38.70823012672629	5.2997849443537355	2.15
C 	40.10834449936641	5.536596564690603	2.15
C 	40.603316806563384	6.86753698976909	2.15
C 	42.0034311792035	7.104348610105949	2.15
C 	42.498403486400484	8.435289035184436	2.15
C 	43.8985178590406	8.672100655521303	2.15
C 	44.393490166237584	10.003041080599791	2.15
C 	45.7936045388777	10.239852700936655	2.15
C 	46.28857684607468	11.570793126015143	2.15
C 	47.688691218714794	11.807604746352004	2.15
C 	48.18366352591177	13.13854517143049	2.15
C 	49.58377789855189	13.375356791767356	2.15
C 	50.07875020574887	14.706297216845844	2.15
C 	51.478864578388986	14.943108837182708	2.15
C 	51.97383688558597	16.274049262261194	2.15
C 	53.37395125822608	16.510860882598056	2.15
C 	53.86892356542305	17.841801307676544	2.15
C 	55.26903793806317	18.07861292801341	2.15
C 	55.764010245260145	19.409553353091898	2.15
C 	57.16412461790027	19.646364973428764	2.15
C 	57.659096925097245	20.97730539850725	2.15
C 	59.059211297737356	21.21411701884411	2.15
C 	59.55418360493434	22.545057443922598	2.15
C 	60.954297977574456	22.781869064259464	2.15
C 	61.44927028477144	24.11280948933795	2.15
C 	62.84938465741155	24.349621109674818	2.15
C 	63.34435696460852	25.680561534753306	2.15
C 	64.74447133724864	25.91737315509016	2.15
C 	65.23944364444561	27.24831358016865	2.15
C 	66.63955801708573	27.485125200505507	2.15
C 	67.13453032428272	28.816065625583995	2.15
C 	68.53464469692284	29.05287724592087	2.15
C 	69.02961700411981	30.38381767099936	2.15
C 	70.42973137675993	30.620629291336215	2.15
C 	70.9247036839569	31.951569716414703	2.15
C 	72.32481805659702	32.18838133675156	2.15
C 	72.819790363794	33.51932176183005	2.15
C 	74.21990473643412	33.75613338216692	2.15
C 	74.71487704363109	35.08707380724541	2.15
C 	28.822626969294664	-0.11390605290291504	2.15
C 	30.22274134193478	0.12290556743395557	2.15
C 	30.717713649131753	1.4538459925124396	2.15
C 	32.11782802177188	1.6906576128493034	2.15
C 	32.61280032896885	3.0215980379277876	2.15
C 	34.01291470160897	3.2584096582646547	2.15
C 	34.507887008805945	4.589350083343139	2.15
C 	35.90800138144607	4.8261617036800075	2.15
C 	36.402973688643044	6.157102128758492	2.15
C 	37.803088061283155	6.393913749095356	2.15
C 	38.29806036848014	7.72485417417384	2.15
C 	39.69817474112025	7.961665794510707	2.15
C 	40.19314704831723	9.29260621958919	2.15
C 	41.59326142095734	9.529417839926055	2.15
C 	42.088233728154314	10.860358265004539	2.15
C 	43.48834810079444	11.097169885341408	2.15
C 	43.983320407991414	12.428110310419893	2.15
C 	45.38343478063154	12.664921930756762	2.15
C 	45.87840708782851	13.995862355835246	2.15
C 	47.27852146046863	14.232673976172107	2.15
C 	47.77349376766561	15.563614401250591	2.15
C 	49.17360814030573	15.80042602158746	2.15
C 	49.66858044750271	17.131366446665943	2.15
C 	51.068694820142824	17.368178067002813	2.15
C 	51.5636671273398	18.6991184920813	2.15
C 	52.963781499979916	18.935930112418156	2.15
C 	53.4587538071769	20.266870537496644	2.15
C 	54.858868179817016	20.503682157833516	2.15
C 	55.35384048701399	21.834622582911997	2.15
C 	56.75395485965411	22.071434203248863	2.15
C 	57.24892716685109	23.40237462832735	2.15
C 	58.6490415394912	23.639186248664213	2.15
C 	59.144013846688175	24.9701266737427	2.15
C 	60.5441282193283	25.20693829407957	2.15
C 	61.039100526525274	26.53787871915805	2.15
C 	62.439214899165385	26.774690339494917	2.15
C 	62.93418720636237	28.105630764573405	2.15
C 	64.33430157900249	28.342442384910264	2.15
C 	64.82927388619946	29.67338280998875	2.15
C 	66.22938825883958	29.91019443032561	2.15
C 	66.72436056603655	31.2411348554041	2.15
C 	68.12447493867667	31.47794647574097	2.15
C 	68.61944724587366	32.80888690081946	2.15
C 	70.01956161851378	33.04569852115632	2.15
C 	70.51453392571075	34.376638946234806	2.15
C 	71.91464829835085	34.613450566571665	2.15
C 	72.40962060554784	35.94439099165015	2.15
C 	73.80973497818796	36.181202611987025	2.15
C 	74.30470728538494	37.51214303706551	2.15
C 	75.70482165802505	37.74895465740237	2.15
C 	76.19979396522203	39.07989508248086	2.15
C 	77.59990833786215	39.31670670281772	2.15
C 	78.09488064505912	40.6476471278962	2.15
C 	24.622283851374313	-0.8243409139135065	2.15
C 	26.02239822401443	-0.5875292935766445	2.15
C 	26.51737053121141	0.7434111315018413	2.15
C 	27.91748490385152	0.9802227518387069	2.15
C 	28.412457211048498	2.3111631769171925	2.15
C 	29.81257158368862	2.54797479725406	2.15
C 	30.307543890885597	3.878915222332546	2.15
C 	31.70765826352571	4.115726842669411	2.15
C 	32.20263057072269	5.446667267747896	2.15
C 	33.60274494336281	5.6834788880847595	2.15
C 	34.09771725055978	7.014419313163247	2.15
C 	35.4978316231999	7.251230933500114	2.15
C 	35.99280393039688	8.582171358578602	2.15
C 	37.392918303037	8.81898297891546	2.15
C 	37.887890610233974	10.149923403993947	2.15
C 	39.28800498287409	10.386735024330815	2.15
C 	39.78297729007107	11.717675449409303	2.15
C 	41.183091662711185	11.95448706974616	2.15
C 	41.67806396990816	13.285427494824647	2.15
C 	43.07817834254828	13.522239115161515	2.15
C 	43.57315064974525	14.853179540240001	2.15
C 	44.97326502238537	15.089991160576867	2.15
C 	45.46823732958235	16.420931585655353	2.15
C 	46.86835170222247	16.657743205992215	2.15
C 	47.36332400941945	17.988683631070703	2.15
C 	48.76343838205957	18.225495251407565	2.15
C 	49.25841068925654	19.556435676486053	2.15
C 	50.65852506189667	19.79324729682292	2.15
C 	51.15349736909364	21.124187721901407	2.15
C 	52.553611741733754	21.360999342238266	2.15
C 	53.048584048930735	22.691939767316754	2.15
C 	54.448698421570846	22.928751387653623	2.15
C 	54.94367072876783	24.25969181273211	2.15
C 	56.343785101407946	24.496503433068973	2.15
C 	56.83875740860493	25.82744385814746	2.15
C 	58.23887178124503	26.06425547848432	2.15
C 	58.73384408844201	27.395195903562808	2.15
C 	60.13395846108213	27.632007523899674	2.15
C 	60.62893076827911	28.96294794897816	2.15
C 	62.02904514091922	29.199759569315027	2.15
C 	62.524017448116204	30.530699994393515	2.15
C 	63.92413182075632	30.767511614730374	2.15
C 	64.4191041279533	32.09845203980886	2.15
C 	65.81921850059342	32.33526366014572	2.15
C 	66.3141908077904	33.66620408522421	2.15
C 	67.71430518043051	33.90301570556108	2.15
C 	68.20927748762749	35.23395613063957	2.15
C 	69.6093918602676	35.47076775097643	2.15
C 	70.10436416746458	36.801708176054916	2.15
C 	71.5044785401047	37.038519796391775	2.15
C 	71.99945084730167	38.36946022147026	2.15
C 	73.39956521994179	38.60627184180713	2.15
C 	73.89453752713878	39.937212266885616	2.15
C 	75.29465189977888	40.17402388722248	2.15
C 	75.78962420697586	41.50496431230096	2.15
C 	77.18973857961599	41.741775932637836	2.15
C 	77.68471088681295	43.07271635771631	2.15
C 	22.317027413291054	0.0329762704912457	2.15
C 	23.717141785931172	0.2697878908281129	2.15
C 	24.21211409312815	1.6007283159065986	2.15
C 	25.612228465768265	1.8375399362434635	2.15
C 	26.107200772965243	3.168480361321949	2.15
C 	27.507315145605364	3.405291981658811	2.15
C 	28.002287452802342	4.736232406737297	2.15
C 	29.402401825442453	4.973044027074166	2.15
C 	29.89737413263943	6.30398445215265	2.15
C 	31.297488505279553	6.540796072489516	2.15
C 	31.79246081247653	7.871736497568003	2.15
C 	33.192575185116645	8.108548117904867	2.15
C 	33.68754749231362	9.439488542983351	2.15
C 	35.08766186495374	9.676300163320219	2.15
C 	35.58263417215072	11.007240588398702	2.15
C 	36.98274854479083	11.244052208735566	2.15
C 	37.47772085198781	12.57499263381405	2.15
C 	38.87783522462793	12.81180425415092	2.15
C 	39.37280753182491	14.142744679229404	2.15
C 	40.77292190446502	14.379556299566268	2.15
C 	41.267894211662	15.710496724644752	2.15
C 	42.668008584302115	15.947308344981618	2.15
C 	43.162980891499096	17.278248770060102	2.15
C 	44.56309526413921	17.51506039039697	2.15
C 	45.05806757133619	18.846000815475456	2.15
C 	46.45818194397631	19.082812435812322	2.15
C 	46.95315425117328	20.413752860890803	2.15
C 	48.353268623813406	20.65056448122767	2.15
C 	48.84824093101039	21.981504906306156	2.15
C 	50.248355303650506	22.21831652664303	2.15
C 	50.74332761084748	23.54925695172151	2.15
C 	52.1434419834876	23.786068572058376	2.15
C 	52.63841429068457	25.117008997136857	2.15
C 	54.03852866332469	25.353820617473723	2.15
C 	54.533500970521665	26.68476104255221	2.15
C 	55.93361534316179	26.92157266288908	2.15
C 	56.428587650358764	28.25251308796756	2.15
C 	57.828702022998876	28.48932470830443	2.15
C 	58.32367433019586	29.82026513338291	2.15
C 	59.723788702835975	30.057076753719777	2.15
C 	60.21876101003295	31.38801717879826	2.15
C 	61.61887538267307	31.624828799135138	2.15
C 	62.11384768987004	32.95576922421362	2.15
C 	63.51396206251017	33.192580844550484	2.15
C 	64.00893436970713	34.523521269628965	2.15
C 	65.40904874234727	34.760332889965824	2.15
C 	65.90402104954424	36.091273315044305	2.15
C 	67.30413542218436	36.32808493538119	2.15
C 	67.79910772938133	37.65902536045967	2.15
C 	69.19922210202145	37.89583698079654	2.15
C 	69.69419440921843	39.22677740587502	2.15
C 	71.09430878185854	39.463589026211885	2.15
C 	71.58928108905552	40.794529451290366	2.15
C 	72.98939546169564	41.03134107162724	2.15
C 	73.48436776889262	42.36228149670573	2.15
C 	74.88448214153273	42.599093117042585	2.15
C 	75.3794544487297	43.93003354212107	2.15
C 	76.77956882136982	44.16684516245793	2.15
C 	77.27454112856681	45.49778558753642	2.15
C 	18.116684295370703	-0.6774585905193475	2.15
C 	19.516798668010818	-0.4406469701824829	2.15
C 	20.011770975207796	0.890293454896003	2.15
C 	21.411885347847917	1.1271050752328668	2.15
C 	21.906857655044895	2.4580455003113526	2.15
C 	23.30697202768501	2.6948571206482206	2.15
C 	23.801944334881988	4.025797545726706	2.15
C 	25.20205870752211	4.262609166063569	2.15
C 	25.697031014719087	5.593549591142055	2.15
C 	27.0971453873592	5.8303612114789205	2.15
C 	27.592117694556176	7.161301636557407	2.15
C 	28.992232067196298	7.398113256894271	2.15
C 	29.487204374393276	8.729053681972758	2.15
C 	30.88731874703339	8.965865302309625	2.15
C 	31.382291054230365	10.29680572738811	2.15
C 	32.78240542687048	10.533617347724972	2.15
C 	33.277377734067464	11.864557772803458	2.15
C 	34.677492106707575	12.101369393140326	2.15
C 	35.17246441390456	13.432309818218814	2.15
C 	36.572578786544675	13.66912143855567	2.15
C 	37.06755109374165	15.000061863634158	2.15
C 	38.46766546638177	15.236873483971026	2.15
C 	38.96263777357875	16.567813909049512	2.15
C 	40.36275214621887	16.80462552938637	2.15
C 	40.85772445341584	18.13556595446486	2.15
C 	42.25783882605595	18.372377574801728	2.15
C 	42.75281113325293	19.703317999880213	2.15
C 	44.15292550589305	19.94012962021708	2.15
C 	44.647897813090026	21.271070045295566	2.15
C 	46.04801218573014	21.507881665632425	2.15
C 	46.54298449292712	22.838822090710913	2.15
C 	47.94309886556724	23.07563371104778	2.15
C 	48.43807117276422	24.406574136126267	2.15
C 	49.83818554540434	24.64338575646313	2.15
C 	50.333157852601325	25.974326181541617	2.15
C 	51.733272225241436	26.21113780187848	2.15
C 	52.22824453243841	27.542078226956967	2.15
C 	53.62835890507852	27.778889847293833	2.15
C 	54.1233312122755	29.10983027237232	2.15
C 	55.52344558491562	29.346641892709187	2.15
C 	56.0184178921126	30.677582317787675	2.15
C 	57.41853226475271	30.914393938124533	2.15
C 	57.91350457194969	32.24533436320302	2.15
C 	59.31361894458981	32.48214598353989	2.15
C 	59.80859125178679	33.813086408618375	2.15
C 	61.208705624426905	34.04989802895524	2.15
C 	61.70367793162388	35.38083845403373	2.15
C 	63.103792304264	35.61765007437059	2.15
C 	63.59876461146098	36.948590499449075	2.15
C 	64.9988789841011	37.185402119785934	2.15
C 	65.49385129129807	38.51634254486442	2.15
C 	66.89396566393819	38.753154165201295	2.15
C 	67.38893797113516	40.08409459027978	2.15
C 	68.78905234377528	40.32090621061664	2.15
C 	69.28402465097226	41.65184663569512	2.15
C 	70.68413902361237	41.88865825603199	2.15
C 	71.17911133080935	43.21959868111047	2.15
C 	72.57922570344948	43.45641030144734	2.15
C 	73.07419801064646	44.78735072652583	2.15
C 	74.47431238328656	45.024162346862695	2.15
C 	74.96928469048355	46.35510277194118	2.15
C 	76.36939906312367	46.591914392278035	2.15
C 	15.811427857287448	0.17985859388540965	2.15
C 	17.211542229927566	0.41667021422227435	2.15
C 	17.706514537124544	1.7476106393007602	2.15
C 	19.10662890976466	1.984422259637624	2.15
C 	19.601601216961637	3.31536268471611	2.15
C 	21.00171558960175	3.5521743050529744	2.15
C 	21.49668789679873	4.88311473013146	2.15
C 	22.89680226943885	5.119926350468328	2.15
C 	23.39177457663583	6.450866775546813	2.15
C 	24.791888949275943	6.687678395883678	2.15
C 	25.28686125647292	8.018618820962162	2.15
C 	26.68697562911304	8.255430441299028	2.15
C 	27.181947936310017	9.586370866377514	2.15
C 	28.582062308950135	9.823182486714382	2.15
C 	29.077034616147113	11.15412291179287	2.15
C 	30.477148988787228	11.390934532129732	2.15
C 	30.972121295984206	12.721874957208215	2.15
C 	32.37223566862432	12.95868657754508	2.15
C 	32.8672079758213	14.289627002623568	2.15
C 	34.26732234846142	14.526438622960436	2.15
C 	34.762294655658394	15.857379048038924	2.15
C 	36.16240902829851	16.09419066837578	2.15
C 	36.65738133549549	17.42513109345427	2.15
C 	38.057495708135605	17.661942713791134	2.15
C 	38.552468015332586	18.992883138869622	2.15
C 	39.9525823879727	19.22969475920648	2.15
C 	40.44755469516968	20.56063518428497	2.15
C 	41.8476690678098	20.797446804621835	2.15
C 	42.34264137500677	22.128387229700323	2.15
C 	43.74275574764689	22.36519885003719	2.15
C 	44.23772805484387	23.696139275115677	2.15
C 	45.63784242748398	23.93295089545253	2.15
C 	46.13281473468096	25.26389132053102	2.15
C 	47.53292910732108	25.500702940867885	2.15
C 	48.02790141451806	26.831643365946373	2.15
C 	49.428015787158174	27.068454986283243	2.15
C 	49.922988094355155	28.399395411361727	2.15
C 	51.32310246699527	28.636207031698586	2.15
C 	51.818074774192254	29.967147456777074	2.15
C 	53.218189146832366	30.20395907711394	2.15
C 	53.71316145402935	31.534899502192427	2.15
C 	55.113275826669465	31.771711122529293	2.15
C 	55.60824813386645	33.10265154760778	2.15
C 	57.00836250650656	33.33946316794464	2.15
C 	57.50333481370353	34.67040359302313	2.15
C 	58.90344918634366	34.90721521335999	2.15
C 	59.39842149354063	36.23815563843848	2.15
C 	60.79853586618074	36.474967258775344	2.15
C 	61.293508173377724	37.80590768385383	2.15
C 	62.69362254601784	38.04271930419069	2.15
C 	63.18859485321482	39.37365972926918	2.15
C 	64.58870922585494	39.61047134960604	2.15
C 	65.08368153305192	40.941411774684525	2.15
C 	66.48379590569203	41.1782233950214	2.15
C 	66.97876821288901	42.509163820099886	2.15
C 	68.37888258552913	42.745975440436744	2.15
C 	68.8738548927261	44.076915865515225	2.15
C 	70.27396926536622	44.3137274858521	2.15
C 	70.7689415725632	45.64466791093057	2.15
C 	72.16905594520331	45.881479531267445	2.15
C 	11.611084739367097	-0.5305762671251874	2.15
C 	13.011199112007215	-0.29376464678832226	2.15
C 	13.506171419204193	1.0371757782901636	2.15
C 	14.90628579184431	1.27398739862703	2.15
C 	15.401258099041288	2.604927823705516	2.15
C 	16.801372471681404	2.8417394440423798	2.15
C 	17.29634477887838	4.1726798691208655	2.15
C 	18.6964591515185	4.40949148945773	2.15
C 	19.191431458715478	5.740431914536216	2.15
C 	20.591545831355592	5.97724353487308	2.15
C 	21.08651813855257	7.308183959951566	2.15
C 	22.486632511192685	7.544995580288433	2.15
C 	22.981604818389663	8.875936005366917	2.15
C 	24.381719191029784	9.112747625703783	2.15
C 	24.876691498226762	10.44368805078227	2.15
C 	26.276805870866877	10.680499671119133	2.15
C 	26.771778178063855	12.011440096197617	2.15
C 	28.171892550703973	12.248251716534487	2.15
C 	28.66686485790095	13.579192141612971	2.15
C 	30.066979230541065	13.816003761949837	2.15
C 	30.561951537738043	15.146944187028325	2.15
C 	31.96206591037816	15.383755807365187	2.15
C 	32.45703821757514	16.71469623244367	2.15
C 	33.85715259021526	16.95150785278054	2.15
C 	34.35212489741223	18.282448277859025	2.15
C 	35.75223927005235	18.519259898195887	2.15
C 	36.247211577249324	19.850200323274372	2.15
C 	37.64732594988944	20.08701194361124	2.15
C 	38.14229825708642	21.417952368689726	2.15
C 	39.542412629726535	21.65476398902659	2.15
C 	40.037384936923516	22.985704414105072	2.15
C 	41.437499309563634	23.222516034441938	2.15
C 	41.93247161676061	24.553456459520426	2.15
C 	43.332585989400734	24.7902680798573	2.15
C 	43.82755829659771	26.12120850493578	2.15
C 	45.227672669237826	26.358020125272645	2.15
C 	45.7226449764348	27.688960550351126	2.15
C 	47.12275934907492	27.92577217068799	2.15
C 	47.61773165627189	29.256712595766476	2.15
C 	49.01784602891202	29.49352421610335	2.15
C 	49.51281833610899	30.82446464118183	2.15
C 	50.9129327087491	31.061276261518696	2.15
C 	51.407905015946085	32.39221668659718	2.15
C 	52.8080193885862	32.629028306934046	2.15
C 	53.30299169578318	33.959968732012534	2.15
C 	54.7031060684233	34.1967803523494	2.15
C 	55.19807837562028	35.52772077742788	2.15
C 	56.598192748260395	35.764532397764754	2.15
C 	57.09316505545737	37.095472822843234	2.15
C 	58.49327942809749	37.3322844431801	2.15
C 	58.98825173529447	38.66322486825858	2.15
C 	60.38836610793458	38.90003648859546	2.15
C 	60.88333841513156	40.23097691367394	2.15
C 	62.28345278777168	40.4677885340108	2.15
C 	62.778425094968654	41.79872895908928	2.15
C 	64.17853946760877	42.03554057942615	2.15
C 	64.67351177480575	43.36648100450463	2.15
C 	66.07362614744586	43.60329262484151	2.15
C 	66.56859845464285	44.934233049919996	2.15
C 	67.96871282728297	45.171044670256855	2.15
C 	68.46368513447995	46.50198509533534	2.15
C 	69.86379950712005	46.7387967156722	2.15
C 	9.30582830128384	0.3267409172795691	2.15
C 	10.705942673923959	0.5635525376164334	2.15
C 	11.200914981120937	1.8944929626949192	2.15
C 	12.601029353761055	2.1313045830317847	2.15
C 	13.096001660958033	3.4622450081102705	2.15
C 	14.496116033598149	3.6990566284471353	2.15
C 	14.991088340795127	5.029997053525623	2.15
C 	16.39120271343524	5.266808673862486	2.15
C 	16.88617502063222	6.597749098940973	2.15
C 	18.286289393272337	6.834560719277835	2.15
C 	18.781261700469315	8.165501144356323	2.15
C 	20.181376073109433	8.402312764693185	2.15
C 	20.67634838030641	9.733253189771673	2.15
C 	22.076462752946526	9.97006481010854	2.15
C 	22.571435060143504	11.301005235187025	2.15
C 	23.97154943278362	11.53781685552389	2.15
C 	24.466521739980596	12.868757280602377	2.15
C 	25.866636112620718	13.10556890093924	2.15
C 	26.361608419817696	14.436509326017726	2.15
C 	27.76172279245781	14.673320946354593	2.15
C 	28.256695099654788	16.00426137143308	2.15
C 	29.656809472294906	16.241072991769943	2.15
C 	30.151781779491884	17.57201341684843	2.15
C 	31.551896152132	17.808825037185294	2.15
C 	32.04686845932898	19.13976546226378	2.15
C 	33.446982831969095	19.376577082600647	2.15
C 	33.941955139166076	20.707517507679132	2.15
C 	35.34206951180619	20.944329128015994	2.15
C 	35.83704181900317	22.27526955309448	2.15
C 	37.23715619164328	22.512081173431348	2.15
C 	37.73212849884026	23.843021598509836	2.15
C 	39.13224287148037	24.079833218846694	2.15
C 	39.62721517867735	25.410773643925182	2.15
C 	41.02732955131747	25.647585264262045	2.15
C 	41.522301858514446	26.978525689340533	2.15
C 	42.92241623115457	27.2153373096774	2.15
C 	43.417388538351545	28.546277734755886	2.15
C 	44.817502910991664	28.78308935509275	2.15
C 	45.31247521818864	30.114029780171236	2.15
C 	46.71258959082876	30.350841400508095	2.15
C 	47.207561898025745	31.681781825586583	2.15
C 	48.60767627066585	31.918593445923452	2.15
C 	49.10264857786283	33.24953387100194	2.15
C 	50.50276295050295	33.486345491338795	2.15
C 	50.99773525769992	34.81728591641728	2.15
C 	52.39784963034004	35.05409753675415	2.15
C 	52.892821937537015	36.38503796183264	2.15
C 	54.29293631017715	36.6218495821695	2.15
C 	54.78790861737412	37.95279000724799	2.15
C 	56.18802299001423	38.18960162758485	2.15
C 	56.682995297211214	39.52054205266334	2.15
C 	58.08310966985133	39.7573536730002	2.15
C 	58.57808197704831	41.08829409807869	2.15
C 	59.978196349688425	41.32510571841556	2.15
C 	60.4731686568854	42.656046143494045	2.15
C 	61.87328302952552	42.892857763830904	2.15
C 	62.3682553367225	44.22379818890939	2.15
C 	63.76836970936262	44.46060980924625	2.15
C 	64.26334201655959	45.79155023432474	2.15
C 	65.66345638919971	46.02836185466161	2.15
C 	5.10548518336349	-0.3836939437310258	2.15
C 	6.505599556003608	-0.14688232339416113	2.15
C 	7.0005718632005856	1.1840581016843246	2.15
C 	8.400686235840702	1.4208697220211899	2.15
C 	8.89565854303768	2.7518101470996754	2.15
C 	10.295772915677796	2.98862176743654	2.15
C 	10.790745222874774	4.319562192515026	2.15
C 	12.190859595514892	4.556373812851891	2.15
C 	12.68583190271187	5.887314237930378	2.15
C 	14.085946275351986	6.124125858267243	2.15
C 	14.580918582548964	7.4550662833457295	2.15
C 	15.98103295518908	7.6918779036825935	2.15
C 	16.476005262386057	9.02281832876108	2.15
C 	17.876119635026175	9.259629949097944	2.15
C 	18.371091942223153	10.59057037417643	2.15
C 	19.771206314863267	10.827381994513296	2.15
C 	20.266178622060245	12.15832241959178	2.15
C 	21.666292994700367	12.39513403992865	2.15
C 	22.16126530189734	13.726074465007134	2.15
C 	23.56137967453746	13.962886085343994	2.15
C 	24.056351981734437	15.293826510422482	2.15
C 	25.45646635437455	15.530638130759348	2.15
C 	25.95143866157153	16.861578555837834	2.15
C 	27.35155303421165	17.0983901761747	2.15
C 	27.84652534140863	18.429330601253184	2.15
C 	29.246639714048744	18.66614222159005	2.15
C 	29.74161202124572	19.997082646668535	2.15
C 	31.14172639388584	20.2338942670054	2.15
C 	31.636698701082818	21.564834692083885	2.15
C 	33.03681307372293	21.801646312420754	2.15
C 	33.531785380919914	23.132586737499242	2.15
C 	34.931899753560025	23.3693983578361	2.15
C 	35.426872060757006	24.70033878291459	2.15
C 	36.826986433397124	24.937150403251454	2.15
C 	37.3219587405941	26.268090828329935	2.15
C 	38.72207311323422	26.5049024486668	2.15
C 	39.21704542043119	27.835842873745282	2.15
C 	40.61715979307131	28.072654494082155	2.15
C 	41.11213210026829	29.403594919160643	2.15
C 	42.5122464729084	29.64040653949751	2.15
C 	43.00721878010538	30.97134696457599	2.15
C 	44.4073331527455	31.208158584912855	2.15
C 	44.902305459942475	32.53909900999133	2.15
C 	46.3024198325826	32.775910630328205	2.15
C 	46.797392139779575	34.10685105540669	2.15
C 	48.1975065124197	34.34366267574356	2.15
C 	48.692478819616674	35.67460310082204	2.15
C 	50.092593192256786	35.911414721158906	2.15
C 	50.58756549945376	37.24235514623739	2.15
C 	51.98767987209388	37.47916676657426	2.15
C 	52.48265217929085	38.81010719165275	2.15
C 	53.88276655193097	39.04691881198961	2.15
C 	54.37773885912795	40.377859237068094	2.15
C 	55.77785323176807	40.61467085740496	2.15
C 	56.272825538965044	41.94561128248344	2.15
C 	57.67293991160517	42.18242290282031	2.15
C 	58.167912218802144	43.5133633278988	2.15
C 	59.56802659144226	43.75017494823567	2.15
C 	60.062998898639236	45.08111537331415	2.15
C 	61.463113271279354	45.317926993651014	2.15
C 	61.95808557847633	46.648867418729495	2.15
C 	63.35819995111645	46.88567903906635	2.15
C 	2.800228745280234	0.47362324067373	2.15
C 	4.200343117920351	0.7104348610105949	2.15
C 	4.695315425117329	2.041375286089081	2.15
C 	6.095429797757446	2.2781869064259457	2.15
C 	6.590402104954424	3.6091273315044314	2.15
C 	7.99051647759454	3.8459389518412967	2.15
C 	8.485488784791517	5.176879376919783	2.15
C 	9.885603157431634	5.413690997256648	2.15
C 	10.380575464628611	6.744631422335131	2.15
C 	11.78068983726873	6.981443042671997	2.15
C 	12.275662144465707	8.312383467750484	2.15
C 	13.675776517105826	8.54919508808735	2.15
C 	14.170748824302803	9.880135513165834	2.15
C 	15.57086319694292	10.1169471335027	2.15
C 	16.065835504139898	11.447887558581185	2.15
C 	17.465949876780012	11.68469917891805	2.15
C 	17.96092218397699	13.015639603996535	2.15
C 	19.36103655661711	13.2524512243334	2.15
C 	19.856008863814086	14.583391649411885	2.15
C 	21.2561232364542	14.820203269748754	2.15
C 	21.75109554365118	16.151143694827237	2.15
C 	23.1512099162913	16.387955315164103	2.15
C 	23.646182223488278	17.718895740242587	2.15
C 	25.046296596128393	17.955707360579453	2.15
C 	25.54126890332537	19.286647785657937	2.15
C 	26.941383275965485	19.523459405994807	2.15
C 	27.436355583162463	20.85439983107329	2.15
C 	28.836469955802585	21.091211451410157	2.15
C 	29.331442262999563	22.42215187648864	2.15
C 	30.731556635639677	22.658963496825507	2.15
C 	31.226528942836655	23.98990392190399	2.15
C 	32.62664331547677	24.226715542240857	2.15
C 	33.12161562267375	25.557655967319345	2.15
C 	34.52172999531386	25.794467587656204	2.15
C 	35.01670230251084	27.12540801273469	2.15
C 	36.41681667515096	27.362219633071557	2.15
C 	36.911788982347936	28.693160058150045	2.15
C 	38.311903354988054	28.929971678486904	2.15
C 	38.80687566218503	30.260912103565392	2.15
C 	40.20699003482515	30.497723723902258	2.15
C 	40.70196234202213	31.828664148980746	2.15
C 	42.10207671466224	32.06547576931761	2.15
C 	42.59704902185922	33.396416194396096	2.15
C 	43.99716339449933	33.633227814732955	2.15
C 	44.49213570169631	34.96416823981144	2.15
C 	45.89225007433643	35.20097986014831	2.15
C 	46.38722238153341	36.531920285226796	2.15
C 	47.78733675417353	36.76873190556366	2.15
C 	48.28230906137051	38.09967233064215	2.15
C 	49.68242343401063	38.33648395097901	2.15
C 	50.177395741207604	39.6674243760575	2.15
C 	51.577510113847715	39.90423599639436	2.15
C 	52.0724824210447	41.23517642147285	2.15
C 	53.472596793684815	41.471988041809716	2.15
C 	53.967569100881796	42.802928466888204	2.15
C 	55.36768347352191	43.03974008722506	2.15
C 	55.86265578071888	44.37068051230355	2.15
C 	57.26277015335901	44.60749213264042	2.15
C 	57.75774246055599	45.938432557718905	2.15
C 	59.1578568331961	46.17524417805577	2.15
C 	1.895086679837095	1.5677520454153508	2.15
C 	2.3900589870340725	2.8986924704938364	2.15
C 	3.79017335967419	3.1355040908307017	2.15
C 	4.285145666871167	4.4664445159091875	2.15
C 	5.6852600395112844	4.703256136246052	2.15
C 	6.180232346708262	6.0341965613245385	2.15
C 	7.58034671934838	6.271008181661403	2.15
C 	8.075319026545356	7.601948606739889	2.15
C 	9.475433399185473	7.838760227076754	2.15
C 	9.97040570638245	9.169700652155239	2.15
C 	11.370520079022569	9.406512272492105	2.15
C 	11.865492386219547	10.73745269757059	2.15
C 	13.265606758859663	10.974264317907457	2.15
C 	13.76057906605664	12.305204742985941	2.15
C 	15.16069343869676	12.542016363322807	2.15
C 	15.655665745893737	13.872956788401293	2.15
C 	17.055780118533853	14.109768408738157	2.15
C 	17.55075242573083	15.440708833816641	2.15
C 	18.950866798370946	15.677520454153507	2.15
C 	19.445839105567924	17.008460879231993	2.15
C 	20.845953478208042	17.24527249956886	2.15
C 	21.34092578540502	18.576212924647347	2.15
C 	22.741040158045138	18.81302454498421	2.15
C 	23.236012465242116	20.143964970062694	2.15
C 	24.636126837882234	20.38077659039956	2.15
C 	25.13109914507921	21.711717015478047	2.15
C 	26.531213517719326	21.948528635814913	2.15
C 	27.026185824916304	23.2794690608934	2.15
C 	28.42630019755642	23.516280681230263	2.15
C 	28.921272504753397	24.847221106308748	2.15
C 	30.32138687739352	25.084032726645614	2.15
C 	30.816359184590496	26.4149731517241	2.15
C 	32.216473557230614	26.651784772060967	2.15
C 	32.71144586442759	27.982725197139455	2.15
C 	34.11156023706771	28.219536817476314	2.15
C 	34.60653254426468	29.550477242554802	2.15
C 	36.0066469169048	29.787288862891668	2.15
C 	36.50161922410178	31.118229287970156	2.15
C 	37.90173359674189	31.355040908307014	2.15
C 	38.39670590393887	32.6859813333855	2.15
C 	39.796820276578984	32.922792953722364	2.15
C 	40.291792583775965	34.25373337880085	2.15
C 	41.691906956416084	34.49054499913772	2.15
C 	42.18687926361306	35.821485424216206	2.15
C 	43.586993636253176	36.058297044553065	2.15
C 	44.08196594345015	37.38923746963155	2.15
C 	45.482080316090276	37.62604908996842	2.15
C 	45.97705262328725	38.95698951504691	2.15
C 	47.37716699592737	39.19380113538377	2.15
C 	47.87213930312435	40.52474156046226	2.15
C 	49.27225367576447	40.76155318079912	2.15
C 	49.76722598296144	42.09249360587761	2.15
C 	51.16734035560155	42.32930522621447	2.15
C 	51.662312662798534	43.66024565129296	2.15
C 	53.06242703543865	43.897057271629826	2.15
C 	53.55739934263563	45.227997696708314	2.15
C 	54.95751371527574	45.46480931704517	2.15
C 	3.380003601428028	5.560573320650808	2.15
C 	3.874975908625006	6.891513745729294	2.15
C 	5.275090281265124	7.128325366066159	2.15
C 	5.7700625884621015	8.459265791144645	2.15
C 	7.170176961102217	8.69607741148151	2.15
C 	7.665149268299196	10.027017836559997	2.15
C 	9.065263640939312	10.26382945689686	2.15
C 	9.56023594813629	11.594769881975346	2.15
C 	10.960350320776408	11.831581502312211	2.15
C 	11.455322627973384	13.162521927390696	2.15
C 	12.855437000613502	13.399333547727561	2.15
C 	13.35040930781048	14.73027397280605	2.15
C 	14.750523680450595	14.967085593142912	2.15
C 	15.245495987647574	16.2980260182214	2.15
C 	16.64561036028769	16.534837638558262	2.15
C 	17.14058266748467	17.86577806363675	2.15
C 	18.540697040124783	18.102589683973612	2.15
C 	19.035669347321765	19.4335301090521	2.15
C 	20.43578371996188	19.670341729388966	2.15
C 	20.930756027158857	21.001282154467454	2.15
C 	22.330870399798975	21.238093774804316	2.15
C 	22.825842706995953	22.569034199882804	2.15
C 	24.22595707963607	22.805845820219666	2.15
C 	24.72092938683305	24.136786245298154	2.15
C 	26.121043759473167	24.37359786563502	2.15
C 	26.616016066670145	25.704538290713504	2.15
C 	28.01613043931026	25.94134991105037	2.15
C 	28.511102746507238	27.272290336128854	2.15
C 	29.911217119147352	27.509101956465724	2.15
C 	30.40618942634433	28.840042381544205	2.15
C 	31.80630379898445	29.076854001881074	2.15
C 	32.301276106181426	30.407794426959555	2.15
C 	33.701390478821544	30.644606047296424	2.15
C 	34.19636278601852	31.9755464723749	2.15
C 	35.59647715865864	32.212358092711774	2.15
C 	36.09144946585562	33.543298517790255	2.15
C 	37.49156383849573	33.78011013812712	2.15
C 	37.98653614569271	35.1110505632056	2.15
C 	39.38665051833283	35.347862183542475	2.15
C 	39.8816228255298	36.678802608620956	2.15
C 	41.28173719816992	36.91561422895783	2.15
C 	41.776709505366895	38.24655465403631	2.15
C 	43.17682387800701	38.483366274373175	2.15
C 	43.67179618520399	39.814306699451656	2.15
C 	45.07191055784411	40.05111831978853	2.15
C 	45.56688286504109	41.38205874486701	2.15
C 	46.966997237681205	41.61887036520388	2.15
C 	47.46196954487819	42.94981079028236	2.15
C 	48.8620839175183	43.18662241061923	2.15
C 	49.35705622471528	44.51756283569771	2.15
C 	50.7571705973554	44.75437445603458	2.15
C 	51.25214290455237	46.085314881113064	2.15
C 	52.65225727719249	46.32212650144994	2.15
C 	6.760007202856056	11.121146641301616	2.15
C 	7.254979510053034	12.452087066380102	2.15
C 	8.65509388269315	12.688898686716966	2.15
C 	9.150066189890127	14.019839111795452	2.15
C 	10.550180562530247	14.256650732132318	2.15
C 	11.045152869727225	15.587591157210806	2.15
C 	12.445267242367342	15.824402777547672	2.15
C 	12.94023954956432	17.155343202626156	2.15
C 	14.340353922204434	17.39215482296302	2.15
C 	14.835326229401414	18.723095248041506	2.15
C 	16.23544060204153	18.959906868378372	2.15
C 	16.730412909238506	20.290847293456856	2.15
C 	18.130527281878624	20.52765891379372	2.15
C 	18.625499589075602	21.858599338872207	2.15
C 	20.02561396171572	22.095410959209072	2.15
C 	20.520586268912698	23.42635138428756	2.15
C 	21.920700641552816	23.663163004624423	2.15
C 	22.415672948749794	24.994103429702907	2.15
C 	23.81578732138991	25.230915050039773	2.15
C 	24.310759628586887	26.561855475118257	2.15
C 	25.710874001227005	26.798667095455123	2.15
C 	26.205846308423983	28.12960752053361	2.15
C 	27.6059606810641	28.366419140870477	2.15
C 	28.100932988261075	29.697359565948958	2.15
C 	29.50104736090119	29.934171186285823	2.15
C 	29.99601966809817	31.26511161136431	2.15
C 	31.396134040738286	31.501923231701177	2.15
C 	31.891106347935263	32.832863656779665	2.15
C 	33.29122072057538	33.069675277116524	2.15
C 	33.78619302777236	34.40061570219501	2.15
C 	35.186307400412474	34.63742732253188	2.15
C 	35.681279707609455	35.968367747610365	2.15
C 	37.08139408024957	36.205179367947224	2.15
C 	37.57636638744655	37.53611979302571	2.15
C 	38.976480760086666	37.77293141336258	2.15
C 	39.47145306728364	39.103871838441066	2.15
C 	40.87156743992376	39.34068345877793	2.15
C 	41.36653974712074	40.67162388385642	2.15
C 	42.76665411976085	40.90843550419328	2.15
C 	43.26162642695783	42.239375929271766	2.15
C 	44.66174079959795	42.47618754960863	2.15
C 	45.15671310679493	43.80712797468712	2.15
C 	46.55682747943504	44.043939595023986	2.15
C 	47.051799786632024	45.374880020102474	2.15
C 	48.45191415927214	45.61169164043933	2.15
C 	10.140010804284083	16.681719961952425	2.15
C 	10.634983111481063	18.012660387030913	2.15
C 	12.035097484121179	18.24947200736778	2.15
C 	12.530069791318157	19.580412432446263	2.15
C 	13.930184163958273	19.81722405278313	2.15
C 	14.425156471155251	21.148164477861613	2.15
C 	15.825270843795368	21.38497609819848	2.15
C 	16.320243150992344	22.715916523276963	2.15
C 	17.72035752363246	22.95272814361383	2.15
C 	18.215329830829436	24.283668568692313	2.15
C 	19.615444203469558	24.520480189029183	2.15
C 	20.110416510666536	25.851420614107667	2.15
C 	21.510530883306654	26.08823223444453	2.15
C 	22.00550319050363	27.419172659523014	2.15
C 	23.40561756314375	27.65598427985988	2.15
C 	23.900589870340728	28.986924704938367	2.15
C 	25.300704242980842	29.223736325275233	2.15
C 	25.795676550177824	30.55467675035372	2.15
C 	27.195790922817935	30.79148837069058	2.15
C 	27.690763230014916	32.12242879576907	2.15
C 	29.090877602655034	32.35924041610593	2.15
C 	29.585849909852012	33.69018084118442	2.15
C 	30.985964282492127	33.92699246152129	2.15
C 	31.480936589689104	35.257932886599775	2.15
C 	32.88105096232922	35.494744506936634	2.15
C 	33.3760232695262	36.82568493201512	2.15
C 	34.77613764216632	37.06249655235199	2.15
C 	35.27110994936329	38.393436977430476	2.15
C 	36.67122432200341	38.630248597767334	2.15
C 	37.166196629200385	39.96118902284582	2.15
C 	38.5663110018405	40.19800064318269	2.15
C 	39.061283309037485	41.528941068261176	2.15
C 	40.4613976816776	41.76575268859804	2.15
C 	40.95636998887458	43.09669311367653	2.15
C 	42.356484361514696	43.33350473401339	2.15
C 	42.85145666871167	44.664445159091876	2.15
C 	44.25157104135179	44.90125677942874	2.15
C 	44.74654334854877	46.23219720450723	2.15
C 	46.14665772118889	46.469008824844096	2.15
C 	13.520014405712113	22.24229328260323	2.15
C 	14.01498671290909	23.573233707681716	2.15
C 	15.415101085549207	23.81004532801858	2.15
C 	15.910073392746185	25.14098575309707	2.15
C 	17.3101877653863	25.377797373433932	2.15
C 	17.805160072583277	26.708737798512416	2.15
C 	19.205274445223395	26.945549418849286	2.15
C 	19.700246752420373	28.27648984392777	2.15
C 	21.100361125060495	28.513301464264636	2.15
C 	21.595333432257473	29.844241889343124	2.15
C 	22.995447804897587	30.081053509679982	2.15
C 	23.490420112094565	31.41199393475847	2.15
C 	24.890534484734683	31.648805555095343	2.15
C 	25.38550679193166	32.979745980173824	2.15
C 	26.785621164571776	33.21655760051069	2.15
C 	27.280593471768753	34.54749802558918	2.15
C 	28.680707844408868	34.78430964592604	2.15
C 	29.175680151605846	36.115250071004525	2.15
C 	30.575794524245968	36.3520616913414	2.15
C 	31.070766831442945	37.68300211641988	2.15
C 	32.47088120408306	37.919813736756744	2.15
C 	32.96585351128004	39.250754161835225	2.15
C 	34.36596788392015	39.48756578217209	2.15
C 	34.86094019111713	40.81850620725058	2.15
C 	36.26105456375725	41.05531782758744	2.15
C 	36.75602687095422	42.386258252665925	2.15
C 	38.15614124359435	42.6230698730028	2.15
C 	38.65111355079132	43.95401029808128	2.15
C 	40.05122792343144	44.190821918418145	2.15
C 	40.546200230628415	45.52176234349663	2.15
C 	41.94631460326853	45.75857396383349	2.15
C 	15.004931327303046	26.23511455783869	2.15
C 	15.499903634500022	27.566054982917173	2.15
C 	16.90001800714014	27.80286660325404	2.15
C 	17.394990314337118	29.133807028332527	2.15
C 	18.795104686977233	29.370618648669392	2.15
C 	19.290076994174214	30.70155907374788	2.15
C 	20.69019136681433	30.93837069408474	2.15
C 	21.185163674011307	32.26931111916323	2.15
C 	22.585278046651425	32.50612273950009	2.15
C 	23.080250353848406	33.83706316457858	2.15
C 	24.48036472648852	34.073874784915446	2.15
C 	24.9753370336855	35.404815209993934	2.15
C 	26.375451406325613	35.64162683033079	2.15
C 	26.87042371352259	36.97256725540928	2.15
C 	28.27053808616271	37.20937887574615	2.15
C 	28.765510393359687	38.540319300824635	2.15
C 	30.165624765999805	38.7771309211615	2.15
C 	30.660597073196783	40.10807134623999	2.15
C 	32.0607114458369	40.34488296657685	2.15
C 	32.555683753033875	41.675823391655335	2.15
C 	33.955798125673994	41.9126350119922	2.15
C 	34.45077043287097	43.24357543707069	2.15
C 	35.850884805511086	43.48038705740755	2.15
C 	36.34585711270806	44.811327482486035	2.15
C 	37.745971485348186	45.0481391028229	2.15
C 	38.24094379254516	46.37907952790138	2.15
C 	39.64105816518528	46.615891148238255	2.15
C 	18.384934928731074	31.795687878489503	2.15
C 	18.879907235928048	33.12662830356798	2.15
C 	20.280021608568166	33.36343992390485	2.15
C 	20.774993915765148	34.69438034898334	2.15
C 	22.175108288405262	34.9311919693202	2.15
C 	22.67008059560224	36.26213239439869	2.15
C 	24.070194968242358	36.49894401473556	2.15
C 	24.565167275439336	37.82988443981404	2.15
C 	25.96528164807945	38.0666960601509	2.15
C 	26.460253955276432	39.39763648522939	2.15
C 	27.860368327916547	39.63444810556626	2.15
C 	28.355340635113524	40.965388530644745	2.15
C 	29.755455007753643	41.20220015098161	2.15
C 	30.250427314950617	42.53314057606009	2.15
C 	31.650541687590735	42.76995219639696	2.15
C 	32.14551399478771	44.10089262147544	2.15
C 	33.54562836742783	44.33770424181231	2.15
C 	34.04060067462481	45.6686446668908	2.15
C 	35.44071504726492	45.90545628722766	2.15
C 	21.7649385301591	37.356261199140306	2.15
C 	22.259910837356077	38.687201624218794	2.15
C 	23.6600252099962	38.92401324455566	2.15
C 	24.154997517193173	40.25495366963414	2.15
C 	25.55511188983329	40.491765289971006	2.15
C 	26.05008419703027	41.822705715049494	2.15
C 	27.450198569670384	42.05951733538636	2.15
C 	27.945170876867362	43.39045776046484	2.15
C 	29.345285249507484	43.627269380801714	2.15
C 	29.840257556704458	44.958209805880195	2.15
C 	31.240371929344576	45.19502142621706	2.15
C 	31.73534423654155	46.52596185129554	2.15
C 	33.13545860918167	46.76277347163241	2.15
C 	25.14494213158713	42.91683451979111	2.15
C 	25.639914438784107	44.2477749448696	2.15
C 	27.040028811424225	44.48458656520646	2.15
C 	27.535001118621203	45.81552699028495	2.15
C 	28.93511549126132	46.05233861062182	2.15
H 	52.15982522364506	-0.8657555306209648	2.15
H 	54.63467527669203	-0.44716597636354055	2.15
H 	56.52976195652911	1.1205860690517973	2.15
H 	57.404677795306874	3.473163862676456	2.15
H 	47.9594821057247	-1.576190391631557	2.15
H 	50.434332158771674	-1.1576008373741413	2.15
H 	58.01467887812005	5.113407344287266	2.15
H 	59.90976555795716	6.681159389702624	2.15
H 	60.784681396734904	9.033737183327258	2.15
H 	45.654225667641455	-0.7188732072268046	2.15
H 	61.394682479548074	10.673980664938068	2.15
H 	62.26959831832584	13.026558458562716	2.15
H 	41.4538825497211	-1.429308068237393	2.15
H 	43.92873260276806	-1.0107185139799866	2.15
H 	62.87959940113902	14.666801940173531	2.15
H 	64.7746860809761	16.234553985588885	2.15
H 	65.64960191975386	18.587131779213546	2.15
H 	39.14862611163784	-0.5719908838326446	2.15
H 	66.25960300256703	20.227375260824328	2.15
H 	68.15468968240415	21.795127306239685	2.15
H 	69.02960552118189	24.147705099864325	2.15
H 	34.948282993717484	-1.2824257448432306	2.15
H 	37.42313304676446	-0.8638361905858175	2.15
H 	69.63960660399508	25.787948581475156	2.15
H 	71.53469328383215	27.35570062689049	2.15
H 	72.40960912260992	29.708278420515143	2.15
H 	30.74793987579714	-1.9928606058538274	2.15
H 	33.2227899288441	-1.574271051596416	2.15
H 	73.0196102054231	31.348521902125956	2.15
H 	74.91469688526018	32.91627394754131	2.15
H 	75.78961272403794	35.26885174116596	2.15
H 	28.442683437713892	-1.1355434214490798	2.15
H 	76.39961380685114	36.90909522277676	2.15
H 	78.29470048668821	38.4768472681921	2.15
H 	79.16961632546598	40.829425061816735	2.15
H 	24.242340319793534	-1.8459782824596687	2.15
H 	26.717190372840502	-1.4273887282022542	2.15
H 	78.7594465672198	43.25449429163686	2.15
H 	21.937083881710272	-0.9886610980549153	2.15
H 	78.34927680897366	45.67956352145697	2.15
H 	17.73674076378993	-1.6990959590655104	2.15
H 	20.21159081683689	-1.2805064048080945	2.15
H 	74.27449254165748	47.1949622065668	2.15
H 	76.74934259470444	47.613551760824194	2.15
H 	15.431484325706666	-0.8417787746607512	2.15
H 	72.54899947678409	46.90311689981361	2.15
H 	11.231141207786315	-1.552213635671348	2.15
H 	13.705991260833288	-1.1336240814139322	2.15
H 	67.76889298565388	47.34184452996096	2.15
H 	70.24374303870081	47.76043408421837	2.15
H 	8.925884769703062	-0.6948964512665926	2.15
H 	66.04339992078049	47.04999922320778	2.15
H 	4.725541651782711	-1.4053313122771875	2.15
H 	7.20039170482968	-0.9867417580197713	2.15
H 	61.263293429650254	47.488726853355104	2.15
H 	63.738143482697225	47.90731640761251	2.15
H 	2.4202852136994553	-0.5480141278724318	2.15
H 	57.06295031172992	46.77829199234452	2.15
H 	59.53780036477688	47.19688154660193	2.15
H 	0.8203509994302443	1.3859741114947999	2.15
H 	1.6952668382080005	3.7385519051194462	2.15
H 	55.337457246856516	46.48644668559133	2.15
H 	2.3052679210211777	5.378795386730256	2.15
H 	3.180183759798934	7.731373180354904	2.15
H 	5.075270439636031	9.299125225770258	2.15
H 	50.5573507557263	46.92517431573867	2.15
H 	53.03220080877326	47.3437638699961	2.15
H 	5.685271522449206	10.93936870738106	2.15
H 	6.560187361226963	13.291946501005713	2.15
H 	8.455274041064056	14.859698546421063	2.15
H 	48.83185769085293	46.63332900898549	2.15
H 	9.065275123877232	16.499942028031874	2.15
H 	9.940190962654993	18.852519821656525	2.15
H 	11.835277642492086	20.42027186707187	2.15
H 	44.0517511997227	47.07205663913284	2.15
H 	46.52660125276966	47.49064619339026	2.15
H 	12.445278725305261	22.060515348682678	2.15
H 	13.320194564083016	24.413093142307325	2.15
H 	42.32625813484931	46.78021133237965	2.15
H 	13.930195646896195	26.053336623918135	2.15
H 	14.805111485673946	28.40591441754278	2.15
H 	16.700198165511047	29.97366646295814	2.15
H 	37.546151643719085	47.21893896252699	2.15
H 	40.021001696766064	47.637528516784414	2.15
H 	17.310199248324224	31.613909944568956	2.15
H 	18.185115087101973	33.96648773819359	2.15
H 	20.08020176693908	35.53423978360895	2.15
H 	35.8206585788457	46.92709365577382	2.15
H 	20.69020284975225	37.17448326521974	2.15
H 	21.565118688530006	39.5270610588444	2.15
H 	23.4602053683671	41.09481310425975	2.15
H 	31.040552087715476	47.36582128592115	2.15
H 	33.51540214076245	47.784410840178566	2.15
H 	24.07020645118028	42.735056585870545	2.15
H 	24.94512228995804	45.08763437949521	2.15
H 	26.84020896979513	46.65538642491056	2.15
H 	29.3150590228421	47.073975979167976	2.15
