2344

C 	0.0	0.0	0.0
C 	1.2297560733739028	0.7099999999999999	0.0
C 	2.4595121467478056	-2.3647750424515833e-16	0.0
C 	3.689268220121708	0.7099999999999995	0.0
C 	4.919024293495611	-4.729550084903167e-16	0.0
C 	6.148780366869514	0.7099999999999993	0.0
C 	7.378536440243416	-7.09432512735475e-16	0.0
C 	8.60829251361732	0.7099999999999991	0.0
C 	9.838048586991222	-9.459100169806333e-16	0.0
C 	11.067804660365125	0.7099999999999989	0.0
C 	12.297560733739026	-1.1823875212257916e-15	0.0
C 	13.527316807112928	0.7099999999999986	0.0
C 	14.757072880486833	-1.41886502547095e-15	0.0
C 	15.986828953860735	0.7099999999999984	0.0
C 	17.21658502723464	-7.671641100159832e-16	0.0
C 	18.44634110060854	0.7099999999999982	0.0
C 	19.676097173982445	-1.8918200339612667e-15	0.0
C 	20.905853247356347	0.7099999999999989	0.0
C 	22.135609320730246	-2.128297538206425e-15	0.0
C 	23.36536539410415	0.7099999999999967	0.0
C 	24.59512146747805	-2.364775042451583e-15	0.0
C 	25.824877540851954	0.7099999999999983	0.0
C 	27.05463361422586	-8.248957072964913e-16	0.0
C 	28.284389687599763	0.7099999999999999	0.0
C 	29.514145760973665	-2.8377300509419e-15	0.0
C 	30.743901834347565	0.7099999999999961	0.0
C 	31.97365790772147	-3.0742075551870582e-15	0.0
C 	33.20341398109537	0.7099999999999976	0.0
C 	34.43317005446928	-1.5343282200319664e-15	0.0
C 	35.66292612784318	0.7099999999999992	0.0
C 	36.892682201217085	-1.7708057242771246e-15	0.0
C 	38.122438274590984	0.7099999999999972	0.0
C 	39.35219434796489	-3.783640067922533e-15	0.0
C 	40.58195042133879	0.7099999999999969	0.0
C 	41.811706494712695	-4.67403893367191e-16	0.0
C 	43.0414625680866	0.7100000000000002	0.0
C 	44.27121864146049	-4.25659507641285e-15	0.0
C 	45.5009747148344	0.7099999999999964	0.0
C 	46.730730788208305	-9.403589018575075e-16	0.0
C 	47.96048686158221	0.7099999999999997	0.0
C 	49.1902429349561	-4.729550084903166e-15	0.0
C 	50.41999900833001	0.709999999999996	0.0
C 	51.64975508170391	-1.413313910347824e-15	0.0
C 	52.879511155077815	0.7099999999999993	0.0
C 	54.10926722845172	-1.6497914145929826e-15	0.0
C 	55.33902330182562	0.7099999999999991	0.0
C 	56.56877937519952	-5.438982597638641e-15	0.0
C 	57.798535448573425	0.7099999999999953	0.0
C 	59.02829152194733	-5.6754601018838e-15	0.0
C 	60.25804759532124	0.709999999999995	0.0
C 	1.2297560733739028	2.1299999999999994	0.0
C 	2.4595121467478056	2.8399999999999994	0.0
C 	3.689268220121708	2.1299999999999994	0.0
C 	4.919024293495611	2.8399999999999994	0.0
C 	6.148780366869514	2.129999999999999	0.0
C 	7.378536440243416	2.839999999999999	0.0
C 	8.60829251361732	2.1299999999999986	0.0
C 	9.838048586991222	2.8399999999999985	0.0
C 	11.067804660365123	2.129999999999998	0.0
C 	12.297560733739028	2.839999999999999	0.0
C 	13.527316807112928	2.1299999999999977	0.0
C 	14.757072880486833	2.839999999999998	0.0
C 	15.986828953860735	2.129999999999998	0.0
C 	17.216585027234636	2.839999999999997	0.0
C 	18.446341100608542	2.129999999999998	0.0
C 	19.676097173982445	2.8399999999999985	0.0
C 	20.905853247356344	2.1299999999999977	0.0
C 	22.13560932073025	2.8399999999999985	0.0
C 	23.36536539410415	2.129999999999997	0.0
C 	24.595121467478055	2.839999999999997	0.0
C 	25.824877540851954	2.1299999999999963	0.0
C 	27.05463361422586	2.839999999999997	0.0
C 	28.284389687599763	2.129999999999998	0.0
C 	29.514145760973665	2.8399999999999985	0.0
C 	30.743901834347568	2.129999999999996	0.0
C 	31.97365790772147	2.8399999999999967	0.0
C 	33.20341398109537	2.129999999999996	0.0
C 	34.43317005446928	2.8399999999999963	0.0
C 	35.66292612784318	2.1299999999999972	0.0
C 	36.89268220121708	2.8399999999999963	0.0
C 	38.122438274590984	2.129999999999997	0.0
C 	39.35219434796489	2.8399999999999976	0.0
C 	40.58195042133879	2.1299999999999986	0.0
C 	41.81170649471269	2.839999999999996	0.0
C 	43.0414625680866	2.129999999999998	0.0
C 	44.2712186414605	2.8399999999999954	0.0
C 	45.5009747148344	2.129999999999998	0.0
C 	46.7307307882083	2.8399999999999954	0.0
C 	47.96048686158221	2.1299999999999977	0.0
C 	49.19024293495611	2.839999999999995	0.0
C 	50.41999900833001	2.1299999999999977	0.0
C 	51.64975508170391	2.8399999999999945	0.0
C 	52.879511155077815	2.1299999999999972	0.0
C 	54.10926722845171	2.8399999999999945	0.0
C 	55.33902330182563	2.130000000000001	0.0
C 	56.56877937519952	2.8399999999999976	0.0
C 	57.798535448573425	2.129999999999997	0.0
C 	59.028291521947324	2.839999999999994	0.0
C 	60.25804759532124	2.129999999999997	0.0
C 	61.487803668695136	2.8399999999999936	0.0
C 	2.4595121467478056	4.259999999999999	0.0
C 	3.689268220121708	4.969999999999999	0.0
C 	4.919024293495611	4.259999999999999	0.0
C 	6.148780366869514	4.969999999999999	0.0
C 	7.378536440243416	4.259999999999999	0.0
C 	8.60829251361732	4.969999999999999	0.0
C 	9.83804858699122	4.259999999999998	0.0
C 	11.067804660365125	4.969999999999999	0.0
C 	12.297560733739028	4.259999999999998	0.0
C 	13.52731680711293	4.969999999999998	0.0
C 	14.757072880486831	4.259999999999998	0.0
C 	15.986828953860735	4.969999999999998	0.0
C 	17.21658502723464	4.259999999999997	0.0
C 	18.446341100608542	4.969999999999998	0.0
C 	19.676097173982445	4.259999999999999	0.0
C 	20.905853247356347	4.969999999999997	0.0
C 	22.135609320730246	4.259999999999996	0.0
C 	23.365365394104153	4.969999999999997	0.0
C 	24.595121467478055	4.259999999999998	0.0
C 	25.824877540851958	4.969999999999997	0.0
C 	27.054633614225857	4.259999999999995	0.0
C 	28.28438968759976	4.969999999999996	0.0
C 	29.514145760973665	4.259999999999997	0.0
C 	30.743901834347568	4.969999999999997	0.0
C 	31.97365790772147	4.259999999999996	0.0
C 	33.20341398109537	4.969999999999995	0.0
C 	34.43317005446927	4.2599999999999945	0.0
C 	35.66292612784318	4.969999999999995	0.0
C 	36.892682201217085	4.259999999999996	0.0
C 	38.122438274590984	4.969999999999997	0.0
C 	39.35219434796489	4.259999999999997	0.0
C 	40.58195042133879	4.969999999999994	0.0
C 	41.81170649471269	4.259999999999995	0.0
C 	43.041462568086594	4.969999999999996	0.0
C 	44.2712186414605	4.259999999999997	0.0
C 	45.500974714834406	4.969999999999998	0.0
C 	46.7307307882083	4.259999999999994	0.0
C 	47.960486861582204	4.9699999999999935	0.0
C 	49.19024293495611	4.259999999999996	0.0
C 	50.41999900833001	4.969999999999997	0.0
C 	51.64975508170391	4.259999999999993	0.0
C 	52.879511155077815	4.9699999999999935	0.0
C 	54.10926722845171	4.259999999999996	0.0
C 	55.33902330182562	4.969999999999997	0.0
C 	56.568779375199526	4.259999999999996	0.0
C 	57.798535448573425	4.969999999999996	0.0
C 	59.028291521947324	4.259999999999995	0.0
C 	60.25804759532123	4.969999999999996	0.0
C 	61.487803668695136	4.259999999999992	0.0
C 	62.717559742069035	4.969999999999993	0.0
C 	3.6892682201217086	6.389999999999999	0.0
C 	4.919024293495611	7.099999999999999	0.0
C 	6.148780366869514	6.389999999999999	0.0
C 	7.378536440243416	7.099999999999999	0.0
C 	8.608292513617318	6.389999999999998	0.0
C 	9.838048586991222	7.099999999999999	0.0
C 	11.067804660365125	6.389999999999998	0.0
C 	12.297560733739028	7.099999999999998	0.0
C 	13.52731680711293	6.389999999999999	0.0
C 	14.757072880486833	7.099999999999998	0.0
C 	15.986828953860735	6.389999999999998	0.0
C 	17.216585027234636	7.099999999999997	0.0
C 	18.44634110060854	6.389999999999997	0.0
C 	19.676097173982445	7.099999999999998	0.0
C 	20.905853247356347	6.389999999999998	0.0
C 	22.13560932073025	7.099999999999997	0.0
C 	23.365365394104153	6.389999999999998	0.0
C 	24.59512146747805	7.099999999999997	0.0
C 	25.824877540851958	6.389999999999998	0.0
C 	27.054633614225857	7.099999999999997	0.0
C 	28.28438968759976	6.389999999999999	0.0
C 	29.514145760973662	7.099999999999997	0.0
C 	30.743901834347568	6.389999999999999	0.0
C 	31.97365790772147	7.099999999999998	0.0
C 	33.20341398109537	6.389999999999995	0.0
C 	34.43317005446928	7.099999999999994	0.0
C 	35.66292612784318	6.389999999999995	0.0
C 	36.892682201217085	7.099999999999996	0.0
C 	38.122438274590984	6.389999999999996	0.0
C 	39.35219434796489	7.099999999999997	0.0
C 	40.58195042133879	6.389999999999994	0.0
C 	41.811706494712695	7.099999999999995	0.0
C 	43.041462568086594	6.389999999999996	0.0
C 	44.2712186414605	7.099999999999997	0.0
C 	45.500974714834406	6.389999999999998	0.0
C 	46.730730788208305	7.099999999999998	0.0
C 	47.960486861582204	6.389999999999995	0.0
C 	49.19024293495611	7.099999999999996	0.0
C 	50.41999900833001	6.389999999999995	0.0
C 	51.649755081703915	7.099999999999996	0.0
C 	52.879511155077815	6.389999999999995	0.0
C 	54.10926722845172	7.099999999999996	0.0
C 	55.33902330182562	6.389999999999995	0.0
C 	56.568779375199526	7.099999999999995	0.0
C 	57.79853544857343	6.389999999999998	0.0
C 	59.02829152194733	7.099999999999999	0.0
C 	60.25804759532123	6.389999999999994	0.0
C 	61.487803668695136	7.099999999999995	0.0
C 	62.71755974206904	6.389999999999994	0.0
C 	63.94731581544294	7.099999999999995	0.0
C 	4.919024293495611	8.519999999999998	0.0
C 	6.148780366869514	9.229999999999999	0.0
C 	7.378536440243416	8.519999999999998	0.0
C 	8.60829251361732	9.229999999999999	0.0
C 	9.838048586991222	8.519999999999998	0.0
C 	11.067804660365125	9.229999999999999	0.0
C 	12.297560733739028	8.519999999999998	0.0
C 	13.52731680711293	9.229999999999997	0.0
C 	14.757072880486833	8.519999999999998	0.0
C 	15.986828953860737	9.229999999999999	0.0
C 	17.216585027234636	8.519999999999998	0.0
C 	18.44634110060854	9.229999999999997	0.0
C 	19.67609717398244	8.519999999999996	0.0
C 	20.905853247356347	9.229999999999997	0.0
C 	22.13560932073025	8.519999999999998	0.0
C 	23.365365394104153	9.229999999999999	0.0
C 	24.595121467478055	8.519999999999996	0.0
C 	25.824877540851954	9.229999999999995	0.0
C 	27.05463361422586	8.519999999999996	0.0
C 	28.284389687599763	9.229999999999997	0.0
C 	29.514145760973662	8.519999999999996	0.0
C 	30.743901834347565	9.229999999999995	0.0
C 	31.97365790772147	8.52	0.0
C 	33.20341398109537	9.229999999999997	0.0
C 	34.43317005446928	8.519999999999994	0.0
C 	35.66292612784318	9.229999999999995	0.0
C 	36.89268220121708	8.519999999999992	0.0
C 	38.122438274590984	9.229999999999993	0.0
C 	39.35219434796489	8.519999999999998	0.0
C 	40.58195042133879	9.229999999999995	0.0
C 	41.811706494712695	8.519999999999994	0.0
C 	43.0414625680866	9.229999999999995	0.0
C 	44.27121864146049	8.519999999999992	0.0
C 	45.5009747148344	9.229999999999993	0.0
C 	46.730730788208305	8.519999999999998	0.0
C 	47.960486861582204	9.229999999999995	0.0
C 	49.19024293495611	8.519999999999996	0.0
C 	50.41999900833001	9.229999999999993	0.0
C 	51.64975508170391	8.519999999999994	0.0
C 	52.879511155077815	9.229999999999995	0.0
C 	54.10926722845171	8.51999999999999	0.0
C 	55.33902330182562	9.229999999999992	0.0
C 	56.568779375199526	8.519999999999998	0.0
C 	57.798535448573425	9.229999999999995	0.0
C 	59.02829152194733	8.519999999999994	0.0
C 	60.25804759532123	9.229999999999993	0.0
C 	61.48780366869513	8.519999999999992	0.0
C 	62.717559742069035	9.229999999999993	0.0
C 	63.94731581544294	8.519999999999992	0.0
C 	65.17707188881684	9.22999999999999	0.0
C 	6.148780366869514	10.649999999999997	0.0
C 	7.378536440243416	11.359999999999998	0.0
C 	8.608292513617318	10.649999999999997	0.0
C 	9.838048586991222	11.359999999999998	0.0
C 	11.067804660365125	10.649999999999997	0.0
C 	12.297560733739028	11.359999999999996	0.0
C 	13.52731680711293	10.649999999999997	0.0
C 	14.757072880486831	11.359999999999996	0.0
C 	15.986828953860735	10.649999999999997	0.0
C 	17.216585027234636	11.359999999999996	0.0
C 	18.44634110060854	10.649999999999997	0.0
C 	19.676097173982445	11.359999999999998	0.0
C 	20.905853247356347	10.649999999999997	0.0
C 	22.13560932073025	11.359999999999996	0.0
C 	23.365365394104153	10.649999999999997	0.0
C 	24.595121467478055	11.359999999999996	0.0
C 	25.824877540851958	10.649999999999997	0.0
C 	27.05463361422586	11.359999999999996	0.0
C 	28.284389687599763	10.649999999999995	0.0
C 	29.514145760973662	11.359999999999994	0.0
C 	30.743901834347565	10.649999999999995	0.0
C 	31.97365790772147	11.359999999999996	0.0
C 	33.20341398109537	10.649999999999997	0.0
C 	34.43317005446928	11.359999999999998	0.0
C 	35.66292612784318	10.649999999999991	0.0
C 	36.89268220121708	11.359999999999992	0.0
C 	38.122438274590984	10.649999999999993	0.0
C 	39.35219434796489	11.359999999999994	0.0
C 	40.58195042133879	10.649999999999993	0.0
C 	41.811706494712695	11.359999999999994	0.0
C 	43.041462568086594	10.649999999999991	0.0
C 	44.2712186414605	11.359999999999992	0.0
C 	45.5009747148344	10.649999999999993	0.0
C 	46.730730788208305	11.359999999999994	0.0
C 	47.960486861582204	10.649999999999995	0.0
C 	49.19024293495611	11.359999999999996	0.0
C 	50.41999900833001	10.649999999999993	0.0
C 	51.649755081703915	11.359999999999994	0.0
C 	52.879511155077815	10.649999999999995	0.0
C 	54.10926722845172	11.359999999999996	0.0
C 	55.33902330182562	10.649999999999993	0.0
C 	56.568779375199526	11.359999999999994	0.0
C 	57.798535448573425	10.649999999999993	0.0
C 	59.02829152194733	11.359999999999992	0.0
C 	60.25804759532124	10.649999999999995	0.0
C 	61.487803668695136	11.359999999999996	0.0
C 	62.717559742069035	10.649999999999991	0.0
C 	63.94731581544294	11.359999999999992	0.0
C 	65.17707188881684	10.649999999999991	0.0
C 	66.40682796219075	11.359999999999992	0.0
C 	7.378536440243417	12.779999999999998	0.0
C 	8.60829251361732	13.489999999999998	0.0
C 	9.838048586991222	12.78	0.0
C 	11.067804660365125	13.489999999999997	0.0
C 	12.297560733739028	12.779999999999998	0.0
C 	13.527316807112932	13.489999999999998	0.0
C 	14.757072880486833	12.779999999999998	0.0
C 	15.986828953860737	13.489999999999997	0.0
C 	17.216585027234636	12.779999999999996	0.0
C 	18.446341100608542	13.489999999999997	0.0
C 	19.676097173982445	12.779999999999998	0.0
C 	20.905853247356347	13.489999999999997	0.0
C 	22.13560932073025	12.779999999999996	0.0
C 	23.36536539410415	13.489999999999995	0.0
C 	24.595121467478055	12.779999999999996	0.0
C 	25.824877540851958	13.489999999999997	0.0
C 	27.05463361422586	12.779999999999998	0.0
C 	28.284389687599763	13.489999999999997	0.0
C 	29.514145760973662	12.779999999999996	0.0
C 	30.743901834347568	13.489999999999997	0.0
C 	31.97365790772147	12.779999999999996	0.0
C 	33.20341398109537	13.489999999999997	0.0
C 	34.43317005446928	12.779999999999998	0.0
C 	35.66292612784318	13.489999999999995	0.0
C 	36.89268220121708	12.779999999999994	0.0
C 	38.122438274590984	13.489999999999995	0.0
C 	39.35219434796489	12.779999999999996	0.0
C 	40.581950421338796	13.489999999999997	0.0
C 	41.811706494712695	12.779999999999996	0.0
C 	43.041462568086594	13.489999999999993	0.0
C 	44.2712186414605	12.779999999999994	0.0
C 	45.5009747148344	13.489999999999995	0.0
C 	46.730730788208305	12.779999999999996	0.0
C 	47.96048686158221	13.489999999999997	0.0
C 	49.19024293495611	12.779999999999998	0.0
C 	50.41999900833001	13.489999999999995	0.0
C 	51.649755081703915	12.779999999999996	0.0
C 	52.879511155077815	13.489999999999993	0.0
C 	54.10926722845172	12.779999999999998	0.0
C 	55.33902330182563	13.489999999999998	0.0
C 	56.56877937519952	12.779999999999998	0.0
C 	57.798535448573425	13.489999999999997	0.0
C 	59.02829152194733	12.779999999999994	0.0
C 	60.25804759532123	13.489999999999991	0.0
C 	61.487803668695136	12.779999999999998	0.0
C 	62.71755974206904	13.489999999999998	0.0
C 	63.94731581544294	12.779999999999994	0.0
C 	65.17707188881684	13.489999999999995	0.0
C 	66.40682796219075	12.77999999999999	0.0
C 	67.63658403556465	13.489999999999988	0.0
C 	8.60829251361732	14.909999999999998	0.0
C 	9.838048586991222	15.619999999999996	0.0
C 	11.067804660365125	14.909999999999997	0.0
C 	12.297560733739026	15.619999999999996	0.0
C 	13.527316807112934	14.909999999999998	0.0
C 	14.757072880486831	15.619999999999996	0.0
C 	15.986828953860737	14.909999999999998	0.0
C 	17.21658502723464	15.619999999999997	0.0
C 	18.446341100608542	14.909999999999997	0.0
C 	19.676097173982445	15.619999999999996	0.0
C 	20.905853247356347	14.909999999999997	0.0
C 	22.135609320730246	15.619999999999996	0.0
C 	23.365365394104153	14.909999999999995	0.0
C 	24.595121467478055	15.619999999999996	0.0
C 	25.824877540851958	14.909999999999997	0.0
C 	27.05463361422586	15.619999999999996	0.0
C 	28.284389687599763	14.909999999999997	0.0
C 	29.514145760973665	15.619999999999996	0.0
C 	30.743901834347568	14.909999999999997	0.0
C 	31.973657907721474	15.619999999999997	0.0
C 	33.203413981095366	14.909999999999993	0.0
C 	34.43317005446927	15.619999999999994	0.0
C 	35.662926127843185	14.909999999999998	0.0
C 	36.892682201217085	15.619999999999996	0.0
C 	38.122438274590984	14.909999999999995	0.0
C 	39.35219434796489	15.619999999999996	0.0
C 	40.58195042133879	14.909999999999993	0.0
C 	41.811706494712695	15.619999999999994	0.0
C 	43.0414625680866	14.909999999999998	0.0
C 	44.2712186414605	15.619999999999996	0.0
C 	45.5009747148344	14.909999999999995	0.0
C 	46.730730788208305	15.619999999999996	0.0
C 	47.960486861582204	14.909999999999993	0.0
C 	49.19024293495611	15.619999999999994	0.0
C 	50.41999900833002	14.909999999999998	0.0
C 	51.649755081703915	15.619999999999996	0.0
C 	52.87951115507782	14.909999999999997	0.0
C 	54.10926722845171	15.619999999999994	0.0
C 	55.33902330182562	14.909999999999995	0.0
C 	56.568779375199526	15.619999999999994	0.0
C 	57.798535448573425	14.909999999999991	0.0
C 	59.028291521947324	15.619999999999992	0.0
C 	60.25804759532124	14.909999999999998	0.0
C 	61.487803668695136	15.619999999999996	0.0
C 	62.717559742069035	14.909999999999993	0.0
C 	63.94731581544294	15.619999999999994	0.0
C 	65.17707188881684	14.909999999999993	0.0
C 	66.40682796219075	15.619999999999994	0.0
C 	67.63658403556465	14.909999999999997	0.0
C 	68.86634010893854	15.61999999999999	0.0
C 	9.838048586991222	17.039999999999996	0.0
C 	11.067804660365127	17.749999999999996	0.0
C 	12.297560733739028	17.039999999999996	0.0
C 	13.527316807112932	17.749999999999996	0.0
C 	14.757072880486833	17.039999999999996	0.0
C 	15.986828953860735	17.749999999999996	0.0
C 	17.21658502723464	17.039999999999996	0.0
C 	18.446341100608546	17.749999999999996	0.0
C 	19.676097173982445	17.039999999999996	0.0
C 	20.905853247356347	17.749999999999996	0.0
C 	22.13560932073025	17.039999999999996	0.0
C 	23.365365394104153	17.749999999999996	0.0
C 	24.595121467478055	17.039999999999996	0.0
C 	25.82487754085196	17.749999999999996	0.0
C 	27.05463361422586	17.039999999999996	0.0
C 	28.28438968759977	17.75	0.0
C 	29.514145760973665	17.039999999999996	0.0
C 	30.74390183434757	17.749999999999996	0.0
C 	31.973657907721467	17.039999999999992	0.0
C 	33.20341398109537	17.749999999999993	0.0
C 	34.43317005446927	17.039999999999996	0.0
C 	35.66292612784318	17.749999999999996	0.0
C 	36.892682201217085	17.039999999999996	0.0
C 	38.122438274590984	17.749999999999996	0.0
C 	39.35219434796488	17.039999999999992	0.0
C 	40.58195042133879	17.749999999999993	0.0
C 	41.811706494712695	17.039999999999992	0.0
C 	43.041462568086594	17.749999999999993	0.0
C 	44.2712186414605	17.039999999999996	0.0
C 	45.500974714834406	17.749999999999996	0.0
C 	46.7307307882083	17.039999999999992	0.0
C 	47.960486861582204	17.749999999999993	0.0
C 	49.19024293495611	17.039999999999992	0.0
C 	50.41999900833002	17.749999999999993	0.0
C 	51.649755081703915	17.039999999999996	0.0
C 	52.87951115507782	17.749999999999996	0.0
C 	54.10926722845172	17.039999999999992	0.0
C 	55.33902330182562	17.749999999999993	0.0
C 	56.568779375199526	17.039999999999996	0.0
C 	57.79853544857343	17.749999999999996	0.0
C 	59.028291521947324	17.039999999999992	0.0
C 	60.25804759532123	17.749999999999993	0.0
C 	61.487803668695136	17.039999999999996	0.0
C 	62.71755974206904	17.749999999999996	0.0
C 	63.94731581544294	17.04	0.0
C 	65.17707188881684	17.749999999999993	0.0
C 	66.40682796219075	17.039999999999996	0.0
C 	67.63658403556464	17.74999999999999	0.0
C 	68.86634010893856	17.03999999999999	0.0
C 	70.09609618231246	17.74999999999999	0.0
C 	11.067804660365125	19.169999999999995	0.0
C 	12.297560733739026	19.879999999999995	0.0
C 	13.52731680711293	19.169999999999995	0.0
C 	14.757072880486831	19.879999999999995	0.0
C 	15.986828953860737	19.169999999999998	0.0
C 	17.216585027234636	19.879999999999992	0.0
C 	18.446341100608542	19.169999999999995	0.0
C 	19.676097173982445	19.879999999999995	0.0
C 	20.905853247356347	19.169999999999995	0.0
C 	22.135609320730246	19.879999999999995	0.0
C 	23.365365394104153	19.169999999999995	0.0
C 	24.59512146747805	19.879999999999995	0.0
C 	25.824877540851958	19.169999999999995	0.0
C 	27.05463361422586	19.879999999999995	0.0
C 	28.284389687599763	19.169999999999995	0.0
C 	29.51414576097367	19.879999999999995	0.0
C 	30.743901834347565	19.16999999999999	0.0
C 	31.97365790772147	19.879999999999992	0.0
C 	33.20341398109537	19.169999999999995	0.0
C 	34.43317005446927	19.879999999999992	0.0
C 	35.66292612784318	19.169999999999995	0.0
C 	36.89268220121708	19.879999999999992	0.0
C 	38.122438274590984	19.169999999999995	0.0
C 	39.35219434796488	19.879999999999992	0.0
C 	40.58195042133879	19.16999999999999	0.0
C 	41.81170649471269	19.87999999999999	0.0
C 	43.0414625680866	19.169999999999995	0.0
C 	44.27121864146049	19.879999999999992	0.0
C 	45.5009747148344	19.16999999999999	0.0
C 	46.730730788208305	19.879999999999992	0.0
C 	47.960486861582204	19.169999999999995	0.0
C 	49.1902429349561	19.879999999999992	0.0
C 	50.41999900833002	19.169999999999995	0.0
C 	51.649755081703915	19.879999999999992	0.0
C 	52.879511155077815	19.16999999999999	0.0
C 	54.10926722845172	19.879999999999992	0.0
C 	55.33902330182562	19.16999999999999	0.0
C 	56.56877937519952	19.879999999999992	0.0
C 	57.79853544857343	19.169999999999995	0.0
C 	59.02829152194733	19.879999999999992	0.0
C 	60.25804759532123	19.169999999999995	0.0
C 	61.48780366869513	19.879999999999992	0.0
C 	62.717559742069035	19.16999999999999	0.0
C 	63.94731581544294	19.879999999999992	0.0
C 	65.17707188881684	19.169999999999995	0.0
C 	66.40682796219075	19.87999999999999	0.0
C 	67.63658403556465	19.169999999999995	0.0
C 	68.86634010893854	19.87999999999999	0.0
C 	70.09609618231245	19.16999999999999	0.0
C 	71.32585225568636	19.879999999999992	0.0
C 	12.297560733739028	21.299999999999994	0.0
C 	13.527316807112932	22.009999999999994	0.0
C 	14.757072880486831	21.299999999999994	0.0
C 	15.986828953860735	22.009999999999994	0.0
C 	17.216585027234636	21.299999999999994	0.0
C 	18.44634110060854	22.009999999999994	0.0
C 	19.676097173982445	21.299999999999994	0.0
C 	20.905853247356347	22.009999999999994	0.0
C 	22.13560932073025	21.299999999999994	0.0
C 	23.365365394104153	22.009999999999994	0.0
C 	24.595121467478055	21.299999999999994	0.0
C 	25.824877540851958	22.009999999999994	0.0
C 	27.05463361422586	21.299999999999994	0.0
C 	28.284389687599766	22.009999999999994	0.0
C 	29.514145760973662	21.29999999999999	0.0
C 	30.743901834347568	22.00999999999999	0.0
C 	31.97365790772147	21.299999999999994	0.0
C 	33.20341398109537	22.009999999999994	0.0
C 	34.43317005446928	21.299999999999994	0.0
C 	35.662926127843185	22.009999999999994	0.0
C 	36.89268220121708	21.299999999999994	0.0
C 	38.122438274590984	22.009999999999994	0.0
C 	39.35219434796489	21.299999999999994	0.0
C 	40.58195042133879	22.009999999999994	0.0
C 	41.811706494712695	21.299999999999994	0.0
C 	43.0414625680866	22.009999999999994	0.0
C 	44.2712186414605	21.29999999999999	0.0
C 	45.5009747148344	22.00999999999999	0.0
C 	46.730730788208305	21.299999999999994	0.0
C 	47.96048686158221	22.009999999999994	0.0
C 	49.19024293495611	21.299999999999994	0.0
C 	50.41999900833002	22.009999999999994	0.0
C 	51.649755081703915	21.299999999999994	0.0
C 	52.879511155077815	22.00999999999999	0.0
C 	54.10926722845172	21.299999999999994	0.0
C 	55.33902330182563	22.009999999999994	0.0
C 	56.568779375199526	21.29999999999999	0.0
C 	57.798535448573425	22.00999999999999	0.0
C 	59.02829152194733	21.299999999999994	0.0
C 	60.25804759532124	22.009999999999994	0.0
C 	61.48780366869513	21.29999999999999	0.0
C 	62.717559742069035	22.00999999999999	0.0
C 	63.94731581544294	21.299999999999994	0.0
C 	65.17707188881684	22.009999999999987	0.0
C 	66.40682796219075	21.299999999999994	0.0
C 	67.63658403556465	22.009999999999994	0.0
C 	68.86634010893854	21.29999999999999	0.0
C 	70.09609618231245	22.00999999999999	0.0
C 	71.32585225568636	21.299999999999983	0.0
C 	72.55560832906026	22.00999999999999	0.0
C 	13.527316807112932	23.429999999999996	0.0
C 	14.757072880486836	24.139999999999997	0.0
C 	15.986828953860737	23.429999999999996	0.0
C 	17.216585027234643	24.139999999999997	0.0
C 	18.446341100608542	23.429999999999996	0.0
C 	19.676097173982445	24.139999999999997	0.0
C 	20.90585324735635	23.429999999999996	0.0
C 	22.135609320730254	24.139999999999997	0.0
C 	23.365365394104156	23.429999999999993	0.0
C 	24.595121467478062	24.139999999999997	0.0
C 	25.824877540851958	23.429999999999993	0.0
C 	27.054633614225864	24.139999999999993	0.0
C 	28.284389687599766	23.429999999999996	0.0
C 	29.514145760973673	24.139999999999997	0.0
C 	30.743901834347575	23.429999999999996	0.0
C 	31.973657907721478	24.139999999999997	0.0
C 	33.20341398109537	23.429999999999993	0.0
C 	34.43317005446928	24.139999999999993	0.0
C 	35.66292612784318	23.429999999999993	0.0
C 	36.892682201217085	24.139999999999993	0.0
C 	38.122438274590984	23.429999999999993	0.0
C 	39.35219434796489	24.139999999999993	0.0
C 	40.58195042133879	23.429999999999996	0.0
C 	41.811706494712695	24.139999999999993	0.0
C 	43.041462568086594	23.42999999999999	0.0
C 	44.2712186414605	24.13999999999999	0.0
C 	45.5009747148344	23.429999999999993	0.0
C 	46.730730788208305	24.139999999999993	0.0
C 	47.96048686158221	23.429999999999993	0.0
C 	49.19024293495611	24.139999999999993	0.0
C 	50.41999900833001	23.429999999999993	0.0
C 	51.649755081703915	24.13999999999999	0.0
C 	52.87951115507782	23.429999999999993	0.0
C 	54.10926722845172	24.139999999999993	0.0
C 	55.33902330182563	23.429999999999993	0.0
C 	56.56877937519953	24.139999999999993	0.0
C 	57.798535448573425	23.429999999999993	0.0
C 	59.02829152194733	24.139999999999993	0.0
C 	60.25804759532124	23.429999999999993	0.0
C 	61.487803668695136	24.13999999999999	0.0
C 	62.71755974206904	23.429999999999993	0.0
C 	63.947315815442934	24.139999999999986	0.0
C 	65.17707188881684	23.429999999999993	0.0
C 	66.40682796219075	24.139999999999993	0.0
C 	67.63658403556464	23.42999999999999	0.0
C 	68.86634010893856	24.139999999999997	0.0
C 	70.09609618231245	23.42999999999999	0.0
C 	71.32585225568636	24.139999999999997	0.0
C 	72.55560832906026	23.42999999999999	0.0
C 	73.78536440243417	24.13999999999999	0.0
C 	14.757072880486835	25.559999999999995	0.0
C 	15.986828953860735	26.269999999999996	0.0
C 	17.21658502723464	25.559999999999995	0.0
C 	18.44634110060854	26.269999999999996	0.0
C 	19.676097173982445	25.56	0.0
C 	20.905853247356344	26.269999999999996	0.0
C 	22.13560932073025	25.56	0.0
C 	23.365365394104153	26.269999999999996	0.0
C 	24.595121467478055	25.559999999999995	0.0
C 	25.824877540851958	26.269999999999996	0.0
C 	27.054633614225857	25.559999999999995	0.0
C 	28.28438968759976	26.269999999999996	0.0
C 	29.514145760973665	25.559999999999995	0.0
C 	30.743901834347568	26.269999999999996	0.0
C 	31.973657907721474	25.559999999999995	0.0
C 	33.20341398109538	26.269999999999996	0.0
C 	34.43317005446927	25.55999999999999	0.0
C 	35.66292612784318	26.269999999999992	0.0
C 	36.892682201217085	25.559999999999995	0.0
C 	38.12243827459098	26.269999999999992	0.0
C 	39.35219434796489	25.559999999999995	0.0
C 	40.58195042133879	26.269999999999992	0.0
C 	41.81170649471269	25.55999999999999	0.0
C 	43.041462568086594	26.269999999999992	0.0
C 	44.2712186414605	25.55999999999999	0.0
C 	45.5009747148344	26.26999999999999	0.0
C 	46.730730788208305	25.559999999999995	0.0
C 	47.960486861582204	26.269999999999992	0.0
C 	49.19024293495611	25.55999999999999	0.0
C 	50.41999900833001	26.269999999999992	0.0
C 	51.649755081703915	25.559999999999995	0.0
C 	52.879511155077815	26.269999999999992	0.0
C 	54.10926722845172	25.559999999999995	0.0
C 	55.33902330182562	26.269999999999992	0.0
C 	56.568779375199526	25.55999999999999	0.0
C 	57.79853544857343	26.269999999999992	0.0
C 	59.028291521947324	25.55999999999999	0.0
C 	60.25804759532123	26.269999999999992	0.0
C 	61.487803668695136	25.559999999999995	0.0
C 	62.717559742069035	26.26999999999999	0.0
C 	63.94731581544294	25.55999999999999	0.0
C 	65.17707188881683	26.269999999999985	0.0
C 	66.40682796219075	25.55999999999999	0.0
C 	67.63658403556465	26.269999999999992	0.0
C 	68.86634010893856	25.559999999999995	0.0
C 	70.09609618231246	26.269999999999996	0.0
C 	71.32585225568636	25.559999999999995	0.0
C 	72.55560832906026	26.269999999999996	0.0
C 	73.78536440243415	25.559999999999988	0.0
C 	75.01512047580806	26.26999999999999	0.0
C 	15.986828953860735	27.689999999999994	0.0
C 	17.21658502723464	28.399999999999995	0.0
C 	18.446341100608542	27.689999999999994	0.0
C 	19.676097173982445	28.399999999999995	0.0
C 	20.905853247356344	27.689999999999994	0.0
C 	22.13560932073025	28.399999999999995	0.0
C 	23.365365394104153	27.689999999999994	0.0
C 	24.59512146747806	28.399999999999995	0.0
C 	25.824877540851954	27.689999999999994	0.0
C 	27.054633614225857	28.399999999999995	0.0
C 	28.284389687599763	27.689999999999994	0.0
C 	29.514145760973665	28.399999999999995	0.0
C 	30.74390183434757	27.689999999999994	0.0
C 	31.973657907721474	28.399999999999995	0.0
C 	33.20341398109537	27.68999999999999	0.0
C 	34.43317005446928	28.39999999999999	0.0
C 	35.66292612784318	27.689999999999994	0.0
C 	36.892682201217085	28.399999999999995	0.0
C 	38.122438274590984	27.689999999999994	0.0
C 	39.35219434796489	28.399999999999995	0.0
C 	40.58195042133879	27.689999999999994	0.0
C 	41.811706494712695	28.399999999999995	0.0
C 	43.041462568086594	27.689999999999994	0.0
C 	44.2712186414605	28.399999999999995	0.0
C 	45.500974714834406	27.689999999999994	0.0
C 	46.730730788208305	28.399999999999995	0.0
C 	47.960486861582204	27.68999999999999	0.0
C 	49.19024293495611	28.39999999999999	0.0
C 	50.41999900833002	27.689999999999994	0.0
C 	51.649755081703915	28.399999999999995	0.0
C 	52.87951115507782	27.689999999999994	0.0
C 	54.10926722845173	28.399999999999995	0.0
C 	55.33902330182562	27.68999999999999	0.0
C 	56.568779375199526	28.39999999999999	0.0
C 	57.79853544857343	27.689999999999994	0.0
C 	59.02829152194733	28.39999999999999	0.0
C 	60.25804759532124	27.689999999999994	0.0
C 	61.48780366869513	28.399999999999988	0.0
C 	62.717559742069035	27.689999999999994	0.0
C 	63.94731581544294	28.399999999999995	0.0
C 	65.17707188881684	27.68999999999999	0.0
C 	66.40682796219075	28.39999999999999	0.0
C 	67.63658403556464	27.689999999999987	0.0
C 	68.86634010893856	28.399999999999995	0.0
C 	70.09609618231245	27.689999999999994	0.0
C 	71.32585225568636	28.399999999999995	0.0
C 	72.55560832906026	27.68999999999999	0.0
C 	73.78536440243415	28.39999999999999	0.0
C 	75.01512047580808	27.689999999999994	0.0
C 	76.24487654918197	28.399999999999984	0.0
C 	17.21658502723464	29.819999999999997	0.0
C 	18.446341100608546	30.529999999999998	0.0
C 	19.676097173982445	29.819999999999997	0.0
C 	20.905853247356355	30.529999999999998	0.0
C 	22.13560932073025	29.819999999999993	0.0
C 	23.365365394104156	30.529999999999994	0.0
C 	24.59512146747806	29.819999999999997	0.0
C 	25.82487754085196	30.529999999999998	0.0
C 	27.054633614225867	29.819999999999997	0.0
C 	28.28438968759977	30.529999999999998	0.0
C 	29.514145760973665	29.819999999999997	0.0
C 	30.74390183434757	30.529999999999998	0.0
C 	31.973657907721474	29.819999999999997	0.0
C 	33.20341398109538	30.529999999999998	0.0
C 	34.43317005446928	29.819999999999997	0.0
C 	35.662926127843185	30.529999999999998	0.0
C 	36.892682201217085	29.819999999999993	0.0
C 	38.12243827459099	30.529999999999994	0.0
C 	39.35219434796488	29.819999999999993	0.0
C 	40.58195042133879	30.529999999999994	0.0
C 	41.811706494712695	29.819999999999993	0.0
C 	43.0414625680866	30.529999999999994	0.0
C 	44.2712186414605	29.819999999999993	0.0
C 	45.500974714834406	30.529999999999994	0.0
C 	46.730730788208305	29.81999999999999	0.0
C 	47.960486861582204	30.52999999999999	0.0
C 	49.19024293495611	29.819999999999993	0.0
C 	50.41999900833002	30.529999999999994	0.0
C 	51.649755081703915	29.819999999999993	0.0
C 	52.87951115507782	30.529999999999994	0.0
C 	54.10926722845172	29.819999999999993	0.0
C 	55.33902330182563	30.52999999999999	0.0
C 	56.568779375199526	29.819999999999993	0.0
C 	57.798535448573425	30.52999999999999	0.0
C 	59.02829152194734	29.819999999999993	0.0
C 	60.25804759532124	30.529999999999994	0.0
C 	61.487803668695136	29.819999999999993	0.0
C 	62.71755974206904	30.529999999999994	0.0
C 	63.947315815442934	29.81999999999999	0.0
C 	65.17707188881685	30.529999999999998	0.0
C 	66.40682796219073	29.819999999999986	0.0
C 	67.63658403556465	30.529999999999994	0.0
C 	68.86634010893856	29.819999999999993	0.0
C 	70.09609618231245	30.529999999999994	0.0
C 	71.32585225568637	29.819999999999997	0.0
C 	72.55560832906026	30.52999999999999	0.0
C 	73.78536440243417	29.819999999999997	0.0
C 	75.01512047580806	30.529999999999987	0.0
C 	76.24487654918197	29.81999999999999	0.0
C 	77.47463262255587	30.52999999999999	0.0
C 	18.446341100608542	31.949999999999996	0.0
C 	19.676097173982445	32.65999999999999	0.0
C 	20.905853247356347	31.949999999999992	0.0
C 	22.135609320730254	32.66	0.0
C 	23.365365394104156	31.949999999999996	0.0
C 	24.595121467478055	32.65999999999999	0.0
C 	25.824877540851958	31.949999999999992	0.0
C 	27.05463361422586	32.66	0.0
C 	28.284389687599766	31.949999999999996	0.0
C 	29.51414576097367	32.66	0.0
C 	30.743901834347568	31.949999999999992	0.0
C 	31.97365790772147	32.66	0.0
C 	33.20341398109537	31.949999999999992	0.0
C 	34.43317005446928	32.66	0.0
C 	35.66292612784318	31.949999999999996	0.0
C 	36.892682201217085	32.66	0.0
C 	38.122438274590984	31.949999999999992	0.0
C 	39.35219434796489	32.65999999999999	0.0
C 	40.58195042133879	31.949999999999992	0.0
C 	41.81170649471269	32.65999999999999	0.0
C 	43.0414625680866	31.949999999999996	0.0
C 	44.2712186414605	32.65999999999999	0.0
C 	45.5009747148344	31.949999999999992	0.0
C 	46.730730788208305	32.65999999999999	0.0
C 	47.96048686158221	31.949999999999992	0.0
C 	49.1902429349561	32.65999999999999	0.0
C 	50.41999900833002	31.949999999999992	0.0
C 	51.649755081703915	32.65999999999999	0.0
C 	52.879511155077815	31.949999999999992	0.0
C 	54.10926722845172	32.65999999999999	0.0
C 	55.33902330182563	31.949999999999992	0.0
C 	56.568779375199526	32.65999999999999	0.0
C 	57.79853544857343	31.949999999999992	0.0
C 	59.028291521947324	32.65999999999999	0.0
C 	60.25804759532124	31.949999999999992	0.0
C 	61.487803668695136	32.65999999999999	0.0
C 	62.717559742069035	31.94999999999999	0.0
C 	63.94731581544294	32.65999999999999	0.0
C 	65.17707188881685	31.949999999999992	0.0
C 	66.40682796219076	32.66	0.0
C 	67.63658403556465	31.949999999999992	0.0
C 	68.86634010893856	32.65999999999999	0.0
C 	70.09609618231245	31.94999999999999	0.0
C 	71.32585225568636	32.65999999999999	0.0
C 	72.55560832906026	31.949999999999996	0.0
C 	73.78536440243415	32.65999999999999	0.0
C 	75.01512047580806	31.949999999999992	0.0
C 	76.24487654918195	32.65999999999998	0.0
C 	77.47463262255587	31.949999999999985	0.0
C 	78.70438869592978	32.65999999999999	0.0
C 	19.676097173982445	34.07999999999999	0.0
C 	20.90585324735635	34.78999999999999	0.0
C 	22.135609320730254	34.07999999999999	0.0
C 	23.365365394104156	34.78999999999999	0.0
C 	24.595121467478055	34.07999999999999	0.0
C 	25.824877540851958	34.78999999999999	0.0
C 	27.054633614225864	34.07999999999999	0.0
C 	28.284389687599766	34.78999999999999	0.0
C 	29.514145760973665	34.07999999999999	0.0
C 	30.743901834347568	34.78999999999999	0.0
C 	31.97365790772147	34.07999999999999	0.0
C 	33.20341398109537	34.78999999999999	0.0
C 	34.43317005446928	34.07999999999999	0.0
C 	35.662926127843185	34.78999999999999	0.0
C 	36.89268220121708	34.07999999999999	0.0
C 	38.122438274590984	34.78999999999999	0.0
C 	39.35219434796489	34.07999999999999	0.0
C 	40.581950421338796	34.78999999999999	0.0
C 	41.811706494712695	34.07999999999999	0.0
C 	43.0414625680866	34.78999999999999	0.0
C 	44.2712186414605	34.07999999999999	0.0
C 	45.5009747148344	34.78999999999999	0.0
C 	46.730730788208305	34.07999999999999	0.0
C 	47.96048686158221	34.78999999999999	0.0
C 	49.19024293495611	34.07999999999999	0.0
C 	50.41999900833002	34.78999999999999	0.0
C 	51.649755081703915	34.07999999999999	0.0
C 	52.87951115507782	34.78999999999999	0.0
C 	54.10926722845172	34.07999999999999	0.0
C 	55.33902330182562	34.78999999999999	0.0
C 	56.56877937519953	34.07999999999999	0.0
C 	57.79853544857343	34.78999999999999	0.0
C 	59.02829152194733	34.07999999999999	0.0
C 	60.25804759532124	34.78999999999999	0.0
C 	61.487803668695136	34.07999999999999	0.0
C 	62.71755974206905	34.79	0.0
C 	63.947315815442934	34.079999999999984	0.0
C 	65.17707188881685	34.78999999999999	0.0
C 	66.40682796219075	34.07999999999999	0.0
C 	67.63658403556465	34.78999999999999	0.0
C 	68.86634010893854	34.07999999999999	0.0
C 	70.09609618231245	34.78999999999999	0.0
C 	71.32585225568636	34.07999999999999	0.0
C 	72.55560832906025	34.789999999999985	0.0
C 	73.78536440243417	34.07999999999999	0.0
C 	75.01512047580808	34.78999999999999	0.0
C 	76.24487654918197	34.07999999999999	0.0
C 	77.47463262255587	34.78999999999999	0.0
C 	78.70438869592977	34.079999999999984	0.0
C 	79.93414476930369	34.78999999999999	0.0
C 	20.90585324735635	36.209999999999994	0.0
C 	22.135609320730254	36.919999999999995	0.0
C 	23.36536539410416	36.209999999999994	0.0
C 	24.595121467478062	36.919999999999995	0.0
C 	25.82487754085196	36.209999999999994	0.0
C 	27.054633614225864	36.919999999999995	0.0
C 	28.284389687599766	36.209999999999994	0.0
C 	29.514145760973673	36.919999999999995	0.0
C 	30.743901834347575	36.209999999999994	0.0
C 	31.973657907721478	36.919999999999995	0.0
C 	33.20341398109537	36.209999999999994	0.0
C 	34.43317005446928	36.919999999999995	0.0
C 	35.662926127843185	36.209999999999994	0.0
C 	36.89268220121709	36.919999999999995	0.0
C 	38.12243827459099	36.209999999999994	0.0
C 	39.3521943479649	36.919999999999995	0.0
C 	40.581950421338796	36.209999999999994	0.0
C 	41.811706494712695	36.919999999999995	0.0
C 	43.041462568086594	36.209999999999994	0.0
C 	44.2712186414605	36.919999999999995	0.0
C 	45.500974714834406	36.209999999999994	0.0
C 	46.730730788208305	36.919999999999995	0.0
C 	47.96048686158221	36.209999999999994	0.0
C 	49.19024293495612	36.919999999999995	0.0
C 	50.41999900833002	36.20999999999999	0.0
C 	51.649755081703915	36.91999999999999	0.0
C 	52.87951115507782	36.209999999999994	0.0
C 	54.10926722845172	36.91999999999999	0.0
C 	55.33902330182563	36.209999999999994	0.0
C 	56.56877937519953	36.919999999999995	0.0
C 	57.79853544857343	36.20999999999999	0.0
C 	59.02829152194733	36.91999999999999	0.0
C 	60.25804759532123	36.20999999999999	0.0
C 	61.48780366869515	36.919999999999995	0.0
C 	62.71755974206904	36.209999999999994	0.0
C 	63.94731581544295	36.919999999999995	0.0
C 	65.17707188881684	36.209999999999994	0.0
C 	66.40682796219075	36.919999999999995	0.0
C 	67.63658403556467	36.209999999999994	0.0
C 	68.86634010893856	36.91999999999999	0.0
C 	70.09609618231246	36.209999999999994	0.0
C 	71.32585225568636	36.91999999999999	0.0
C 	72.55560832906026	36.209999999999994	0.0
C 	73.78536440243417	36.919999999999995	0.0
C 	75.01512047580806	36.20999999999999	0.0
C 	76.24487654918198	36.919999999999995	0.0
C 	77.47463262255586	36.20999999999999	0.0
C 	78.70438869592978	36.919999999999995	0.0
C 	79.93414476930369	36.20999999999999	0.0
C 	81.16390084267759	36.91999999999999	0.0
C 	22.13560932073025	38.33999999999999	0.0
C 	23.365365394104153	39.04999999999999	0.0
C 	24.59512146747806	38.33999999999999	0.0
C 	25.82487754085196	39.04999999999999	0.0
C 	27.05463361422586	38.33999999999999	0.0
C 	28.284389687599763	39.04999999999999	0.0
C 	29.514145760973665	38.33999999999999	0.0
C 	30.74390183434757	39.04999999999999	0.0
C 	31.973657907721474	38.339999999999996	0.0
C 	33.20341398109538	39.04999999999999	0.0
C 	34.43317005446927	38.33999999999999	0.0
C 	35.66292612784318	39.04999999999999	0.0
C 	36.892682201217085	38.33999999999999	0.0
C 	38.12243827459099	39.04999999999999	0.0
C 	39.35219434796489	38.33999999999999	0.0
C 	40.581950421338796	39.04999999999999	0.0
C 	41.811706494712695	38.33999999999999	0.0
C 	43.0414625680866	39.04999999999999	0.0
C 	44.27121864146049	38.33999999999999	0.0
C 	45.5009747148344	39.04999999999999	0.0
C 	46.730730788208305	38.33999999999999	0.0
C 	47.960486861582204	39.04999999999999	0.0
C 	49.19024293495611	38.33999999999999	0.0
C 	50.41999900833002	39.04999999999999	0.0
C 	51.649755081703915	38.33999999999999	0.0
C 	52.879511155077815	39.04999999999999	0.0
C 	54.10926722845173	38.33999999999999	0.0
C 	55.33902330182562	39.04999999999998	0.0
C 	56.568779375199526	38.33999999999999	0.0
C 	57.79853544857343	39.04999999999999	0.0
C 	59.02829152194733	38.33999999999999	0.0
C 	60.25804759532123	39.04999999999999	0.0
C 	61.48780366869513	38.33999999999998	0.0
C 	62.71755974206905	39.04999999999999	0.0
C 	63.94731581544294	38.33999999999999	0.0
C 	65.17707188881685	39.04999999999999	0.0
C 	66.40682796219075	38.33999999999999	0.0
C 	67.63658403556465	39.04999999999999	0.0
C 	68.86634010893856	38.33999999999999	0.0
C 	70.09609618231245	39.04999999999998	0.0
C 	71.32585225568636	38.33999999999999	0.0
C 	72.55560832906025	39.04999999999998	0.0
C 	73.78536440243415	38.33999999999999	0.0
C 	75.01512047580806	39.04999999999999	0.0
C 	76.24487654918197	38.33999999999999	0.0
C 	77.47463262255587	39.05	0.0
C 	78.70438869592977	38.33999999999998	0.0
C 	79.93414476930369	39.04999999999999	0.0
C 	81.16390084267758	38.33999999999998	0.0
C 	82.39365691605148	39.04999999999998	0.0
C 	23.365365394104156	40.46999999999999	0.0
C 	24.59512146747806	41.17999999999999	0.0
C 	25.82487754085196	40.46999999999999	0.0
C 	27.054633614225867	41.17999999999999	0.0
C 	28.284389687599763	40.46999999999999	0.0
C 	29.51414576097367	41.17999999999999	0.0
C 	30.74390183434757	40.46999999999999	0.0
C 	31.973657907721474	41.17999999999999	0.0
C 	33.20341398109537	40.46999999999999	0.0
C 	34.43317005446928	41.17999999999999	0.0
C 	35.66292612784318	40.46999999999999	0.0
C 	36.892682201217085	41.17999999999999	0.0
C 	38.12243827459099	40.46999999999999	0.0
C 	39.3521943479649	41.17999999999999	0.0
C 	40.58195042133879	40.46999999999999	0.0
C 	41.811706494712695	41.17999999999999	0.0
C 	43.0414625680866	40.46999999999999	0.0
C 	44.2712186414605	41.17999999999999	0.0
C 	45.500974714834406	40.46999999999999	0.0
C 	46.73073078820831	41.17999999999999	0.0
C 	47.960486861582204	40.46999999999999	0.0
C 	49.19024293495611	41.17999999999999	0.0
C 	50.41999900833002	40.46999999999999	0.0
C 	51.649755081703915	41.179999999999986	0.0
C 	52.87951115507782	40.46999999999999	0.0
C 	54.10926722845173	41.17999999999999	0.0
C 	55.33902330182563	40.46999999999999	0.0
C 	56.568779375199526	41.17999999999999	0.0
C 	57.798535448573425	40.469999999999985	0.0
C 	59.028291521947345	41.17999999999999	0.0
C 	60.25804759532124	40.46999999999999	0.0
C 	61.48780366869514	41.17999999999999	0.0
C 	62.71755974206904	40.46999999999999	0.0
C 	63.94731581544295	41.17999999999999	0.0
C 	65.17707188881685	40.46999999999999	0.0
C 	66.40682796219075	41.179999999999986	0.0
C 	67.63658403556465	40.46999999999999	0.0
C 	68.86634010893854	41.179999999999986	0.0
C 	70.09609618231246	40.46999999999999	0.0
C 	71.32585225568636	41.17999999999999	0.0
C 	72.55560832906026	40.469999999999985	0.0
C 	73.78536440243417	41.179999999999986	0.0
C 	75.01512047580806	40.469999999999985	0.0
C 	76.24487654918198	41.17999999999999	0.0
C 	77.47463262255587	40.46999999999999	0.0
C 	78.70438869592978	41.17999999999999	0.0
C 	79.93414476930367	40.469999999999985	0.0
C 	81.16390084267758	41.179999999999986	0.0
C 	82.3936569160515	40.46999999999999	0.0
C 	83.62341298942539	41.179999999999986	0.0
C 	24.595121467478055	42.59999999999999	0.0
C 	25.82487754085196	43.30999999999999	0.0
C 	27.05463361422586	42.59999999999999	0.0
C 	28.284389687599766	43.30999999999999	0.0
C 	29.514145760973662	42.59999999999999	0.0
C 	30.743901834347568	43.30999999999999	0.0
C 	31.97365790772147	42.59999999999999	0.0
C 	33.20341398109537	43.30999999999999	0.0
C 	34.43317005446927	42.59999999999999	0.0
C 	35.66292612784318	43.30999999999999	0.0
C 	36.89268220121708	42.59999999999999	0.0
C 	38.122438274590984	43.30999999999999	0.0
C 	39.35219434796489	42.59999999999999	0.0
C 	40.581950421338796	43.30999999999999	0.0
C 	41.81170649471269	42.59999999999999	0.0
C 	43.041462568086594	43.30999999999999	0.0
C 	44.2712186414605	42.59999999999999	0.0
C 	45.5009747148344	43.30999999999999	0.0
C 	46.730730788208305	42.59999999999999	0.0
C 	47.96048686158221	43.30999999999999	0.0
C 	49.19024293495611	42.59999999999999	0.0
C 	50.41999900833001	43.30999999999999	0.0
C 	51.64975508170392	42.599999999999994	0.0
C 	52.879511155077815	43.30999999999999	0.0
C 	54.10926722845172	42.59999999999999	0.0
C 	55.33902330182563	43.30999999999999	0.0
C 	56.568779375199526	42.59999999999999	0.0
C 	57.798535448573425	43.30999999999999	0.0
C 	59.028291521947324	42.59999999999998	0.0
C 	60.258047595321244	43.30999999999999	0.0
C 	61.487803668695136	42.59999999999999	0.0
C 	62.71755974206904	43.30999999999999	0.0
C 	63.94731581544294	42.59999999999999	0.0
C 	65.17707188881684	43.30999999999999	0.0
C 	66.40682796219076	42.599999999999994	0.0
C 	67.63658403556465	43.30999999999999	0.0
C 	68.86634010893856	42.59999999999999	0.0
C 	70.09609618231245	43.30999999999998	0.0
C 	71.32585225568636	42.59999999999999	0.0
C 	72.55560832906026	43.30999999999999	0.0
C 	73.78536440243415	42.59999999999999	0.0
C 	75.01512047580806	43.30999999999999	0.0
C 	76.24487654918197	42.59999999999998	0.0
C 	77.47463262255587	43.30999999999999	0.0
C 	78.70438869592978	42.59999999999999	0.0
C 	79.93414476930367	43.30999999999999	0.0
C 	81.16390084267758	42.59999999999999	0.0
C 	82.39365691605148	43.30999999999999	0.0
C 	83.62341298942539	42.59999999999999	0.0
C 	84.85316906279928	43.30999999999998	0.0
C 	25.82487754085196	44.72999999999999	0.0
C 	27.054633614225864	45.43999999999999	0.0
C 	28.284389687599766	44.72999999999999	0.0
C 	29.514145760973673	45.43999999999999	0.0
C 	30.743901834347568	44.72999999999999	0.0
C 	31.97365790772147	45.43999999999999	0.0
C 	33.20341398109537	44.72999999999999	0.0
C 	34.43317005446928	45.43999999999999	0.0
C 	35.662926127843185	44.72999999999999	0.0
C 	36.892682201217085	45.43999999999999	0.0
C 	38.122438274590984	44.72999999999999	0.0
C 	39.35219434796489	45.43999999999999	0.0
C 	40.581950421338796	44.72999999999999	0.0
C 	41.811706494712695	45.43999999999999	0.0
C 	43.0414625680866	44.72999999999999	0.0
C 	44.27121864146051	45.43999999999999	0.0
C 	45.500974714834406	44.72999999999999	0.0
C 	46.730730788208305	45.43999999999999	0.0
C 	47.960486861582204	44.72999999999999	0.0
C 	49.19024293495611	45.43999999999998	0.0
C 	50.41999900833002	44.72999999999999	0.0
C 	51.64975508170391	45.43999999999998	0.0
C 	52.87951115507782	44.72999999999999	0.0
C 	54.10926722845172	45.43999999999999	0.0
C 	55.33902330182562	44.72999999999998	0.0
C 	56.568779375199526	45.43999999999998	0.0
C 	57.798535448573425	44.72999999999998	0.0
C 	59.02829152194734	45.43999999999999	0.0
C 	60.25804759532124	44.72999999999999	0.0
C 	61.48780366869514	45.43999999999999	0.0
C 	62.717559742069035	44.72999999999998	0.0
C 	63.94731581544294	45.43999999999998	0.0
C 	65.17707188881685	44.72999999999999	0.0
C 	66.40682796219075	45.43999999999998	0.0
C 	67.63658403556465	44.72999999999999	0.0
C 	68.86634010893856	45.43999999999999	0.0
C 	70.09609618231245	44.72999999999999	0.0
C 	71.32585225568636	45.43999999999998	0.0
C 	72.55560832906026	44.72999999999998	0.0
C 	73.78536440243417	45.43999999999999	0.0
C 	75.01512047580806	44.72999999999998	0.0
C 	76.24487654918198	45.43999999999999	0.0
C 	77.47463262255587	44.72999999999999	0.0
C 	78.70438869592978	45.43999999999999	0.0
C 	79.93414476930369	44.72999999999999	0.0
C 	81.16390084267758	45.43999999999998	0.0
C 	82.39365691605148	44.72999999999999	0.0
C 	83.62341298942538	45.43999999999998	0.0
C 	84.8531690627993	44.72999999999998	0.0
C 	86.08292513617319	45.43999999999998	0.0
C 	27.054633614225864	46.85999999999999	0.0
C 	28.28438968759977	47.56999999999999	0.0
C 	29.514145760973673	46.85999999999999	0.0
C 	30.74390183434758	47.56999999999999	0.0
C 	31.973657907721474	46.85999999999999	0.0
C 	33.20341398109538	47.56999999999999	0.0
C 	34.43317005446928	46.85999999999999	0.0
C 	35.662926127843185	47.56999999999999	0.0
C 	36.892682201217085	46.85999999999999	0.0
C 	38.122438274590984	47.56999999999999	0.0
C 	39.35219434796489	46.85999999999999	0.0
C 	40.581950421338796	47.56999999999999	0.0
C 	41.8117064947127	46.85999999999999	0.0
C 	43.0414625680866	47.56999999999999	0.0
C 	44.2712186414605	46.85999999999999	0.0
C 	45.500974714834406	47.56999999999999	0.0
C 	46.73073078820831	46.859999999999985	0.0
C 	47.960486861582204	47.569999999999986	0.0
C 	49.19024293495612	46.85999999999999	0.0
C 	50.41999900833002	47.56999999999999	0.0
C 	51.649755081703915	46.859999999999985	0.0
C 	52.87951115507782	47.569999999999986	0.0
C 	54.10926722845172	46.859999999999985	0.0
C 	55.339023301825634	47.56999999999999	0.0
C 	56.56877937519953	46.85999999999999	0.0
C 	57.79853544857344	47.56999999999999	0.0
C 	59.02829152194733	46.859999999999985	0.0
C 	60.25804759532124	47.569999999999986	0.0
C 	61.48780366869515	46.85999999999999	0.0
C 	62.71755974206904	47.569999999999986	0.0
C 	63.94731581544295	46.85999999999999	0.0
C 	65.17707188881685	47.56999999999999	0.0
C 	66.40682796219075	46.859999999999985	0.0
C 	67.63658403556465	47.569999999999986	0.0
C 	68.86634010893856	46.859999999999985	0.0
C 	70.09609618231246	47.56999999999999	0.0
C 	71.32585225568636	46.859999999999985	0.0
C 	72.55560832906028	47.56999999999999	0.0
C 	73.78536440243417	46.859999999999985	0.0
C 	75.01512047580808	47.569999999999986	0.0
C 	76.24487654918197	46.859999999999985	0.0
C 	77.47463262255587	47.569999999999986	0.0
C 	78.70438869592978	46.85999999999999	0.0
C 	79.93414476930367	47.569999999999986	0.0
C 	81.16390084267758	46.85999999999999	0.0
C 	82.39365691605148	47.56999999999999	0.0
C 	83.62341298942539	46.859999999999985	0.0
C 	84.8531690627993	47.569999999999986	0.0
C 	86.08292513617319	46.85999999999998	0.0
C 	87.31268120954711	47.569999999999986	0.0
C 	28.284389687599763	48.98999999999999	0.0
C 	29.51414576097367	49.69999999999999	0.0
C 	30.74390183434757	48.98999999999999	0.0
C 	31.973657907721478	49.69999999999999	0.0
C 	33.20341398109537	48.98999999999999	0.0
C 	34.43317005446928	49.69999999999999	0.0
C 	35.66292612784318	48.98999999999999	0.0
C 	36.892682201217085	49.69999999999999	0.0
C 	38.122438274590984	48.98999999999999	0.0
C 	39.35219434796488	49.69999999999999	0.0
C 	40.58195042133879	48.98999999999999	0.0
C 	41.811706494712695	49.69999999999999	0.0
C 	43.041462568086594	48.98999999999999	0.0
C 	44.2712186414605	49.69999999999999	0.0
C 	45.5009747148344	48.98999999999999	0.0
C 	46.730730788208305	49.69999999999998	0.0
C 	47.96048686158221	48.98999999999999	0.0
C 	49.1902429349561	49.69999999999998	0.0
C 	50.41999900833002	48.98999999999999	0.0
C 	51.64975508170392	49.69999999999999	0.0
C 	52.879511155077815	48.98999999999999	0.0
C 	54.10926722845172	49.69999999999999	0.0
C 	55.33902330182562	48.98999999999998	0.0
C 	56.56877937519953	49.69999999999999	0.0
C 	57.79853544857343	48.98999999999999	0.0
C 	59.02829152194734	49.69999999999999	0.0
C 	60.25804759532124	48.98999999999999	0.0
C 	61.487803668695136	49.69999999999999	0.0
C 	62.71755974206905	48.98999999999999	0.0
C 	63.94731581544294	49.69999999999998	0.0
C 	65.17707188881685	48.98999999999999	0.0
C 	66.40682796219075	49.69999999999999	0.0
C 	67.63658403556465	48.98999999999999	0.0
C 	68.86634010893856	49.69999999999999	0.0
C 	70.09609618231245	48.98999999999998	0.0
C 	71.32585225568637	49.69999999999999	0.0
C 	72.55560832906025	48.98999999999998	0.0
C 	73.78536440243417	49.69999999999999	0.0
C 	75.01512047580806	48.98999999999999	0.0
C 	76.24487654918197	49.69999999999999	0.0
C 	77.47463262255587	48.98999999999998	0.0
C 	78.70438869592978	49.69999999999998	0.0
C 	79.93414476930369	48.98999999999999	0.0
C 	81.16390084267758	49.69999999999998	0.0
C 	82.39365691605148	48.98999999999999	0.0
C 	83.62341298942539	49.69999999999999	0.0
C 	84.85316906279928	48.98999999999998	0.0
C 	86.08292513617319	49.69999999999998	0.0
C 	87.3126812095471	48.98999999999998	0.0
C 	88.542437282921	49.69999999999999	0.0
C 	29.51414576097367	51.11999999999999	0.0
C 	30.74390183434757	51.82999999999999	0.0
C 	31.973657907721474	51.11999999999999	0.0
C 	33.20341398109538	51.82999999999999	0.0
C 	34.43317005446928	51.11999999999999	0.0
C 	35.66292612784318	51.82999999999999	0.0
C 	36.892682201217085	51.11999999999999	0.0
C 	38.12243827459099	51.82999999999999	0.0
C 	39.35219434796489	51.12	0.0
C 	40.581950421338796	51.83	0.0
C 	41.811706494712695	51.11999999999999	0.0
C 	43.041462568086594	51.82999999999999	0.0
C 	44.2712186414605	51.12	0.0
C 	45.5009747148344	51.82999999999999	0.0
C 	46.73073078820831	51.11999999999999	0.0
C 	47.96048686158221	51.82999999999999	0.0
C 	49.19024293495611	51.11999999999999	0.0
C 	50.41999900833002	51.82999999999999	0.0
C 	51.649755081703915	51.11999999999998	0.0
C 	52.879511155077815	51.829999999999984	0.0
C 	54.10926722845171	51.11999999999999	0.0
C 	55.33902330182563	51.83	0.0
C 	56.568779375199526	51.11999999999999	0.0
C 	57.79853544857343	51.82999999999999	0.0
C 	59.02829152194733	51.11999999999999	0.0
C 	60.25804759532124	51.82999999999999	0.0
C 	61.48780366869514	51.11999999999999	0.0
C 	62.717559742069035	51.829999999999984	0.0
C 	63.94731581544295	51.11999999999999	0.0
C 	65.17707188881685	51.82999999999999	0.0
C 	66.40682796219075	51.11999999999999	0.0
C 	67.63658403556465	51.82999999999999	0.0
C 	68.86634010893854	51.11999999999998	0.0
C 	70.09609618231246	51.82999999999999	0.0
C 	71.32585225568636	51.11999999999999	0.0
C 	72.55560832906026	51.82999999999999	0.0
C 	73.78536440243417	51.11999999999999	0.0
C 	75.01512047580806	51.82999999999999	0.0
C 	76.24487654918198	51.11999999999999	0.0
C 	77.47463262255587	51.829999999999984	0.0
C 	78.70438869592978	51.11999999999999	0.0
C 	79.93414476930367	51.829999999999984	0.0
C 	81.16390084267758	51.11999999999999	0.0
C 	82.39365691605148	51.82999999999999	0.0
C 	83.62341298942538	51.11999999999998	0.0
C 	84.8531690627993	51.82999999999999	0.0
C 	86.08292513617319	51.11999999999998	0.0
C 	87.3126812095471	51.82999999999999	0.0
C 	88.542437282921	51.11999999999998	0.0
C 	89.7721933562949	51.829999999999984	0.0
C 	52.538520327323546	-0.39431182509708	2.15
C 	53.941037770968634	-0.1721748847399506	2.15
C 	54.44992025932296	1.1535093208860774	2.15
C 	50.24236792838767	0.4870984998146862	2.15
C 	51.644885372032775	0.7092354401718189	2.15
C 	52.1537678603871	2.0349196457978436	2.15
C 	53.5562853040322	2.257056586154973	2.15
C 	54.065167792386525	3.5827407917809975	2.15
C 	55.46768523603161	3.8048777321381237	2.15
C 	55.97656772438594	5.130561937764148	2.15
C 	57.37908516803103	5.352698878121281	2.15
C 	57.88796765638536	6.678383083747306	2.15
C 	46.03481559745239	-0.17931232125669352	2.15
C 	47.43733304109748	0.04282461910043586	2.15
C 	47.946215529451806	1.3685088247264638	2.15
C 	49.348732973096894	1.5906457650835886	2.15
C 	49.857615461451225	2.9163299707096164	2.15
C 	51.26013290509633	3.1384669110667422	2.15
C 	51.76901539345065	4.46415111669277	2.15
C 	53.171532837095754	4.6862880570499	2.15
C 	53.68041532545008	6.011972262675928	2.15
C 	55.08293276909518	6.234109203033047	2.15
C 	55.591815257449504	7.5597934086590755	2.15
C 	56.99433270109459	7.781930349016208	2.15
C 	57.503215189448916	9.107614554642236	2.15
C 	58.90573263309401	9.329751494999362	2.15
C 	59.414615121448335	10.65543570062539	2.15
C 	60.81713256509344	10.877572640982512	2.15
C 	61.32601505344776	12.203256846608541	2.15
C 	41.8272632665171	-0.8457231423280716	2.15
C 	43.22978071016219	-0.6235862019709487	2.15
C 	43.73866319851652	0.7020980036550794	2.15
C 	45.14118064216162	0.924234944012207	2.15
C 	45.650063130515946	2.249919149638235	2.15
C 	47.05258057416105	2.4720560899953625	2.15
C 	47.56146306251537	3.7977402956213906	2.15
C 	48.96398050616046	4.019877235978513	2.15
C 	49.472862994514784	5.345561441604541	2.15
C 	50.87538043815989	5.567698381961669	2.15
C 	51.38426292651421	6.8933825875876975	2.15
C 	52.786780370159306	7.1155195279448265	2.15
C 	53.29566285851363	8.441203733570855	2.15
C 	54.69818030215873	8.663340673927978	2.15
C 	55.207062790513056	9.989024879554005	2.15
C 	56.60958023415815	10.211161819911135	2.15
C 	57.118462722512476	11.536846025537162	2.15
C 	58.52098016615757	11.758982965894289	2.15
C 	59.0298626545119	13.084667171520318	2.15
C 	60.43238009815699	13.30680411187744	2.15
C 	60.941262586511314	14.632488317503467	2.15
C 	62.34378003015642	14.854625257860597	2.15
C 	62.85266251851075	16.180309463486626	2.15
C 	64.25517996215584	16.402446403843754	2.15
C 	64.76406245051017	17.728130609469783	2.15
C 	39.53111086758124	0.03568718258369294	2.15
C 	40.93362831122633	0.25782412294082385	2.15
C 	41.44251079958066	1.5835083285668485	2.15
C 	42.84502824322575	1.8056452689239746	2.15
C 	43.35391073158008	3.1313294745499993	2.15
C 	44.756428175225174	3.3534664149071323	2.15
C 	45.2653106635795	4.679150620533157	2.15
C 	46.6678281072246	4.901287560890288	2.15
C 	47.176710595578925	6.2269717665163125	2.15
C 	48.57922803922403	6.449108706873437	2.15
C 	49.08811052757835	7.7747929124994615	2.15
C 	50.49062797122345	7.996929852856592	2.15
C 	50.99951045957777	9.322614058482618	2.15
C 	52.402027903222866	9.54475099883975	2.15
C 	52.91091039157719	10.870435204465775	2.15
C 	54.313427835222285	11.0925721448229	2.15
C 	54.82231032357661	12.418256350448926	2.15
C 	56.22482776722171	12.640393290806058	2.15
C 	56.733710255576035	13.966077496432083	2.15
C 	58.13622769922114	14.18821443678921	2.15
C 	58.64511018757546	15.513898642415237	2.15
C 	60.04762763122055	15.736035582772363	2.15
C 	60.556510119574874	17.061719788398392	2.15
C 	61.95902756321997	17.283856728755524	2.15
C 	62.4679100515743	18.609540934381545	2.15
C 	63.870427495219396	18.831677874738673	2.15
C 	64.37930998357372	20.157362080364702	2.15
C 	65.78182742721883	20.379499020721823	2.15
C 	66.29070991557315	21.70518322634785	2.15
C 	35.32355853664595	-0.6307236384876851	2.15
C 	36.72607598029104	-0.4085866981305574	2.15
C 	37.234958468645374	0.9170975074954706	2.15
C 	38.63747591229046	1.1392344478525933	2.15
C 	39.14635840064479	2.4649186534786214	2.15
C 	40.548875844289896	2.687055593835749	2.15
C 	41.05775833264422	4.0127397994617775	2.15
C 	42.4602757762893	4.2348767398189	2.15
C 	42.96915826464363	5.560560945444928	2.15
C 	44.371675708288734	5.7826978858020555	2.15
C 	44.88055819664306	7.1083820914280835	2.15
C 	46.28307564028815	7.330519031785213	2.15
C 	46.79195812864248	8.65620323741124	2.15
C 	48.19447557228758	8.878340177768361	2.15
C 	48.703358060641904	10.20402438339439	2.15
C 	50.105875504287006	10.426161323751518	2.15
C 	50.61475799264133	11.751845529377546	2.15
C 	52.01727543628642	11.973982469734676	2.15
C 	52.52615792464074	13.299666675360703	2.15
C 	53.928675368285845	13.521803615717824	2.15
C 	54.43755785664017	14.847487821343853	2.15
C 	55.840075300285264	15.069624761700982	2.15
C 	56.34895778863959	16.39530896732701	2.15
C 	57.75147523228469	16.61744590768414	2.15
C 	58.26035772063902	17.94313011331017	2.15
C 	59.66287516428411	18.16526705366729	2.15
C 	60.17175765263844	19.49095125929332	2.15
C 	61.57427509628353	19.713088199650443	2.15
C 	62.08315758463786	21.03877240527647	2.15
C 	63.48567502828295	21.2609093456336	2.15
C 	63.99455751663728	22.58659355125963	2.15
C 	65.39707496028238	22.808730491616753	2.15
C 	65.9059574486367	24.13441469724278	2.15
C 	67.30847489228181	24.3565516375999	2.15
C 	67.81735738063612	25.68223584322593	2.15
C 	69.21987482428122	25.904372783583064	2.15
C 	69.72875731263555	27.230056989209093	2.15
C 	33.02740613771008	0.25068668642408937	2.15
C 	34.429923581355176	0.47282362678121365	2.15
C 	34.93880606970951	1.7985078324072417	2.15
C 	36.3413235133546	2.020644772764371	2.15
C 	36.850206001708926	3.346328978390399	2.15
C 	38.25272344535403	3.56846591874752	2.15
C 	38.76160593370835	4.894150124373549	2.15
C 	40.16412337735345	5.1162870647306775	2.15
C 	40.67300586570777	6.441971270356706	2.15
C 	42.075523309352874	6.6641082107138265	2.15
C 	42.5844057977072	7.989792416339855	2.15
C 	43.98692324135229	8.211929356696984	2.15
C 	44.49580572970661	9.537613562323012	2.15
C 	45.89832317335171	9.75975050268014	2.15
C 	46.40720566170604	11.085434708306169	2.15
C 	47.80972310535113	11.307571648663291	2.15
C 	48.318605593705456	12.633255854289319	2.15
C 	49.72112303735056	12.855392794646447	2.15
C 	50.23000552570488	14.181077000272474	2.15
C 	51.632522969349985	14.403213940629602	2.15
C 	52.141405457704316	15.72889814625563	2.15
C 	53.5439229013494	15.951035086612753	2.15
C 	54.05280538970372	17.27671929223878	2.15
C 	55.455322833348816	17.498856232595912	2.15
C 	55.96420532170315	18.82454043822194	2.15
C 	57.36672276534824	19.046677378579066	2.15
C 	57.875605253702574	20.372361584205095	2.15
C 	59.27812269734766	20.594498524562216	2.15
C 	59.78700518570199	21.920182730188245	2.15
C 	61.18952262934709	22.142319670545373	2.15
C 	61.69840511770142	23.4680038761714	2.15
C 	63.100922561346515	23.690140816528533	2.15
C 	63.60980504970084	25.01582502215456	2.15
C 	65.01232249334593	25.23796196251168	2.15
C 	65.52120498170025	26.56364616813771	2.15
C 	66.92372242534536	26.78578310849483	2.15
C 	67.43260491369968	28.11146731412086	2.15
C 	68.83512235734477	28.333604254477994	2.15
C 	69.3440048456991	29.659288460104023	2.15
C 	70.7465222893442	29.88142540046114	2.15
C 	71.25540477769853	31.20710960608717	2.15
C 	72.65792222134363	31.429246546444293	2.15
C 	73.16680470969796	32.75493075207032	2.15
C 	28.8198538067748	-0.41572413464730035	2.15
C 	30.222371250419894	-0.19358719429016766	2.15
C 	30.731253738774218	1.132097011335857	2.15
C 	32.133771182419316	1.3542339516929847	2.15
C 	32.64265367077364	2.6799181573190096	2.15
C 	34.045171114418736	2.902055097676139	2.15
C 	34.55405360277306	4.2277393033021635	2.15
C 	35.95657104641816	4.449876243659294	2.15
C 	36.465453534772486	5.77556044928532	2.15
C 	37.86797097841758	5.997697389642445	2.15
C 	38.376853466771905	7.32338159526847	2.15
C 	39.77937091041701	7.545518535625601	2.15
C 	40.28825339877133	8.871202741251626	2.15
C 	41.69077084241643	9.093339681608752	2.15
C 	42.19965333077075	10.419023887234777	2.15
C 	43.60217077441585	10.641160827591907	2.15
C 	44.11105326277018	11.966845033217933	2.15
C 	45.513570706415265	12.188981973575064	2.15
C 	46.02245319476959	13.51466617920109	2.15
C 	47.42497063841469	13.736803119558214	2.15
C 	47.933853126769016	15.06248732518424	2.15
C 	49.33637057041412	15.28462426554137	2.15
C 	49.84525305876844	16.610308471167393	2.15
C 	51.24777050241354	16.832445411524525	2.15
C 	51.75665299076786	18.158129617150554	2.15
C 	53.159170434412964	18.380266557507674	2.15
C 	53.66805292276729	19.7059507631337	2.15
C 	55.070570366412376	19.92808770349084	2.15
C 	55.57945285476671	21.253771909116857	2.15
C 	56.9819702984118	21.475908849473985	2.15
C 	57.49085278676613	22.801593055100014	2.15
C 	58.89337023041122	23.02372999545714	2.15
C 	59.40225271876555	24.349414201083164	2.15
C 	60.804770162410655	24.571551141440303	2.15
C 	61.31365265076498	25.89723534706632	2.15
C 	62.71617009441007	26.119372287423452	2.15
C 	63.2250525827644	27.44505649304948	2.15
C 	64.62757002640949	27.6671934334066	2.15
C 	65.13645251476382	28.992877639032628	2.15
C 	66.53896995840891	29.215014579389745	2.15
C 	67.04785244676324	30.540698785015774	2.15
C 	68.45036989040834	30.762835725372913	2.15
C 	68.95925237876267	32.08851993099894	2.15
C 	70.36176982240777	32.31065687135606	2.15
C 	70.8706523107621	33.63634107698209	2.15
C 	72.27316975440718	33.85847801733921	2.15
C 	72.78205224276151	35.18416222296524	2.15
C 	74.1845696864066	35.40629916332237	2.15
C 	74.69345217476094	36.731983368948406	2.15
C 	76.09596961840602	36.95412030930553	2.15
C 	76.60485210676035	38.279804514931556	2.15
C 	26.523701407838935	0.4656861902644724	2.15
C 	27.926218851484027	0.6878231306216002	2.15
C 	28.43510133983835	2.0135073362476263	2.15
C 	29.837618783483453	2.2356442766047557	2.15
C 	30.34650127183778	3.561328482230782	2.15
C 	31.749018715482872	3.78346542258791	2.15
C 	32.2579012038372	5.109149628213935	2.15
C 	33.660418647482295	5.331286568571063	2.15
C 	34.16930113583662	6.656970774197091	2.15
C 	35.571818579481715	6.87910771455422	2.15
C 	36.080701067836046	8.204791920180249	2.15
C 	37.48321851148114	8.42692886053737	2.15
C 	37.992100999835465	9.752613066163397	2.15
C 	39.39461844348056	9.974750006520527	2.15
C 	39.903500931834884	11.300434212146554	2.15
C 	41.30601837547999	11.522571152503675	2.15
C 	41.81490086383431	12.848255358129704	2.15
C 	43.217418307479406	13.070392298486833	2.15
C 	43.72630079583373	14.39607650411286	2.15
C 	45.12881823947883	14.618213444469989	2.15
C 	45.637700727833156	15.943897650096016	2.15
C 	47.040218171478244	16.16603459045314	2.15
C 	47.54910065983257	17.491718796079166	2.15
C 	48.95161810347767	17.713855736436294	2.15
C 	49.460500591831995	19.039539942062323	2.15
C 	50.8630180354771	19.26167688241945	2.15
C 	51.37190052383143	20.58736108804548	2.15
C 	52.774417967476516	20.8094980284026	2.15
C 	53.28330045583085	22.13518223402863	2.15
C 	54.685817899475936	22.357319174385758	2.15
C 	55.19470038783027	23.683003380011787	2.15
C 	56.597217831475355	23.905140320368915	2.15
C 	57.106100319829686	25.230824525994944	2.15
C 	58.508617763474774	25.45296146635207	2.15
C 	59.017500251829105	26.778645671978094	2.15
C 	60.4200176954742	27.00078261233522	2.15
C 	60.92890018382853	28.32646681796125	2.15
C 	62.33141762747363	28.54860375831838	2.15
C 	62.84030011582795	29.874287963944408	2.15
C 	64.24281755947305	30.09642490430153	2.15
C 	64.75170004782737	31.422109109927558	2.15
C 	66.15421749147247	31.644246050284675	2.15
C 	66.6630999798268	32.969930255910704	2.15
C 	68.06561742347189	33.19206719626784	2.15
C 	68.57449991182622	34.51775140189387	2.15
C 	69.97701735547132	34.73988834225099	2.15
C 	70.48589984382565	36.06557254787702	2.15
C 	71.88841728747073	36.28770948823414	2.15
C 	72.39729977582506	37.61339369386017	2.15
C 	73.79981721947017	37.8355306342173	2.15
C 	74.30869970782449	39.16121483984333	2.15
C 	75.71121715146958	39.38335178020046	2.15
C 	76.22009963982391	40.709035985826475	2.15
C 	77.62261708346901	40.93117292618361	2.15
C 	78.13149957182333	42.256857131809625	2.15
C 	22.316149076903645	-0.20072463080691222	2.15
C 	23.71866652054874	0.02141230955021793	2.15
C 	24.227549008903065	1.3470965151762444	2.15
C 	25.630066452548164	1.5692334555333711	2.15
C 	26.138948940902488	2.8949176611593974	2.15
C 	27.54146638454759	3.1170546015165237	2.15
C 	28.050348872901914	4.4427388071425495	2.15
C 	29.452866316547006	4.664875747499681	2.15
C 	29.961748804901333	5.990559953125706	2.15
C 	31.364266248546432	6.212696893482834	2.15
C 	31.87314873690076	7.538381099108862	2.15
C 	33.275666180545855	7.760518039465987	2.15
C 	33.78454866890018	9.086202245092013	2.15
C 	35.187066112545274	9.308339185449142	2.15
C 	35.695948600899605	10.634023391075168	2.15
C 	37.09846604454469	10.856160331432294	2.15
C 	37.60734853289902	12.18184453705832	2.15
C 	39.00986597654412	12.40398147741545	2.15
C 	39.518748464898444	13.729665683041475	2.15
C 	40.92126590854354	13.951802623398601	2.15
C 	41.43014839689786	15.277486829024625	2.15
C 	42.832665840542965	15.499623769381756	2.15
C 	43.34154832889729	16.82530797500778	2.15
C 	44.744065772542385	17.047444915364913	2.15
C 	45.25294826089671	18.37312912099094	2.15
C 	46.65546570454181	18.595266061348067	2.15
C 	47.164348192896135	19.92095026697409	2.15
C 	48.56686563654123	20.143087207331217	2.15
C 	49.075748124895554	21.468771412957242	2.15
C 	50.47826556854065	21.69090835331438	2.15
C 	50.98714805689498	23.0165925589404	2.15
C 	52.389665500540076	23.238729499297527	2.15
C 	52.8985479888944	24.56441370492355	2.15
C 	54.301065432539495	24.78655064528068	2.15
C 	54.809947920893826	26.112234850906706	2.15
C 	56.21246536453893	26.33437179126384	2.15
C 	56.72134785289325	27.660055996889863	2.15
C 	58.123865296538334	27.88219293724699	2.15
C 	58.632747784892665	29.207877142873013	2.15
C 	60.03526522853776	29.43001408323014	2.15
C 	60.54414771689209	30.75569828885617	2.15
C 	61.94666516053719	30.977835229213305	2.15
C 	62.45554764889151	32.30351943483932	2.15
C 	63.85806509253661	32.525656375196455	2.15
C 	64.36694758089094	33.85134058082248	2.15
C 	65.76946502453603	34.073477521179605	2.15
C 	66.27834751289036	35.39916172680562	2.15
C 	67.68086495653546	35.62129866716277	2.15
C 	68.18974744488978	36.94698287278879	2.15
C 	69.59226488853487	37.16911981314591	2.15
C 	70.1011473768892	38.49480401877194	2.15
C 	71.5036648205343	38.71694095912907	2.15
C 	72.01254730888861	40.04262516475509	2.15
C 	73.41506475253372	40.26476210511223	2.15
C 	73.92394724088805	41.59044631073826	2.15
C 	75.32646468453315	41.81258325109538	2.15
C 	75.83534717288747	43.13826745672141	2.15
C 	77.23786461653258	43.36040439707853	2.15
C 	77.7467471048869	44.68608860270456	2.15
C 	18.10859674596836	-0.8671354518782928	2.15
C 	19.511114189613455	-0.6449985115211659	2.15
C 	20.019996677967782	0.6806856941048605	2.15
C 	21.422514121612874	0.9028226344619873	2.15
C 	21.9313966099672	2.2285068400880137	2.15
C 	23.3339140536123	2.450643780445144	2.15
C 	23.842796541966624	3.7763279860711703	2.15
C 	25.245313985611723	3.998464926428296	2.15
C 	25.75419647396605	5.324149132054322	2.15
C 	27.156713917611143	5.54628607241145	2.15
C 	27.66559640596547	6.871970278037477	2.15
C 	29.06811384961057	7.094107218394605	2.15
C 	29.576996337964896	8.419791424020632	2.15
C 	30.979513781609985	8.641928364377762	2.15
C 	31.488396269964312	9.967612570003787	2.15
C 	32.890913713609415	10.189749510360912	2.15
C 	33.39979620196374	11.515433715986939	2.15
C 	34.802313645608834	11.737570656344069	2.15
C 	35.31119613396316	13.063254861970096	2.15
C 	36.71371357760825	13.285391802327217	2.15
C 	37.222596065962584	14.611076007953246	2.15
C 	38.62511350960767	14.833212948310376	2.15
C 	39.133995997962	16.158897153936405	2.15
C 	40.5365134416071	16.381034094293526	2.15
C 	41.04539592996142	17.70671829991955	2.15
C 	42.44791337360652	17.928855240276683	2.15
C 	42.95679586196084	19.254539445902708	2.15
C 	44.359313305605944	19.476676386259836	2.15
C 	44.86819579396027	20.802360591885865	2.15
C 	46.270713237605364	21.02449753224299	2.15
C 	46.77959572595969	22.350181737869015	2.15
C 	48.18211316960479	22.572318678226143	2.15
C 	48.69099565795912	23.898002883852172	2.15
C 	50.09351310160421	24.1201398242093	2.15
C 	50.60239558995854	25.44582402983533	2.15
C 	52.00491303360363	25.66796097019245	2.15
C 	52.51379552195796	26.99364517581848	2.15
C 	53.91631296560305	27.215782116175607	2.15
C 	54.42519545395738	28.541466321801636	2.15
C 	55.827712897602474	28.763603262158764	2.15
C 	56.336595385956805	30.089287467784793	2.15
C 	57.73911282960189	30.311424408141914	2.15
C 	58.247995317956224	31.637108613767943	2.15
C 	59.65051276160132	31.85924555412507	2.15
C 	60.159395249955644	33.1849297597511	2.15
C 	61.56191269360074	33.40706670010823	2.15
C 	62.07079518195506	34.73275090573426	2.15
C 	63.473312625600165	34.954887846091374	2.15
C 	63.98219511395449	36.28057205171741	2.15
C 	65.38471255759958	36.502708992074524	2.15
C 	65.89359504595392	37.82839319770056	2.15
C 	67.29611248959901	38.05053013805769	2.15
C 	67.80499497795334	39.37621434368372	2.15
C 	69.20751242159842	39.59835128404084	2.15
C 	69.71639490995275	40.92403548966686	2.15
C 	71.11891235359785	41.14617243002399	2.15
C 	71.62779484195218	42.47185663565002	2.15
C 	73.03031228559728	42.69399357600715	2.15
C 	73.5391947739516	44.019677781633185	2.15
C 	74.9417122175967	44.2418147219903	2.15
C 	75.45059470595102	45.567498927616334	2.15
C 	76.85311214959611	45.78963586797345	2.15
C 	15.812444347032494	0.014274873033479983	2.15
C 	17.214961790677588	0.23641181339060682	2.15
C 	17.723844279031916	1.5620960190166333	2.15
C 	19.126361722677014	1.78423295937376	2.15
C 	19.63524421103134	3.1099171649997865	2.15
C 	21.037761654676437	3.3320541053569133	2.15
C 	21.54664414303076	4.65773831098294	2.15
C 	22.949161586675856	4.87987525134007	2.15
C 	23.458044075030184	6.205559456966096	2.15
C 	24.86056151867528	6.427696397323223	2.15
C 	25.369444007029607	7.753380602949248	2.15
C 	26.7719614506747	7.975517543306377	2.15
C 	27.280843939029026	9.301201748932405	2.15
C 	28.68336138267412	9.523338689289533	2.15
C 	29.19224387102845	10.849022894915562	2.15
C 	30.594761314673544	11.071159835272686	2.15
C 	31.10364380302787	12.396844040898712	2.15
C 	32.50616124667297	12.61898098125584	2.15
C 	33.01504373502729	13.944665186881867	2.15
C 	34.417561178672386	14.166802127238997	2.15
C 	34.92644366702672	15.492486332865026	2.15
C 	36.32896111067181	15.714623273222147	2.15
C 	36.83784359902614	17.040307478848174	2.15
C 	38.24036104267123	17.262444419205302	2.15
C 	38.749243531025556	18.58812862483133	2.15
C 	40.15176097467065	18.810265565188452	2.15
C 	40.66064346302498	20.13594977081448	2.15
C 	42.06316090667008	20.35808671117161	2.15
C 	42.5720433950244	21.683770916797638	2.15
C 	43.9745608386695	21.905907857154766	2.15
C 	44.48344332702383	23.231592062780795	2.15
C 	45.88596077066892	23.453729003137916	2.15
C 	46.394843259023254	24.77941320876394	2.15
C 	47.79736070266835	25.00155014912107	2.15
C 	48.30624319102268	26.327234354747098	2.15
C 	49.70876063466777	26.549371295104226	2.15
C 	50.2176431230221	27.875055500730255	2.15
C 	51.62016056666719	28.097192441087376	2.15
C 	52.12904305502152	29.422876646713405	2.15
C 	53.53156049866661	29.645013587070533	2.15
C 	54.04044298702094	30.970697792696562	2.15
C 	55.44296043066604	31.19283473305369	2.15
C 	55.951842919020365	32.51851893867972	2.15
C 	57.35436036266546	32.740655879036844	2.15
C 	57.863242851019784	34.06634008466287	2.15
C 	59.26576029466489	34.28847702501999	2.15
C 	59.77464278301921	35.614161230646026	2.15
C 	61.1771602266643	35.83629817100315	2.15
C 	61.68604271501862	37.16198237662918	2.15
C 	63.088560158663725	37.3841193169863	2.15
C 	63.59744264701805	38.70980352261233	2.15
C 	64.99996009066315	38.93194046296945	2.15
C 	65.50884257901748	40.257624668595476	2.15
C 	66.91136002266258	40.479761608952614	2.15
C 	67.4202425110169	41.80544581457865	2.15
C 	68.82275995466199	42.027582754935764	2.15
C 	69.33164244301632	43.35326696056179	2.15
C 	70.73415988666142	43.57540390091892	2.15
C 	71.24304237501573	44.90108810654494	2.15
C 	72.64555981866084	45.12322504690207	2.15
C 	73.15444230701516	46.4489092525281	2.15
C 	74.55695975066025	46.67104619288522	2.15
C 	11.604892016097207	-0.6521359480379051	2.15
C 	13.007409459742306	-0.42999900768077703	2.15
C 	13.516291948096631	0.8956851979452494	2.15
C 	14.918809391741727	1.1178221383023779	2.15
C 	15.427691880096052	2.443506343928404	2.15
C 	16.830209323741148	2.6656432842855313	2.15
C 	17.339091812095475	3.9913274899115576	2.15
C 	18.74160925574057	4.213464430268685	2.15
C 	19.250491744094894	5.539148635894711	2.15
C 	20.653009187739993	5.761285576251837	2.15
C 	21.161891676094317	7.086969781877864	2.15
C 	22.564409119739416	7.309106722234994	2.15
C 	23.073291608093744	8.634790927861019	2.15
C 	24.475809051738835	8.856927868218147	2.15
C 	24.984691540093163	10.182612073844176	2.15
C 	26.387208983738258	10.4047490142013	2.15
C 	26.896091472092586	11.730433219827326	2.15
C 	28.298608915737677	11.952570160184457	2.15
C 	28.807491404092005	13.278254365810483	2.15
C 	30.2100088477371	13.50039130616761	2.15
C 	30.718891336091428	14.826075511793638	2.15
C 	32.12140877973653	15.048212452150764	2.15
C 	32.63029126809085	16.37389665777679	2.15
C 	34.032808711735946	16.59603359813392	2.15
C 	34.54169120009027	17.921717803759947	2.15
C 	35.944208643735365	18.14385474411707	2.15
C 	36.453091132089696	19.469538949743097	2.15
C 	37.85560857573479	19.69167589010023	2.15
C 	38.364491064089115	21.01736009572625	2.15
C 	39.76700850773421	21.23949703608338	2.15
C 	40.275890996088535	22.565181241709404	2.15
C 	41.67840843973363	22.78731818206653	2.15
C 	42.18729092808796	24.113002387692557	2.15
C 	43.589808371733056	24.335139328049696	2.15
C 	44.09869086008739	25.660823533675714	2.15
C 	45.501208303732476	25.882960474032842	2.15
C 	46.0100907920868	27.208644679658864	2.15
C 	47.4126082357319	27.430781620015992	2.15
C 	47.92149072408623	28.75646582564202	2.15
C 	49.324008167731336	28.978602765999156	2.15
C 	49.83289065608566	30.304286971625174	2.15
C 	51.23540809973075	30.526423911982306	2.15
C 	51.74429058808508	31.852108117608328	2.15
C 	53.14680803173016	32.074245057965456	2.15
C 	53.65569052008449	33.39992926359148	2.15
C 	55.05820796372959	33.62206620394862	2.15
C 	55.56709045208392	34.94775040957464	2.15
C 	56.96960789572901	35.16988734993177	2.15
C 	57.47849038408334	36.49557155555779	2.15
C 	58.88100782772844	36.71770849591492	2.15
C 	59.38989031608276	38.043392701540945	2.15
C 	60.79240775972786	38.265529641898084	2.15
C 	61.30129024808218	39.5912138475241	2.15
C 	62.70380769172728	39.813350787881234	2.15
C 	63.2126901800816	41.13903499350725	2.15
C 	64.6152076237267	41.361171933864384	2.15
C 	65.12409011208102	42.6868561394904	2.15
C 	66.52660755572613	42.90899307984755	2.15
C 	67.03549004408045	44.23467728547357	2.15
C 	68.43800748772556	44.4568142258307	2.15
C 	68.94688997607987	45.78249843145672	2.15
C 	70.34940741972497	46.00463537181385	2.15
C 	9.308739617161343	0.22927437687386684	2.15
C 	10.711257060806437	0.45141131723099365	2.15
C 	11.220139549160765	1.77709552285702	2.15
C 	12.622656992805862	1.999232463214148	2.15
C 	13.131539481160187	3.3249166688401743	2.15
C 	14.534056924805284	3.5470536091973024	2.15
C 	15.042939413159612	4.8727378148233305	2.15
C 	16.445456856804707	5.094874755180456	2.15
C 	16.95433934515903	6.420558960806484	2.15
C 	18.356856788804127	6.642695901163608	2.15
C 	18.865739277158454	7.9683801067896365	2.15
C 	20.26825672080355	8.190517047146763	2.15
C 	20.777139209157877	9.51620125277279	2.15
C 	22.179656652802972	9.738338193129918	2.15
C 	22.6885391411573	11.064022398755947	2.15
C 	24.091056584802395	11.286159339113071	2.15
C 	24.599939073156722	12.6118435447391	2.15
C 	26.002456516801814	12.833980485096225	2.15
C 	26.51133900515614	14.159664690722254	2.15
C 	27.913856448801237	14.381801631079382	2.15
C 	28.422738937155565	15.707485836705409	2.15
C 	29.82525638080066	15.929622777062535	2.15
C 	30.334138869154984	17.255306982688563	2.15
C 	31.736656312800083	17.477443923045687	2.15
C 	32.24553880115441	18.803128128671716	2.15
C 	33.648056244799506	19.025265069028844	2.15
C 	34.15693873315383	20.350949274654873	2.15
C 	35.559456176798925	20.573086215011994	2.15
C 	36.06833866515325	21.898770420638023	2.15
C 	37.47085610879835	22.12090736099515	2.15
C 	37.979738597152675	23.44659156662118	2.15
C 	39.38225604079777	23.6687285069783	2.15
C 	39.891138529152094	24.99441271260433	2.15
C 	41.29365597279719	25.216549652961458	2.15
C 	41.80253846115152	26.542233858587487	2.15
C 	43.205055904796616	26.764370798944615	2.15
C 	43.71393839315094	28.090055004570644	2.15
C 	45.116455836796035	28.312191944927765	2.15
C 	45.625338325150366	29.637876150553794	2.15
C 	47.02785576879546	29.86001309091092	2.15
C 	47.53673825714979	31.185697296536947	2.15
C 	48.93925570079488	31.407834236894075	2.15
C 	49.44813818914921	32.73351844252011	2.15
C 	50.85065563279431	32.955655382877225	2.15
C 	51.35953812114864	34.28133958850325	2.15
C 	52.762055564793734	34.50347652886038	2.15
C 	53.27093805314806	35.82916073448641	2.15
C 	54.67345549679315	36.05129767484354	2.15
C 	55.18233798514748	37.376981880469565	2.15
C 	56.58485542879257	37.59911882082669	2.15
C 	57.093737917146896	38.924803026452715	2.15
C 	58.496255360792	39.146939966809846	2.15
C 	59.00513784914632	40.47262417243587	2.15
C 	60.40765529279142	40.694761112793	2.15
C 	60.91653778114574	42.02044531841903	2.15
C 	62.319055224790844	42.24258225877615	2.15
C 	62.82793771314517	43.56826646440218	2.15
C 	64.23045515679026	43.7904034047593	2.15
C 	64.73933764514459	45.11608761038533	2.15
C 	66.14185508878968	45.33822455074247	2.15
C 	66.65073757714401	46.66390875636849	2.15
C 	68.05325502078911	46.88604569672561	2.15
C 	5.101187286226056	-0.43713644419751596	2.15
C 	6.503704729871153	-0.21499950384038852	2.15
C 	7.012587218225479	1.1106847017856378	2.15
C 	8.415104661870574	1.3328216421427657	2.15
C 	8.923987150224901	2.658505847768792	2.15
C 	10.326504593869997	2.8806427881259187	2.15
C 	10.835387082224322	4.206326993751945	2.15
C 	12.237904525869418	4.4284639341090735	2.15
C 	12.746787014223745	5.7541481397351	2.15
C 	14.149304457868839	5.976285080092229	2.15
C 	14.658186946223166	7.301969285718255	2.15
C 	16.060704389868263	7.524106226075382	2.15
C 	16.56958687822259	8.84979043170141	2.15
C 	17.972104321867683	9.071927372058536	2.15
C 	18.48098681022201	10.397611577684563	2.15
C 	19.883504253867105	10.61974851804169	2.15
C 	20.392386742221433	11.945432723667714	2.15
C 	21.794904185866528	12.167569664024848	2.15
C 	22.303786674220856	13.493253869650871	2.15
C 	23.70630411786595	13.715390810007996	2.15
C 	24.21518660622028	15.041075015634025	2.15
C 	25.617704049865374	15.263211955991153	2.15
C 	26.1265865382197	16.58889616161718	2.15
C 	27.529103981864797	16.81103310197431	2.15
C 	28.03798647021912	18.136717307600335	2.15
C 	29.44050391386422	18.35885424795746	2.15
C 	29.949386402218543	19.68453845358349	2.15
C 	31.35190384586364	19.906675393940617	2.15
C 	31.860786334217966	21.23235959956664	2.15
C 	33.263303777863065	21.454496539923774	2.15
C 	33.77218626621739	22.7801807455498	2.15
C 	35.174703709862484	23.002317685906924	2.15
C 	35.68358619821681	24.328001891532953	2.15
C 	37.086103641861904	24.550138831890077	2.15
C 	37.59498613021623	25.8758230375161	2.15
C 	38.99750357386133	26.09795997787323	2.15
C 	39.506386062215654	27.423644183499253	2.15
C 	40.90890350586075	27.645781123856384	2.15
C 	41.41778599421508	28.971465329482413	2.15
C 	42.82030343786017	29.19360226983954	2.15
C 	43.3291859262145	30.519286475465563	2.15
C 	44.731703369859595	30.74142341582269	2.15
C 	45.24058585821392	32.06710762144871	2.15
C 	46.643103301859014	32.289244561805845	2.15
C 	47.151985790213345	33.61492876743188	2.15
C 	48.55450323385845	33.837065707789	2.15
C 	49.06338572221277	35.16274991341503	2.15
C 	50.46590316585787	35.38488685377215	2.15
C 	50.97478565421219	36.71057105939818	2.15
C 	52.377303097857286	36.93270799975531	2.15
C 	52.88618558621161	38.25839220538134	2.15
C 	54.28870302985671	38.480529145738466	2.15
C 	54.79758551821104	39.80621335136449	2.15
C 	56.200102961856125	40.028350291721615	2.15
C 	56.70898545021045	41.35403449734764	2.15
C 	58.11150289385555	41.57617143770477	2.15
C 	58.620385382209875	42.901855643330805	2.15
C 	60.02290282585497	43.12399258368793	2.15
C 	60.531785314209294	44.449676789313955	2.15
C 	61.9343027578544	44.67181372967108	2.15
C 	62.44318524620872	45.997497935297105	2.15
C 	63.845702689853816	46.21963487565422	2.15
C 	2.805034887290191	0.4442738807142552	2.15
C 	4.207552330935287	0.6664108210713828	2.15
C 	4.7164348192896135	1.9920950266974091	2.15
C 	6.118952262934709	2.2142319670545367	2.15
C 	6.627834751289035	3.5399161726805635	2.15
C 	8.030352194934132	3.762053113037691	2.15
C 	8.539234683288457	5.087737318663717	2.15
C 	9.941752126933553	5.309874259020845	2.15
C 	10.450634615287878	6.63555846464687	2.15
C 	11.853152058932976	6.857695405003998	2.15
C 	12.362034547287303	8.183379610630027	2.15
C 	13.764551990932398	8.405516550987155	2.15
C 	14.273434479286724	9.731200756613179	2.15
C 	15.67595192293182	9.953337696970308	2.15
C 	16.184834411286147	11.279021902596332	2.15
C 	17.587351854931242	11.501158842953462	2.15
C 	18.09623434328557	12.826843048579486	2.15
C 	19.498751786930665	13.048979988936615	2.15
C 	20.00763427528499	14.374664194562639	2.15
C 	21.410151718930084	14.59680113491977	2.15
C 	21.91903420728441	15.922485340545796	2.15
C 	23.321551650929507	16.144622280902922	2.15
C 	23.830434139283835	17.470306486528948	2.15
C 	25.232951582928933	17.692443426886076	2.15
C 	25.741834071283257	19.0181276325121	2.15
C 	27.144351514928356	19.240264572869233	2.15
C 	27.65323400328268	20.565948778495258	2.15
C 	29.055751446927776	20.788085718852386	2.15
C 	29.564633935282103	22.11376992447841	2.15
C 	30.9671513789272	22.33590686483554	2.15
C 	31.476033867281526	23.661591070461565	2.15
C 	32.87855131092662	23.883728010818693	2.15
C 	33.38743379928094	25.209412216444722	2.15
C 	34.78995124292604	25.431549156801843	2.15
C 	35.29883373128037	26.757233362427872	2.15
C 	36.70135117492546	26.979370302785	2.15
C 	37.210233663279794	28.30505450841103	2.15
C 	38.61275110692488	28.52719144876815	2.15
C 	39.12163359527921	29.85287565439418	2.15
C 	40.52415103892431	30.075012594751307	2.15
C 	41.03303352727863	31.400696800377336	2.15
C 	42.43555097092373	31.622833740734464	2.15
C 	42.94443345927806	32.94851794636049	2.15
C 	44.34695090292315	33.170654886717614	2.15
C 	44.85583339127748	34.49633909234364	2.15
C 	46.258350834922574	34.71847603270077	2.15
C 	46.767233323276905	36.044160238326796	2.15
C 	48.169750766922	36.26629717868393	2.15
C 	48.678633255276324	37.59198138430995	2.15
C 	50.08115069892142	37.81411832466707	2.15
C 	50.59003318727575	39.1398025302931	2.15
C 	51.992550630920846	39.361939470650235	2.15
C 	52.50143311927517	40.68762367627626	2.15
C 	53.90395056292027	40.909760616633385	2.15
C 	54.412833051274596	42.23544482225942	2.15
C 	55.81535049491969	42.457581762616535	2.15
C 	56.324232983274015	43.78326596824257	2.15
C 	57.72675042691911	44.00540290859969	2.15
C 	58.235632915273435	45.331087114225724	2.15
C 	59.63815035891853	45.55322405458285	2.15
C 	1.9113999319994222	1.5478211459831541	2.15
C 	2.420282420353749	2.8735053516091806	2.15
C 	3.8227998639988443	3.0956422919663082	2.15
C 	4.331682352353171	4.421326497592334	2.15
C 	5.734199795998267	4.643463437949462	2.15
C 	6.243082284352593	5.969147643575488	2.15
C 	7.645599727997689	6.1912845839326165	2.15
C 	8.154482216352015	7.516968789558643	2.15
C 	9.55699965999711	7.73910572991577	2.15
C 	10.065882148351438	9.064789935541796	2.15
C 	11.468399591996533	9.286926875898924	2.15
C 	11.97728208035086	10.61261108152495	2.15
C 	13.379799523995956	10.83474802188208	2.15
C 	13.888682012350282	12.160432227508103	2.15
C 	15.291199455995377	12.382569167865233	2.15
C 	15.800081944349705	13.70825337349126	2.15
C 	17.2025993879948	13.930390313848385	2.15
C 	17.711481876349126	15.25607451947441	2.15
C 	19.11399931999422	15.47821145983154	2.15
C 	19.62288180834855	16.803895665457567	2.15
C 	21.025399251993644	17.026032605814695	2.15
C 	21.53428174034797	18.351716811440724	2.15
C 	22.936799183993067	18.57385375179785	2.15
C 	23.445681672347394	19.899537957423874	2.15
C 	24.84819911599249	20.121674897781002	2.15
C 	25.357081604346813	21.44735910340703	2.15
C 	26.759599047991912	21.66949604376416	2.15
C 	27.26848153634624	22.995180249390184	2.15
C 	28.670998979991335	23.217317189747313	2.15
C 	29.179881468345663	24.543001395373334	2.15
C 	30.582398911990754	24.765138335730466	2.15
C 	31.091281400345082	26.09082254135649	2.15
C 	32.49379884399018	26.31295948171362	2.15
C 	33.00268133234451	27.63864368733965	2.15
C 	34.4051987759896	27.86078062769677	2.15
C 	34.91408126434393	29.1864648333228	2.15
C 	36.31659870798902	29.408601773679926	2.15
C 	36.82548119634335	30.734285979305955	2.15
C 	38.22799863998844	30.95642291966308	2.15
C 	38.73688112834277	32.28210712528911	2.15
C 	40.13939857198786	32.50424406564623	2.15
C 	40.64828106034219	33.82992827127226	2.15
C 	42.05079850398729	34.05206521162939	2.15
C 	42.55968099234161	35.37774941725542	2.15
C 	43.96219843598671	35.59988635761254	2.15
C 	44.47108092434104	36.925570563238566	2.15
C 	45.87359836798613	37.1477075035957	2.15
C 	46.38248085634046	38.47339170922172	2.15
C 	47.78499829998556	38.695528649578854	2.15
C 	48.293880788339884	40.02121285520488	2.15
C 	49.69639823198498	40.243349795562004	2.15
C 	50.2052807203393	41.56903400118803	2.15
C 	51.6077981639844	41.79117094154516	2.15
C 	52.11668065233872	43.11685514717119	2.15
C 	53.519198095983825	43.33899208752832	2.15
C 	54.02808058433815	44.66467629315434	2.15
C 	55.430598027983244	44.88681323351147	2.15
C 	55.93948051633757	46.21249743913749	2.15
C 	57.34199795998267	46.434634379494625	2.15
C 	3.438047397062402	5.524873762861233	2.15
C 	3.9469298854167287	6.8505579684872595	2.15
C 	5.3494473290618245	7.072694908844388	2.15
C 	5.858329817416151	8.398379114470414	2.15
C 	7.2608472610612464	8.62051605482754	2.15
C 	7.769729749415573	9.946200260453569	2.15
C 	9.172247193060668	10.168337200810694	2.15
C 	9.681129681414996	11.494021406436723	2.15
C 	11.083647125060091	11.71615834679385	2.15
C 	11.592529613414419	13.041842552419874	2.15
C 	12.995047057059514	13.263979492777004	2.15
C 	13.50392954541384	14.589663698403031	2.15
C 	14.906446989058935	14.811800638760156	2.15
C 	15.415329477413263	16.137484844386183	2.15
C 	16.817846921058358	16.35962178474331	2.15
C 	17.326729409412685	17.685305990369336	2.15
C 	18.729246853057777	17.907442930726464	2.15
C 	19.238129341412105	19.23312713635249	2.15
C 	20.640646785057204	19.45526407670962	2.15
C 	21.149529273411527	20.780948282335647	2.15
C 	22.552046717056626	21.00308522269277	2.15
C 	23.06092920541095	22.3287694283188	2.15
C 	24.463446649056046	22.550906368675925	2.15
C 	24.972329137410373	23.876590574301954	2.15
C 	26.37484658105547	24.098727514659082	2.15
C 	26.883729069409796	25.424411720285107	2.15
C 	28.28624651305489	25.646548660642235	2.15
C 	28.79512900140922	26.972232866268264	2.15
C 	30.197646445054314	27.194369806625392	2.15
C 	30.70652893340864	28.520054012251414	2.15
C 	32.10904637705374	28.74219095260855	2.15
C 	32.61792886540806	30.06787515823457	2.15
C 	34.020446309053156	30.2900120985917	2.15
C 	34.52932879740748	31.61569630421772	2.15
C 	35.931846241052575	31.837833244574856	2.15
C 	36.440728729406906	33.16351745020088	2.15
C 	37.843246173052	33.385654390558	2.15
C 	38.352128661406326	34.71133859618403	2.15
C 	39.75464610505142	34.93347553654116	2.15
C 	40.26352859340575	36.259159742167185	2.15
C 	41.66604603705085	36.48129668252432	2.15
C 	42.17492852540517	37.80698088815034	2.15
C 	43.57744596905027	38.02911782850747	2.15
C 	44.08632845740459	39.35480203413349	2.15
C 	45.48884590104969	39.57693897449062	2.15
C 	45.99772838940402	40.90262318011665	2.15
C 	47.40024583304911	41.12476012047378	2.15
C 	47.90912832140344	42.4504443260998	2.15
C 	49.31164576504854	42.67258126645693	2.15
C 	49.82052825340286	43.998265472082956	2.15
C 	51.22304569704796	44.22040241244009	2.15
C 	51.73192818540228	45.54608661806611	2.15
C 	53.13444562904738	45.768223558423244	2.15
C 	6.876094794124804	11.049747525722466	2.15
C 	7.384977282479131	12.375431731348494	2.15
C 	8.787494726124226	12.59756867170562	2.15
C 	9.296377214478552	13.923252877331647	2.15
C 	10.698894658123649	14.145389817688775	2.15
C 	11.207777146477977	15.471074023314802	2.15
C 	12.610294590123072	15.69321096367193	2.15
C 	13.119177078477398	17.018895169297956	2.15
C 	14.521694522122493	17.24103210965508	2.15
C 	15.03057701047682	18.56671631528111	2.15
C 	16.433094454121914	18.788853255638237	2.15
C 	16.94197694247624	20.114537461264263	2.15
C 	18.344494386121337	20.336674401621387	2.15
C 	18.853376874475664	21.662358607247416	2.15
C 	20.25589431812076	21.884495547604544	2.15
C 	20.764776806475084	23.210179753230573	2.15
C 	22.167294250120182	23.4323166935877	2.15
C 	22.67617673847451	24.758000899213723	2.15
C 	24.078694182119605	24.98013783957085	2.15
C 	24.587576670473933	26.305822045196877	2.15
C 	25.990094114119028	26.527958985554008	2.15
C 	26.498976602473352	27.853643191180034	2.15
C 	27.901494046118447	28.07578013153716	2.15
C 	28.410376534472775	29.401464337163183	2.15
C 	29.81289397811787	29.62360127752031	2.15
C 	30.321776466472198	30.94928548314634	2.15
C 	31.724293910117293	31.17142242350347	2.15
C 	32.23317639847162	32.4971066291295	2.15
C 	33.635693842116716	32.71924356948662	2.15
C 	34.14457633047104	34.04492777511265	2.15
C 	35.547093774116135	34.26706471546978	2.15
C 	36.055976262470466	35.592748921095804	2.15
C 	37.458493706115554	35.81488586145293	2.15
C 	37.967376194469885	37.140570067078954	2.15
C 	39.36989363811498	37.362707007436086	2.15
C 	39.878776126469305	38.68839121306211	2.15
C 	41.28129357011441	38.91052815341924	2.15
C 	41.79017605846873	40.23621235904527	2.15
C 	43.19269350211382	40.458349299402386	2.15
C 	43.70157599046815	41.78403350502842	2.15
C 	45.10409343411325	42.00617044538554	2.15
C 	45.61297592246758	43.331854651011575	2.15
C 	47.01549336611267	43.5539915913687	2.15
C 	47.524375854467	44.87967579699473	2.15
C 	48.92689329811209	45.10181273735185	2.15
C 	49.43577578646642	46.42749694297788	2.15
C 	50.83829323011151	46.64963388333501	2.15
C 	10.314142191187205	16.5746212885837	2.15
C 	10.823024679541533	17.90030549420973	2.15
C 	12.225542123186628	18.122442434566857	2.15
C 	12.734424611540955	19.44812664019288	2.15
C 	14.13694205518605	19.67026358055001	2.15
C 	14.645824543540376	20.995947786176032	2.15
C 	16.048341987185474	21.218084726533164	2.15
C 	16.557224475539797	22.543768932159185	2.15
C 	17.959741919184893	22.765905872516317	2.15
C 	18.46862440753922	24.09159007814234	2.15
C 	19.871141851184316	24.313727018499474	2.15
C 	20.380024339538643	25.639411224125496	2.15
C 	21.78254178318374	25.861548164482624	2.15
C 	22.291424271538066	27.18723237010865	2.15
C 	23.693941715183165	27.409369310465777	2.15
C 	24.20282420353749	28.735053516091806	2.15
C 	25.605341647182584	28.957190456448934	2.15
C 	26.11422413553691	30.282874662074963	2.15
C 	27.516741579182007	30.505011602432084	2.15
C 	28.025624067536334	31.830695808058113	2.15
C 	29.428141511181426	32.05283274841524	2.15
C 	29.937023999535754	33.37851695404127	2.15
C 	31.339541443180853	33.6006538943984	2.15
C 	31.84842393153518	34.926338100024424	2.15
C 	33.250941375180275	35.14847504038155	2.15
C 	33.7598238635346	36.474159246007574	2.15
C 	35.162341307179695	36.696296186364705	2.15
C 	35.67122379553402	38.02198039199073	2.15
C 	37.073741239179114	38.244117332347855	2.15
C 	37.582623727533445	39.56980153797388	2.15
C 	38.98514117117854	39.79193847833101	2.15
C 	39.494023659532864	41.11762268395704	2.15
C 	40.89654110317796	41.33975962431417	2.15
C 	41.40542359153229	42.665443829940195	2.15
C 	42.807941035177386	42.88758077029732	2.15
C 	43.31682352353171	44.213264975923344	2.15
C 	44.719340967176805	44.43540191628047	2.15
C 	45.228223455531136	45.7610861219065	2.15
C 	46.63074089917623	45.983223062263626	2.15
C 	11.840789656250186	20.55167390546178	2.15
C 	12.349672144604513	21.87735811108781	2.15
C 	13.752189588249609	22.099495051444933	2.15
C 	14.261072076603934	23.42517925707096	2.15
C 	15.66358952024903	23.647316197428086	2.15
C 	16.172472008603357	24.973000403054115	2.15
C 	17.574989452248452	25.19513734341124	2.15
C 	18.083871940602776	26.520821549037265	2.15
C 	19.48638938424787	26.742958489394397	2.15
C 	19.9952718726022	28.068642695020422	2.15
C 	21.397789316247298	28.29077963537755	2.15
C 	21.906671804601626	29.616463841003576	2.15
C 	23.309189248246717	29.8386007813607	2.15
C 	23.818071736601045	31.164284986986726	2.15
C 	25.220589180246144	31.38642192734386	2.15
C 	25.72947166860047	32.712106132969886	2.15
C 	27.131989112245563	32.93424307332701	2.15
C 	27.64087160059989	34.25992727895304	2.15
C 	29.043389044244986	34.48206421931016	2.15
C 	29.552271532599313	35.80774842493619	2.15
C 	30.95478897624441	36.029885365293325	2.15
C 	31.463671464598733	37.35556957091934	2.15
C 	32.86618890824383	37.577706511276475	2.15
C 	33.37507139659816	38.90339071690249	2.15
C 	34.777588840243254	39.125527657259624	2.15
C 	35.28647132859758	40.45121186288565	2.15
C 	36.68898877224267	40.673348803242774	2.15
C 	37.197871260597	41.9990330088688	2.15
C 	38.6003887042421	42.22116994922594	2.15
C 	39.109271192596424	43.54685415485196	2.15
C 	40.51178863624152	43.76899109520909	2.15
C 	41.02067112459584	45.094675300835114	2.15
C 	42.42318856824094	45.31681224119224	2.15
C 	42.93207105659526	46.642496446818264	2.15
C 	44.334588500240365	46.8646333871754	2.15
C 	15.278837053312587	26.07654766832301	2.15
C 	15.787719541666913	27.402231873949034	2.15
C 	17.19023698531201	27.624368814306163	2.15
C 	17.699119473666336	28.95005301993219	2.15
C 	19.10163691731143	29.17218996028932	2.15
C 	19.61051940566576	30.49787416591535	2.15
C 	21.013036849310854	30.72001110627247	2.15
C 	21.52191933766518	32.0456953118985	2.15
C 	22.924436781310277	32.26783225225562	2.15
C 	23.433319269664604	33.593516457881655	2.15
C 	24.8358367133097	33.81565339823878	2.15
C 	25.344719201664027	35.14133760386481	2.15
C 	26.747236645309123	35.36347454422193	2.15
C 	27.25611913366345	36.68915874984796	2.15
C 	28.658636577308545	36.91129569020509	2.15
C 	29.16751906566287	38.23697989583112	2.15
C 	30.570036509307965	38.459116836188244	2.15
C 	31.078918997662292	39.784801041814276	2.15
C 	32.48143644130739	40.006937982171394	2.15
C 	32.99031892966171	41.332622187797426	2.15
C 	34.392836373306814	41.55475912815455	2.15
C 	34.90171886166114	42.88044333378058	2.15
C 	36.30423630530623	43.1025802741377	2.15
C 	36.81311879366056	44.42826447976373	2.15
C 	38.21563623730565	44.65040142012086	2.15
C 	38.72451872565998	45.97608562574689	2.15
C 	40.12703616930508	46.198222566104015	2.15
C 	18.71688445037499	31.60142143118425	2.15
C 	19.225766938729315	32.92710563681027	2.15
C 	20.62828438237441	33.1492425771674	2.15
C 	21.137166870728738	34.474926782793425	2.15
C 	22.539684314373833	34.697063723150556	2.15
C 	23.04856680272816	36.02274792877658	2.15
C 	24.451084246373256	36.24488486913371	2.15
C 	24.959966734727583	37.57056907475973	2.15
C 	26.36248417837268	37.79270601511686	2.15
C 	26.871366666727003	39.11839022074289	2.15
C 	28.2738841103721	39.34052716110002	2.15
C 	28.78276659872643	40.666211366726046	2.15
C 	30.185284042371524	40.88834830708318	2.15
C 	30.694166530725848	42.214032512709196	2.15
C 	32.09668397437095	42.43616945306633	2.15
C 	32.60556646272527	43.761853658692345	2.15
C 	34.008083906370366	43.983990599049484	2.15
C 	34.5169663947247	45.30967480467551	2.15
C 	35.919483838369786	45.531811745032634	2.15
C 	22.15493184743739	37.126295194045476	2.15
C 	22.663814335791717	38.4519793996715	2.15
C 	24.066331779436815	38.67411634002864	2.15
C 	24.57521426779114	39.99980054565466	2.15
C 	25.977731711436235	40.22193748601179	2.15
C 	26.486614199790562	41.547621691637815	2.15
C 	27.889131643435658	41.76975863199494	2.15
C 	28.398014131789985	43.095442837620965	2.15
C 	29.800531575435084	43.3175797779781	2.15
C 	30.309414063789408	44.64326398360412	2.15
C 	31.711931507434503	44.86540092396125	2.15
C 	32.22081399578883	46.19108512958727	2.15
C 	33.623331439433926	46.4132220699444	2.15
C 	23.68157931250037	41.10334781092356	2.15
C 	24.1904618008547	42.429032016549584	2.15
C 	25.592979244499794	42.65116895690671	2.15
C 	26.101861732854122	43.976853162532734	2.15
C 	27.504379176499217	44.198990102889866	2.15
C 	28.01326166485354	45.52467430851589	2.15
C 	29.415779108498636	45.74681124887302	2.15
H 	52.14789926231918	-1.4119144899790328	2.15
H 	54.626996997212956	-1.0192639827280507	2.15
H 	55.526500550571654	1.3240228877799343	2.15
H 	49.85174686338329	-0.5305041650672634	2.15
H 	56.153644462275935	2.957788634150024	2.15
H 	58.06504439427536	4.505609780133187	2.15
H 	58.96454794763406	6.848896650641157	2.15
H 	45.644194532448026	-1.1969149861386463	2.15
H 	48.1232922673418	-0.8042644788876643	2.15
H 	59.59169185933834	8.482662397011268	2.15
H 	61.503091791337766	10.030483542994416	2.15
H 	62.402595344696465	12.373770413502394	2.15
H 	41.436642201512726	-1.8633258072100232	2.15
H 	43.91573993640651	-1.4706752999590509	2.15
H 	63.029739256400745	14.007536159872501	2.15
H 	64.94113918840016	15.555357305855654	2.15
H 	65.84064274175887	17.898644176363643	2.15
H 	39.14048980257688	-0.9819154822982635	2.15
H 	66.46778665346316	19.532409922733734	2.15
H 	67.36729020682185	21.875696793241694	2.15
H 	34.93293747164158	-1.6483263033696376	2.15
H 	37.412035206535364	-1.2556757961186582	2.15
H 	67.99443411852614	23.509462539611807	2.15
H 	69.90583405052554	25.057283685594964	2.15
H 	70.80533760388425	27.40057055610294	2.15
H 	32.6367850727057	-0.7669159784578587	2.15
H 	71.43248151558852	29.034336302473037	2.15
H 	73.34388144758795	30.58215744845619	2.15
H 	74.24338500094666	32.92544431896419	2.15
H 	28.429232741770424	-1.4333267995292518	2.15
H 	30.90833047666422	-1.040676292278263	2.15
H 	74.87052891265093	34.55921006533427	2.15
H 	76.78192884465034	36.10703121131743	2.15
H 	77.68143239800905	38.450318081825415	2.15
H 	26.133080342834564	-0.5519164746174801	2.15
H 	78.30857630971336	40.08408382819553	2.15
H 	79.20807986307203	42.42737069870346	2.15
H 	21.92552801189927	-1.218327295688863	2.15
H 	24.404625746793066	-0.8256767884378788	2.15
H 	78.8233273961356	44.85660216959841	2.15
H 	17.717975680963985	-1.8847381167602433	2.15
H 	20.19707341585778	-1.4920876095092637	2.15
H 	77.24373321460048	46.8072385328554	2.15
H 	15.421823282028116	-1.0033277918484693	2.15
H 	72.46848308077082	47.295998350516186	2.15
H 	74.94758081566462	47.68864885776717	2.15
H 	11.214270951092827	-1.6697386129198537	2.15
H 	13.69336868598663	-1.2770881056688745	2.15
H 	70.74002848472935	47.022238036695796	2.15
H 	8.918118552156967	-0.7883282880080836	2.15
H 	65.96477835089969	47.510997854356596	2.15
H 	68.44387608579349	47.90364836160756	2.15
H 	4.7105662212216775	-1.4547391090794655	2.15
H 	7.189663956115476	-1.062088601828486	2.15
H 	61.75722601996439	46.8445870332852	2.15
H 	64.2363237548582	47.23723754053617	2.15
H 	2.414413822285814	-0.5733287841676946	2.15
H 	60.02877142392291	46.5708267194648	2.15
H 	0.834819640750722	1.3773075790893026	2.15
H 	1.7343231941094266	3.720594449597279	2.15
H 	55.25352129009324	47.05958653712559	2.15
H 	57.73261902498705	47.452237044376574	2.15
H 	2.361467105813702	5.354360195967382	2.15
H 	3.2609706591724064	7.6976470664753585	2.15
H 	5.172370591171829	9.245468212458512	2.15
H 	53.525066694051745	46.7858262233052	2.15
H 	5.799514502876105	10.879233958828612	2.15
H 	6.699018056234809	13.222520829336593	2.15
H 	8.610417988234227	14.770341975319745	2.15
H 	48.7498165602221	47.274586040965985	2.15
H 	51.228914295115885	47.667236548216955	2.15
H 	9.237561899938505	16.404107721689847	2.15
H 	10.137065453297211	18.74739459219783	2.15
H 	47.021361964180606	47.000825727145575	2.15
H 	10.764209365001484	20.38116033856793	2.15
H 	11.663712918360192	22.724447209075908	2.15
H 	13.575112850359611	24.272268355059058	2.15
H 	42.246111830350934	47.48958554480635	2.15
H 	44.72520956524475	47.88223605205735	2.15
H 	14.202256762063888	25.906034101429153	2.15
H 	15.10176031542259	28.249320971937134	2.15
H 	17.013160247422014	29.79714211792029	2.15
H 	38.03855949941566	46.823174723734994	2.15
H 	40.51765723430946	47.21582523098596	2.15
H 	17.640304159126288	31.430907864290404	2.15
H 	18.539807712484986	33.774194734798364	2.15
H 	20.45120764448441	35.32201588078152	2.15
H 	36.31010490337416	46.54941440991458	2.15
H 	21.07835155618869	36.95578162715162	2.15
H 	21.977855109547388	39.2990684976596	2.15
H 	31.534854769544506	47.03817422757537	2.15
H 	34.0139525044383	47.43082473482635	2.15
H 	22.604999021251672	40.93283424402971	2.15
H 	23.504502574610378	43.27612111453769	2.15
H 	25.4159025066098	44.82394226052083	2.15
H 	27.327302438609212	46.37176340650399	2.15
H 	29.80640017350301	46.76441391375497	2.15
