2306

C 	0.0	0.0	0.0
C 	1.2297560733739028	0.7099999999999999	0.0
C 	2.4595121467478056	-2.3647750424515833e-16	0.0
C 	3.689268220121708	0.7099999999999995	0.0
C 	4.919024293495611	-4.729550084903167e-16	0.0
C 	6.148780366869514	0.7099999999999993	0.0
C 	7.378536440243416	-7.09432512735475e-16	0.0
C 	8.60829251361732	0.7099999999999991	0.0
C 	9.838048586991222	-9.459100169806333e-16	0.0
C 	11.067804660365125	0.7099999999999989	0.0
C 	12.297560733739026	-1.1823875212257916e-15	0.0
C 	13.527316807112928	0.7099999999999986	0.0
C 	14.757072880486833	-1.41886502547095e-15	0.0
C 	15.986828953860735	0.7099999999999984	0.0
C 	17.21658502723464	-7.671641100159832e-16	0.0
C 	18.44634110060854	0.7099999999999982	0.0
C 	19.676097173982445	-1.8918200339612667e-15	0.0
C 	20.905853247356347	0.7099999999999989	0.0
C 	22.135609320730246	-2.128297538206425e-15	0.0
C 	23.36536539410415	0.7099999999999967	0.0
C 	24.59512146747805	-2.364775042451583e-15	0.0
C 	25.824877540851954	0.7099999999999983	0.0
C 	27.05463361422586	-8.248957072964913e-16	0.0
C 	28.284389687599763	0.7099999999999999	0.0
C 	29.514145760973665	-2.8377300509419e-15	0.0
C 	30.743901834347565	0.7099999999999961	0.0
C 	31.97365790772147	-3.0742075551870582e-15	0.0
C 	33.20341398109537	0.7099999999999976	0.0
C 	34.43317005446928	-1.5343282200319664e-15	0.0
C 	35.66292612784318	0.7099999999999992	0.0
C 	36.892682201217085	-1.7708057242771246e-15	0.0
C 	38.122438274590984	0.7099999999999972	0.0
C 	39.35219434796489	-3.783640067922533e-15	0.0
C 	40.58195042133879	0.7099999999999969	0.0
C 	41.811706494712695	-4.67403893367191e-16	0.0
C 	43.0414625680866	0.7100000000000002	0.0
C 	44.27121864146049	-4.25659507641285e-15	0.0
C 	45.5009747148344	0.7099999999999964	0.0
C 	46.730730788208305	-9.403589018575075e-16	0.0
C 	47.96048686158221	0.7099999999999997	0.0
C 	49.1902429349561	-4.729550084903166e-15	0.0
C 	50.41999900833001	0.709999999999996	0.0
C 	51.64975508170391	-1.413313910347824e-15	0.0
C 	52.879511155077815	0.7099999999999993	0.0
C 	54.10926722845172	-1.6497914145929826e-15	0.0
C 	55.33902330182562	0.7099999999999991	0.0
C 	56.56877937519952	-5.438982597638641e-15	0.0
C 	57.798535448573425	0.7099999999999953	0.0
C 	59.02829152194733	-5.6754601018838e-15	0.0
C 	60.25804759532124	0.709999999999995	0.0
C 	1.2297560733739028	2.1299999999999994	0.0
C 	2.4595121467478056	2.8399999999999994	0.0
C 	3.689268220121708	2.1299999999999994	0.0
C 	4.919024293495611	2.8399999999999994	0.0
C 	6.148780366869514	2.129999999999999	0.0
C 	7.378536440243416	2.839999999999999	0.0
C 	8.60829251361732	2.1299999999999986	0.0
C 	9.838048586991222	2.8399999999999985	0.0
C 	11.067804660365123	2.129999999999998	0.0
C 	12.297560733739028	2.839999999999999	0.0
C 	13.527316807112928	2.1299999999999977	0.0
C 	14.757072880486833	2.839999999999998	0.0
C 	15.986828953860735	2.129999999999998	0.0
C 	17.216585027234636	2.839999999999997	0.0
C 	18.446341100608542	2.129999999999998	0.0
C 	19.676097173982445	2.8399999999999985	0.0
C 	20.905853247356344	2.1299999999999977	0.0
C 	22.13560932073025	2.8399999999999985	0.0
C 	23.36536539410415	2.129999999999997	0.0
C 	24.595121467478055	2.839999999999997	0.0
C 	25.824877540851954	2.1299999999999963	0.0
C 	27.05463361422586	2.839999999999997	0.0
C 	28.284389687599763	2.129999999999998	0.0
C 	29.514145760973665	2.8399999999999985	0.0
C 	30.743901834347568	2.129999999999996	0.0
C 	31.97365790772147	2.8399999999999967	0.0
C 	33.20341398109537	2.129999999999996	0.0
C 	34.43317005446928	2.8399999999999963	0.0
C 	35.66292612784318	2.1299999999999972	0.0
C 	36.89268220121708	2.8399999999999963	0.0
C 	38.122438274590984	2.129999999999997	0.0
C 	39.35219434796489	2.8399999999999976	0.0
C 	40.58195042133879	2.1299999999999986	0.0
C 	41.81170649471269	2.839999999999996	0.0
C 	43.0414625680866	2.129999999999998	0.0
C 	44.2712186414605	2.8399999999999954	0.0
C 	45.5009747148344	2.129999999999998	0.0
C 	46.7307307882083	2.8399999999999954	0.0
C 	47.96048686158221	2.1299999999999977	0.0
C 	49.19024293495611	2.839999999999995	0.0
C 	50.41999900833001	2.1299999999999977	0.0
C 	51.64975508170391	2.8399999999999945	0.0
C 	52.879511155077815	2.1299999999999972	0.0
C 	54.10926722845171	2.8399999999999945	0.0
C 	55.33902330182563	2.130000000000001	0.0
C 	56.56877937519952	2.8399999999999976	0.0
C 	57.798535448573425	2.129999999999997	0.0
C 	59.028291521947324	2.839999999999994	0.0
C 	60.25804759532124	2.129999999999997	0.0
C 	61.487803668695136	2.8399999999999936	0.0
C 	2.4595121467478056	4.259999999999999	0.0
C 	3.689268220121708	4.969999999999999	0.0
C 	4.919024293495611	4.259999999999999	0.0
C 	6.148780366869514	4.969999999999999	0.0
C 	7.378536440243416	4.259999999999999	0.0
C 	8.60829251361732	4.969999999999999	0.0
C 	9.83804858699122	4.259999999999998	0.0
C 	11.067804660365125	4.969999999999999	0.0
C 	12.297560733739028	4.259999999999998	0.0
C 	13.52731680711293	4.969999999999998	0.0
C 	14.757072880486831	4.259999999999998	0.0
C 	15.986828953860735	4.969999999999998	0.0
C 	17.21658502723464	4.259999999999997	0.0
C 	18.446341100608542	4.969999999999998	0.0
C 	19.676097173982445	4.259999999999999	0.0
C 	20.905853247356347	4.969999999999997	0.0
C 	22.135609320730246	4.259999999999996	0.0
C 	23.365365394104153	4.969999999999997	0.0
C 	24.595121467478055	4.259999999999998	0.0
C 	25.824877540851958	4.969999999999997	0.0
C 	27.054633614225857	4.259999999999995	0.0
C 	28.28438968759976	4.969999999999996	0.0
C 	29.514145760973665	4.259999999999997	0.0
C 	30.743901834347568	4.969999999999997	0.0
C 	31.97365790772147	4.259999999999996	0.0
C 	33.20341398109537	4.969999999999995	0.0
C 	34.43317005446927	4.2599999999999945	0.0
C 	35.66292612784318	4.969999999999995	0.0
C 	36.892682201217085	4.259999999999996	0.0
C 	38.122438274590984	4.969999999999997	0.0
C 	39.35219434796489	4.259999999999997	0.0
C 	40.58195042133879	4.969999999999994	0.0
C 	41.81170649471269	4.259999999999995	0.0
C 	43.041462568086594	4.969999999999996	0.0
C 	44.2712186414605	4.259999999999997	0.0
C 	45.500974714834406	4.969999999999998	0.0
C 	46.7307307882083	4.259999999999994	0.0
C 	47.960486861582204	4.9699999999999935	0.0
C 	49.19024293495611	4.259999999999996	0.0
C 	50.41999900833001	4.969999999999997	0.0
C 	51.64975508170391	4.259999999999993	0.0
C 	52.879511155077815	4.9699999999999935	0.0
C 	54.10926722845171	4.259999999999996	0.0
C 	55.33902330182562	4.969999999999997	0.0
C 	56.568779375199526	4.259999999999996	0.0
C 	57.798535448573425	4.969999999999996	0.0
C 	59.028291521947324	4.259999999999995	0.0
C 	60.25804759532123	4.969999999999996	0.0
C 	61.487803668695136	4.259999999999992	0.0
C 	62.717559742069035	4.969999999999993	0.0
C 	3.6892682201217086	6.389999999999999	0.0
C 	4.919024293495611	7.099999999999999	0.0
C 	6.148780366869514	6.389999999999999	0.0
C 	7.378536440243416	7.099999999999999	0.0
C 	8.608292513617318	6.389999999999998	0.0
C 	9.838048586991222	7.099999999999999	0.0
C 	11.067804660365125	6.389999999999998	0.0
C 	12.297560733739028	7.099999999999998	0.0
C 	13.52731680711293	6.389999999999999	0.0
C 	14.757072880486833	7.099999999999998	0.0
C 	15.986828953860735	6.389999999999998	0.0
C 	17.216585027234636	7.099999999999997	0.0
C 	18.44634110060854	6.389999999999997	0.0
C 	19.676097173982445	7.099999999999998	0.0
C 	20.905853247356347	6.389999999999998	0.0
C 	22.13560932073025	7.099999999999997	0.0
C 	23.365365394104153	6.389999999999998	0.0
C 	24.59512146747805	7.099999999999997	0.0
C 	25.824877540851958	6.389999999999998	0.0
C 	27.054633614225857	7.099999999999997	0.0
C 	28.28438968759976	6.389999999999999	0.0
C 	29.514145760973662	7.099999999999997	0.0
C 	30.743901834347568	6.389999999999999	0.0
C 	31.97365790772147	7.099999999999998	0.0
C 	33.20341398109537	6.389999999999995	0.0
C 	34.43317005446928	7.099999999999994	0.0
C 	35.66292612784318	6.389999999999995	0.0
C 	36.892682201217085	7.099999999999996	0.0
C 	38.122438274590984	6.389999999999996	0.0
C 	39.35219434796489	7.099999999999997	0.0
C 	40.58195042133879	6.389999999999994	0.0
C 	41.811706494712695	7.099999999999995	0.0
C 	43.041462568086594	6.389999999999996	0.0
C 	44.2712186414605	7.099999999999997	0.0
C 	45.500974714834406	6.389999999999998	0.0
C 	46.730730788208305	7.099999999999998	0.0
C 	47.960486861582204	6.389999999999995	0.0
C 	49.19024293495611	7.099999999999996	0.0
C 	50.41999900833001	6.389999999999995	0.0
C 	51.649755081703915	7.099999999999996	0.0
C 	52.879511155077815	6.389999999999995	0.0
C 	54.10926722845172	7.099999999999996	0.0
C 	55.33902330182562	6.389999999999995	0.0
C 	56.568779375199526	7.099999999999995	0.0
C 	57.79853544857343	6.389999999999998	0.0
C 	59.02829152194733	7.099999999999999	0.0
C 	60.25804759532123	6.389999999999994	0.0
C 	61.487803668695136	7.099999999999995	0.0
C 	62.71755974206904	6.389999999999994	0.0
C 	63.94731581544294	7.099999999999995	0.0
C 	4.919024293495611	8.519999999999998	0.0
C 	6.148780366869514	9.229999999999999	0.0
C 	7.378536440243416	8.519999999999998	0.0
C 	8.60829251361732	9.229999999999999	0.0
C 	9.838048586991222	8.519999999999998	0.0
C 	11.067804660365125	9.229999999999999	0.0
C 	12.297560733739028	8.519999999999998	0.0
C 	13.52731680711293	9.229999999999997	0.0
C 	14.757072880486833	8.519999999999998	0.0
C 	15.986828953860737	9.229999999999999	0.0
C 	17.216585027234636	8.519999999999998	0.0
C 	18.44634110060854	9.229999999999997	0.0
C 	19.67609717398244	8.519999999999996	0.0
C 	20.905853247356347	9.229999999999997	0.0
C 	22.13560932073025	8.519999999999998	0.0
C 	23.365365394104153	9.229999999999999	0.0
C 	24.595121467478055	8.519999999999996	0.0
C 	25.824877540851954	9.229999999999995	0.0
C 	27.05463361422586	8.519999999999996	0.0
C 	28.284389687599763	9.229999999999997	0.0
C 	29.514145760973662	8.519999999999996	0.0
C 	30.743901834347565	9.229999999999995	0.0
C 	31.97365790772147	8.52	0.0
C 	33.20341398109537	9.229999999999997	0.0
C 	34.43317005446928	8.519999999999994	0.0
C 	35.66292612784318	9.229999999999995	0.0
C 	36.89268220121708	8.519999999999992	0.0
C 	38.122438274590984	9.229999999999993	0.0
C 	39.35219434796489	8.519999999999998	0.0
C 	40.58195042133879	9.229999999999995	0.0
C 	41.811706494712695	8.519999999999994	0.0
C 	43.0414625680866	9.229999999999995	0.0
C 	44.27121864146049	8.519999999999992	0.0
C 	45.5009747148344	9.229999999999993	0.0
C 	46.730730788208305	8.519999999999998	0.0
C 	47.960486861582204	9.229999999999995	0.0
C 	49.19024293495611	8.519999999999996	0.0
C 	50.41999900833001	9.229999999999993	0.0
C 	51.64975508170391	8.519999999999994	0.0
C 	52.879511155077815	9.229999999999995	0.0
C 	54.10926722845171	8.51999999999999	0.0
C 	55.33902330182562	9.229999999999992	0.0
C 	56.568779375199526	8.519999999999998	0.0
C 	57.798535448573425	9.229999999999995	0.0
C 	59.02829152194733	8.519999999999994	0.0
C 	60.25804759532123	9.229999999999993	0.0
C 	61.48780366869513	8.519999999999992	0.0
C 	62.717559742069035	9.229999999999993	0.0
C 	63.94731581544294	8.519999999999992	0.0
C 	65.17707188881684	9.22999999999999	0.0
C 	6.148780366869514	10.649999999999997	0.0
C 	7.378536440243416	11.359999999999998	0.0
C 	8.608292513617318	10.649999999999997	0.0
C 	9.838048586991222	11.359999999999998	0.0
C 	11.067804660365125	10.649999999999997	0.0
C 	12.297560733739028	11.359999999999996	0.0
C 	13.52731680711293	10.649999999999997	0.0
C 	14.757072880486831	11.359999999999996	0.0
C 	15.986828953860735	10.649999999999997	0.0
C 	17.216585027234636	11.359999999999996	0.0
C 	18.44634110060854	10.649999999999997	0.0
C 	19.676097173982445	11.359999999999998	0.0
C 	20.905853247356347	10.649999999999997	0.0
C 	22.13560932073025	11.359999999999996	0.0
C 	23.365365394104153	10.649999999999997	0.0
C 	24.595121467478055	11.359999999999996	0.0
C 	25.824877540851958	10.649999999999997	0.0
C 	27.05463361422586	11.359999999999996	0.0
C 	28.284389687599763	10.649999999999995	0.0
C 	29.514145760973662	11.359999999999994	0.0
C 	30.743901834347565	10.649999999999995	0.0
C 	31.97365790772147	11.359999999999996	0.0
C 	33.20341398109537	10.649999999999997	0.0
C 	34.43317005446928	11.359999999999998	0.0
C 	35.66292612784318	10.649999999999991	0.0
C 	36.89268220121708	11.359999999999992	0.0
C 	38.122438274590984	10.649999999999993	0.0
C 	39.35219434796489	11.359999999999994	0.0
C 	40.58195042133879	10.649999999999993	0.0
C 	41.811706494712695	11.359999999999994	0.0
C 	43.041462568086594	10.649999999999991	0.0
C 	44.2712186414605	11.359999999999992	0.0
C 	45.5009747148344	10.649999999999993	0.0
C 	46.730730788208305	11.359999999999994	0.0
C 	47.960486861582204	10.649999999999995	0.0
C 	49.19024293495611	11.359999999999996	0.0
C 	50.41999900833001	10.649999999999993	0.0
C 	51.649755081703915	11.359999999999994	0.0
C 	52.879511155077815	10.649999999999995	0.0
C 	54.10926722845172	11.359999999999996	0.0
C 	55.33902330182562	10.649999999999993	0.0
C 	56.568779375199526	11.359999999999994	0.0
C 	57.798535448573425	10.649999999999993	0.0
C 	59.02829152194733	11.359999999999992	0.0
C 	60.25804759532124	10.649999999999995	0.0
C 	61.487803668695136	11.359999999999996	0.0
C 	62.717559742069035	10.649999999999991	0.0
C 	63.94731581544294	11.359999999999992	0.0
C 	65.17707188881684	10.649999999999991	0.0
C 	66.40682796219075	11.359999999999992	0.0
C 	7.378536440243417	12.779999999999998	0.0
C 	8.60829251361732	13.489999999999998	0.0
C 	9.838048586991222	12.78	0.0
C 	11.067804660365125	13.489999999999997	0.0
C 	12.297560733739028	12.779999999999998	0.0
C 	13.527316807112932	13.489999999999998	0.0
C 	14.757072880486833	12.779999999999998	0.0
C 	15.986828953860737	13.489999999999997	0.0
C 	17.216585027234636	12.779999999999996	0.0
C 	18.446341100608542	13.489999999999997	0.0
C 	19.676097173982445	12.779999999999998	0.0
C 	20.905853247356347	13.489999999999997	0.0
C 	22.13560932073025	12.779999999999996	0.0
C 	23.36536539410415	13.489999999999995	0.0
C 	24.595121467478055	12.779999999999996	0.0
C 	25.824877540851958	13.489999999999997	0.0
C 	27.05463361422586	12.779999999999998	0.0
C 	28.284389687599763	13.489999999999997	0.0
C 	29.514145760973662	12.779999999999996	0.0
C 	30.743901834347568	13.489999999999997	0.0
C 	31.97365790772147	12.779999999999996	0.0
C 	33.20341398109537	13.489999999999997	0.0
C 	34.43317005446928	12.779999999999998	0.0
C 	35.66292612784318	13.489999999999995	0.0
C 	36.89268220121708	12.779999999999994	0.0
C 	38.122438274590984	13.489999999999995	0.0
C 	39.35219434796489	12.779999999999996	0.0
C 	40.581950421338796	13.489999999999997	0.0
C 	41.811706494712695	12.779999999999996	0.0
C 	43.041462568086594	13.489999999999993	0.0
C 	44.2712186414605	12.779999999999994	0.0
C 	45.5009747148344	13.489999999999995	0.0
C 	46.730730788208305	12.779999999999996	0.0
C 	47.96048686158221	13.489999999999997	0.0
C 	49.19024293495611	12.779999999999998	0.0
C 	50.41999900833001	13.489999999999995	0.0
C 	51.649755081703915	12.779999999999996	0.0
C 	52.879511155077815	13.489999999999993	0.0
C 	54.10926722845172	12.779999999999998	0.0
C 	55.33902330182563	13.489999999999998	0.0
C 	56.56877937519952	12.779999999999998	0.0
C 	57.798535448573425	13.489999999999997	0.0
C 	59.02829152194733	12.779999999999994	0.0
C 	60.25804759532123	13.489999999999991	0.0
C 	61.487803668695136	12.779999999999998	0.0
C 	62.71755974206904	13.489999999999998	0.0
C 	63.94731581544294	12.779999999999994	0.0
C 	65.17707188881684	13.489999999999995	0.0
C 	66.40682796219075	12.77999999999999	0.0
C 	67.63658403556465	13.489999999999988	0.0
C 	8.60829251361732	14.909999999999998	0.0
C 	9.838048586991222	15.619999999999996	0.0
C 	11.067804660365125	14.909999999999997	0.0
C 	12.297560733739026	15.619999999999996	0.0
C 	13.527316807112934	14.909999999999998	0.0
C 	14.757072880486831	15.619999999999996	0.0
C 	15.986828953860737	14.909999999999998	0.0
C 	17.21658502723464	15.619999999999997	0.0
C 	18.446341100608542	14.909999999999997	0.0
C 	19.676097173982445	15.619999999999996	0.0
C 	20.905853247356347	14.909999999999997	0.0
C 	22.135609320730246	15.619999999999996	0.0
C 	23.365365394104153	14.909999999999995	0.0
C 	24.595121467478055	15.619999999999996	0.0
C 	25.824877540851958	14.909999999999997	0.0
C 	27.05463361422586	15.619999999999996	0.0
C 	28.284389687599763	14.909999999999997	0.0
C 	29.514145760973665	15.619999999999996	0.0
C 	30.743901834347568	14.909999999999997	0.0
C 	31.973657907721474	15.619999999999997	0.0
C 	33.203413981095366	14.909999999999993	0.0
C 	34.43317005446927	15.619999999999994	0.0
C 	35.662926127843185	14.909999999999998	0.0
C 	36.892682201217085	15.619999999999996	0.0
C 	38.122438274590984	14.909999999999995	0.0
C 	39.35219434796489	15.619999999999996	0.0
C 	40.58195042133879	14.909999999999993	0.0
C 	41.811706494712695	15.619999999999994	0.0
C 	43.0414625680866	14.909999999999998	0.0
C 	44.2712186414605	15.619999999999996	0.0
C 	45.5009747148344	14.909999999999995	0.0
C 	46.730730788208305	15.619999999999996	0.0
C 	47.960486861582204	14.909999999999993	0.0
C 	49.19024293495611	15.619999999999994	0.0
C 	50.41999900833002	14.909999999999998	0.0
C 	51.649755081703915	15.619999999999996	0.0
C 	52.87951115507782	14.909999999999997	0.0
C 	54.10926722845171	15.619999999999994	0.0
C 	55.33902330182562	14.909999999999995	0.0
C 	56.568779375199526	15.619999999999994	0.0
C 	57.798535448573425	14.909999999999991	0.0
C 	59.028291521947324	15.619999999999992	0.0
C 	60.25804759532124	14.909999999999998	0.0
C 	61.487803668695136	15.619999999999996	0.0
C 	62.717559742069035	14.909999999999993	0.0
C 	63.94731581544294	15.619999999999994	0.0
C 	65.17707188881684	14.909999999999993	0.0
C 	66.40682796219075	15.619999999999994	0.0
C 	67.63658403556465	14.909999999999997	0.0
C 	68.86634010893854	15.61999999999999	0.0
C 	9.838048586991222	17.039999999999996	0.0
C 	11.067804660365127	17.749999999999996	0.0
C 	12.297560733739028	17.039999999999996	0.0
C 	13.527316807112932	17.749999999999996	0.0
C 	14.757072880486833	17.039999999999996	0.0
C 	15.986828953860735	17.749999999999996	0.0
C 	17.21658502723464	17.039999999999996	0.0
C 	18.446341100608546	17.749999999999996	0.0
C 	19.676097173982445	17.039999999999996	0.0
C 	20.905853247356347	17.749999999999996	0.0
C 	22.13560932073025	17.039999999999996	0.0
C 	23.365365394104153	17.749999999999996	0.0
C 	24.595121467478055	17.039999999999996	0.0
C 	25.82487754085196	17.749999999999996	0.0
C 	27.05463361422586	17.039999999999996	0.0
C 	28.28438968759977	17.75	0.0
C 	29.514145760973665	17.039999999999996	0.0
C 	30.74390183434757	17.749999999999996	0.0
C 	31.973657907721467	17.039999999999992	0.0
C 	33.20341398109537	17.749999999999993	0.0
C 	34.43317005446927	17.039999999999996	0.0
C 	35.66292612784318	17.749999999999996	0.0
C 	36.892682201217085	17.039999999999996	0.0
C 	38.122438274590984	17.749999999999996	0.0
C 	39.35219434796488	17.039999999999992	0.0
C 	40.58195042133879	17.749999999999993	0.0
C 	41.811706494712695	17.039999999999992	0.0
C 	43.041462568086594	17.749999999999993	0.0
C 	44.2712186414605	17.039999999999996	0.0
C 	45.500974714834406	17.749999999999996	0.0
C 	46.7307307882083	17.039999999999992	0.0
C 	47.960486861582204	17.749999999999993	0.0
C 	49.19024293495611	17.039999999999992	0.0
C 	50.41999900833002	17.749999999999993	0.0
C 	51.649755081703915	17.039999999999996	0.0
C 	52.87951115507782	17.749999999999996	0.0
C 	54.10926722845172	17.039999999999992	0.0
C 	55.33902330182562	17.749999999999993	0.0
C 	56.568779375199526	17.039999999999996	0.0
C 	57.79853544857343	17.749999999999996	0.0
C 	59.028291521947324	17.039999999999992	0.0
C 	60.25804759532123	17.749999999999993	0.0
C 	61.487803668695136	17.039999999999996	0.0
C 	62.71755974206904	17.749999999999996	0.0
C 	63.94731581544294	17.04	0.0
C 	65.17707188881684	17.749999999999993	0.0
C 	66.40682796219075	17.039999999999996	0.0
C 	67.63658403556464	17.74999999999999	0.0
C 	68.86634010893856	17.03999999999999	0.0
C 	70.09609618231246	17.74999999999999	0.0
C 	11.067804660365125	19.169999999999995	0.0
C 	12.297560733739026	19.879999999999995	0.0
C 	13.52731680711293	19.169999999999995	0.0
C 	14.757072880486831	19.879999999999995	0.0
C 	15.986828953860737	19.169999999999998	0.0
C 	17.216585027234636	19.879999999999992	0.0
C 	18.446341100608542	19.169999999999995	0.0
C 	19.676097173982445	19.879999999999995	0.0
C 	20.905853247356347	19.169999999999995	0.0
C 	22.135609320730246	19.879999999999995	0.0
C 	23.365365394104153	19.169999999999995	0.0
C 	24.59512146747805	19.879999999999995	0.0
C 	25.824877540851958	19.169999999999995	0.0
C 	27.05463361422586	19.879999999999995	0.0
C 	28.284389687599763	19.169999999999995	0.0
C 	29.51414576097367	19.879999999999995	0.0
C 	30.743901834347565	19.16999999999999	0.0
C 	31.97365790772147	19.879999999999992	0.0
C 	33.20341398109537	19.169999999999995	0.0
C 	34.43317005446927	19.879999999999992	0.0
C 	35.66292612784318	19.169999999999995	0.0
C 	36.89268220121708	19.879999999999992	0.0
C 	38.122438274590984	19.169999999999995	0.0
C 	39.35219434796488	19.879999999999992	0.0
C 	40.58195042133879	19.16999999999999	0.0
C 	41.81170649471269	19.87999999999999	0.0
C 	43.0414625680866	19.169999999999995	0.0
C 	44.27121864146049	19.879999999999992	0.0
C 	45.5009747148344	19.16999999999999	0.0
C 	46.730730788208305	19.879999999999992	0.0
C 	47.960486861582204	19.169999999999995	0.0
C 	49.1902429349561	19.879999999999992	0.0
C 	50.41999900833002	19.169999999999995	0.0
C 	51.649755081703915	19.879999999999992	0.0
C 	52.879511155077815	19.16999999999999	0.0
C 	54.10926722845172	19.879999999999992	0.0
C 	55.33902330182562	19.16999999999999	0.0
C 	56.56877937519952	19.879999999999992	0.0
C 	57.79853544857343	19.169999999999995	0.0
C 	59.02829152194733	19.879999999999992	0.0
C 	60.25804759532123	19.169999999999995	0.0
C 	61.48780366869513	19.879999999999992	0.0
C 	62.717559742069035	19.16999999999999	0.0
C 	63.94731581544294	19.879999999999992	0.0
C 	65.17707188881684	19.169999999999995	0.0
C 	66.40682796219075	19.87999999999999	0.0
C 	67.63658403556465	19.169999999999995	0.0
C 	68.86634010893854	19.87999999999999	0.0
C 	70.09609618231245	19.16999999999999	0.0
C 	71.32585225568636	19.879999999999992	0.0
C 	12.297560733739028	21.299999999999994	0.0
C 	13.527316807112932	22.009999999999994	0.0
C 	14.757072880486831	21.299999999999994	0.0
C 	15.986828953860735	22.009999999999994	0.0
C 	17.216585027234636	21.299999999999994	0.0
C 	18.44634110060854	22.009999999999994	0.0
C 	19.676097173982445	21.299999999999994	0.0
C 	20.905853247356347	22.009999999999994	0.0
C 	22.13560932073025	21.299999999999994	0.0
C 	23.365365394104153	22.009999999999994	0.0
C 	24.595121467478055	21.299999999999994	0.0
C 	25.824877540851958	22.009999999999994	0.0
C 	27.05463361422586	21.299999999999994	0.0
C 	28.284389687599766	22.009999999999994	0.0
C 	29.514145760973662	21.29999999999999	0.0
C 	30.743901834347568	22.00999999999999	0.0
C 	31.97365790772147	21.299999999999994	0.0
C 	33.20341398109537	22.009999999999994	0.0
C 	34.43317005446928	21.299999999999994	0.0
C 	35.662926127843185	22.009999999999994	0.0
C 	36.89268220121708	21.299999999999994	0.0
C 	38.122438274590984	22.009999999999994	0.0
C 	39.35219434796489	21.299999999999994	0.0
C 	40.58195042133879	22.009999999999994	0.0
C 	41.811706494712695	21.299999999999994	0.0
C 	43.0414625680866	22.009999999999994	0.0
C 	44.2712186414605	21.29999999999999	0.0
C 	45.5009747148344	22.00999999999999	0.0
C 	46.730730788208305	21.299999999999994	0.0
C 	47.96048686158221	22.009999999999994	0.0
C 	49.19024293495611	21.299999999999994	0.0
C 	50.41999900833002	22.009999999999994	0.0
C 	51.649755081703915	21.299999999999994	0.0
C 	52.879511155077815	22.00999999999999	0.0
C 	54.10926722845172	21.299999999999994	0.0
C 	55.33902330182563	22.009999999999994	0.0
C 	56.568779375199526	21.29999999999999	0.0
C 	57.798535448573425	22.00999999999999	0.0
C 	59.02829152194733	21.299999999999994	0.0
C 	60.25804759532124	22.009999999999994	0.0
C 	61.48780366869513	21.29999999999999	0.0
C 	62.717559742069035	22.00999999999999	0.0
C 	63.94731581544294	21.299999999999994	0.0
C 	65.17707188881684	22.009999999999987	0.0
C 	66.40682796219075	21.299999999999994	0.0
C 	67.63658403556465	22.009999999999994	0.0
C 	68.86634010893854	21.29999999999999	0.0
C 	70.09609618231245	22.00999999999999	0.0
C 	71.32585225568636	21.299999999999983	0.0
C 	72.55560832906026	22.00999999999999	0.0
C 	13.527316807112932	23.429999999999996	0.0
C 	14.757072880486836	24.139999999999997	0.0
C 	15.986828953860737	23.429999999999996	0.0
C 	17.216585027234643	24.139999999999997	0.0
C 	18.446341100608542	23.429999999999996	0.0
C 	19.676097173982445	24.139999999999997	0.0
C 	20.90585324735635	23.429999999999996	0.0
C 	22.135609320730254	24.139999999999997	0.0
C 	23.365365394104156	23.429999999999993	0.0
C 	24.595121467478062	24.139999999999997	0.0
C 	25.824877540851958	23.429999999999993	0.0
C 	27.054633614225864	24.139999999999993	0.0
C 	28.284389687599766	23.429999999999996	0.0
C 	29.514145760973673	24.139999999999997	0.0
C 	30.743901834347575	23.429999999999996	0.0
C 	31.973657907721478	24.139999999999997	0.0
C 	33.20341398109537	23.429999999999993	0.0
C 	34.43317005446928	24.139999999999993	0.0
C 	35.66292612784318	23.429999999999993	0.0
C 	36.892682201217085	24.139999999999993	0.0
C 	38.122438274590984	23.429999999999993	0.0
C 	39.35219434796489	24.139999999999993	0.0
C 	40.58195042133879	23.429999999999996	0.0
C 	41.811706494712695	24.139999999999993	0.0
C 	43.041462568086594	23.42999999999999	0.0
C 	44.2712186414605	24.13999999999999	0.0
C 	45.5009747148344	23.429999999999993	0.0
C 	46.730730788208305	24.139999999999993	0.0
C 	47.96048686158221	23.429999999999993	0.0
C 	49.19024293495611	24.139999999999993	0.0
C 	50.41999900833001	23.429999999999993	0.0
C 	51.649755081703915	24.13999999999999	0.0
C 	52.87951115507782	23.429999999999993	0.0
C 	54.10926722845172	24.139999999999993	0.0
C 	55.33902330182563	23.429999999999993	0.0
C 	56.56877937519953	24.139999999999993	0.0
C 	57.798535448573425	23.429999999999993	0.0
C 	59.02829152194733	24.139999999999993	0.0
C 	60.25804759532124	23.429999999999993	0.0
C 	61.487803668695136	24.13999999999999	0.0
C 	62.71755974206904	23.429999999999993	0.0
C 	63.947315815442934	24.139999999999986	0.0
C 	65.17707188881684	23.429999999999993	0.0
C 	66.40682796219075	24.139999999999993	0.0
C 	67.63658403556464	23.42999999999999	0.0
C 	68.86634010893856	24.139999999999997	0.0
C 	70.09609618231245	23.42999999999999	0.0
C 	71.32585225568636	24.139999999999997	0.0
C 	72.55560832906026	23.42999999999999	0.0
C 	73.78536440243417	24.13999999999999	0.0
C 	14.757072880486835	25.559999999999995	0.0
C 	15.986828953860735	26.269999999999996	0.0
C 	17.21658502723464	25.559999999999995	0.0
C 	18.44634110060854	26.269999999999996	0.0
C 	19.676097173982445	25.56	0.0
C 	20.905853247356344	26.269999999999996	0.0
C 	22.13560932073025	25.56	0.0
C 	23.365365394104153	26.269999999999996	0.0
C 	24.595121467478055	25.559999999999995	0.0
C 	25.824877540851958	26.269999999999996	0.0
C 	27.054633614225857	25.559999999999995	0.0
C 	28.28438968759976	26.269999999999996	0.0
C 	29.514145760973665	25.559999999999995	0.0
C 	30.743901834347568	26.269999999999996	0.0
C 	31.973657907721474	25.559999999999995	0.0
C 	33.20341398109538	26.269999999999996	0.0
C 	34.43317005446927	25.55999999999999	0.0
C 	35.66292612784318	26.269999999999992	0.0
C 	36.892682201217085	25.559999999999995	0.0
C 	38.12243827459098	26.269999999999992	0.0
C 	39.35219434796489	25.559999999999995	0.0
C 	40.58195042133879	26.269999999999992	0.0
C 	41.81170649471269	25.55999999999999	0.0
C 	43.041462568086594	26.269999999999992	0.0
C 	44.2712186414605	25.55999999999999	0.0
C 	45.5009747148344	26.26999999999999	0.0
C 	46.730730788208305	25.559999999999995	0.0
C 	47.960486861582204	26.269999999999992	0.0
C 	49.19024293495611	25.55999999999999	0.0
C 	50.41999900833001	26.269999999999992	0.0
C 	51.649755081703915	25.559999999999995	0.0
C 	52.879511155077815	26.269999999999992	0.0
C 	54.10926722845172	25.559999999999995	0.0
C 	55.33902330182562	26.269999999999992	0.0
C 	56.568779375199526	25.55999999999999	0.0
C 	57.79853544857343	26.269999999999992	0.0
C 	59.028291521947324	25.55999999999999	0.0
C 	60.25804759532123	26.269999999999992	0.0
C 	61.487803668695136	25.559999999999995	0.0
C 	62.717559742069035	26.26999999999999	0.0
C 	63.94731581544294	25.55999999999999	0.0
C 	65.17707188881683	26.269999999999985	0.0
C 	66.40682796219075	25.55999999999999	0.0
C 	67.63658403556465	26.269999999999992	0.0
C 	68.86634010893856	25.559999999999995	0.0
C 	70.09609618231246	26.269999999999996	0.0
C 	71.32585225568636	25.559999999999995	0.0
C 	72.55560832906026	26.269999999999996	0.0
C 	73.78536440243415	25.559999999999988	0.0
C 	75.01512047580806	26.26999999999999	0.0
C 	15.986828953860735	27.689999999999994	0.0
C 	17.21658502723464	28.399999999999995	0.0
C 	18.446341100608542	27.689999999999994	0.0
C 	19.676097173982445	28.399999999999995	0.0
C 	20.905853247356344	27.689999999999994	0.0
C 	22.13560932073025	28.399999999999995	0.0
C 	23.365365394104153	27.689999999999994	0.0
C 	24.59512146747806	28.399999999999995	0.0
C 	25.824877540851954	27.689999999999994	0.0
C 	27.054633614225857	28.399999999999995	0.0
C 	28.284389687599763	27.689999999999994	0.0
C 	29.514145760973665	28.399999999999995	0.0
C 	30.74390183434757	27.689999999999994	0.0
C 	31.973657907721474	28.399999999999995	0.0
C 	33.20341398109537	27.68999999999999	0.0
C 	34.43317005446928	28.39999999999999	0.0
C 	35.66292612784318	27.689999999999994	0.0
C 	36.892682201217085	28.399999999999995	0.0
C 	38.122438274590984	27.689999999999994	0.0
C 	39.35219434796489	28.399999999999995	0.0
C 	40.58195042133879	27.689999999999994	0.0
C 	41.811706494712695	28.399999999999995	0.0
C 	43.041462568086594	27.689999999999994	0.0
C 	44.2712186414605	28.399999999999995	0.0
C 	45.500974714834406	27.689999999999994	0.0
C 	46.730730788208305	28.399999999999995	0.0
C 	47.960486861582204	27.68999999999999	0.0
C 	49.19024293495611	28.39999999999999	0.0
C 	50.41999900833002	27.689999999999994	0.0
C 	51.649755081703915	28.399999999999995	0.0
C 	52.87951115507782	27.689999999999994	0.0
C 	54.10926722845173	28.399999999999995	0.0
C 	55.33902330182562	27.68999999999999	0.0
C 	56.568779375199526	28.39999999999999	0.0
C 	57.79853544857343	27.689999999999994	0.0
C 	59.02829152194733	28.39999999999999	0.0
C 	60.25804759532124	27.689999999999994	0.0
C 	61.48780366869513	28.399999999999988	0.0
C 	62.717559742069035	27.689999999999994	0.0
C 	63.94731581544294	28.399999999999995	0.0
C 	65.17707188881684	27.68999999999999	0.0
C 	66.40682796219075	28.39999999999999	0.0
C 	67.63658403556464	27.689999999999987	0.0
C 	68.86634010893856	28.399999999999995	0.0
C 	70.09609618231245	27.689999999999994	0.0
C 	71.32585225568636	28.399999999999995	0.0
C 	72.55560832906026	27.68999999999999	0.0
C 	73.78536440243415	28.39999999999999	0.0
C 	75.01512047580808	27.689999999999994	0.0
C 	76.24487654918197	28.399999999999984	0.0
C 	17.21658502723464	29.819999999999997	0.0
C 	18.446341100608546	30.529999999999998	0.0
C 	19.676097173982445	29.819999999999997	0.0
C 	20.905853247356355	30.529999999999998	0.0
C 	22.13560932073025	29.819999999999993	0.0
C 	23.365365394104156	30.529999999999994	0.0
C 	24.59512146747806	29.819999999999997	0.0
C 	25.82487754085196	30.529999999999998	0.0
C 	27.054633614225867	29.819999999999997	0.0
C 	28.28438968759977	30.529999999999998	0.0
C 	29.514145760973665	29.819999999999997	0.0
C 	30.74390183434757	30.529999999999998	0.0
C 	31.973657907721474	29.819999999999997	0.0
C 	33.20341398109538	30.529999999999998	0.0
C 	34.43317005446928	29.819999999999997	0.0
C 	35.662926127843185	30.529999999999998	0.0
C 	36.892682201217085	29.819999999999993	0.0
C 	38.12243827459099	30.529999999999994	0.0
C 	39.35219434796488	29.819999999999993	0.0
C 	40.58195042133879	30.529999999999994	0.0
C 	41.811706494712695	29.819999999999993	0.0
C 	43.0414625680866	30.529999999999994	0.0
C 	44.2712186414605	29.819999999999993	0.0
C 	45.500974714834406	30.529999999999994	0.0
C 	46.730730788208305	29.81999999999999	0.0
C 	47.960486861582204	30.52999999999999	0.0
C 	49.19024293495611	29.819999999999993	0.0
C 	50.41999900833002	30.529999999999994	0.0
C 	51.649755081703915	29.819999999999993	0.0
C 	52.87951115507782	30.529999999999994	0.0
C 	54.10926722845172	29.819999999999993	0.0
C 	55.33902330182563	30.52999999999999	0.0
C 	56.568779375199526	29.819999999999993	0.0
C 	57.798535448573425	30.52999999999999	0.0
C 	59.02829152194734	29.819999999999993	0.0
C 	60.25804759532124	30.529999999999994	0.0
C 	61.487803668695136	29.819999999999993	0.0
C 	62.71755974206904	30.529999999999994	0.0
C 	63.947315815442934	29.81999999999999	0.0
C 	65.17707188881685	30.529999999999998	0.0
C 	66.40682796219073	29.819999999999986	0.0
C 	67.63658403556465	30.529999999999994	0.0
C 	68.86634010893856	29.819999999999993	0.0
C 	70.09609618231245	30.529999999999994	0.0
C 	71.32585225568637	29.819999999999997	0.0
C 	72.55560832906026	30.52999999999999	0.0
C 	73.78536440243417	29.819999999999997	0.0
C 	75.01512047580806	30.529999999999987	0.0
C 	76.24487654918197	29.81999999999999	0.0
C 	77.47463262255587	30.52999999999999	0.0
C 	18.446341100608542	31.949999999999996	0.0
C 	19.676097173982445	32.65999999999999	0.0
C 	20.905853247356347	31.949999999999992	0.0
C 	22.135609320730254	32.66	0.0
C 	23.365365394104156	31.949999999999996	0.0
C 	24.595121467478055	32.65999999999999	0.0
C 	25.824877540851958	31.949999999999992	0.0
C 	27.05463361422586	32.66	0.0
C 	28.284389687599766	31.949999999999996	0.0
C 	29.51414576097367	32.66	0.0
C 	30.743901834347568	31.949999999999992	0.0
C 	31.97365790772147	32.66	0.0
C 	33.20341398109537	31.949999999999992	0.0
C 	34.43317005446928	32.66	0.0
C 	35.66292612784318	31.949999999999996	0.0
C 	36.892682201217085	32.66	0.0
C 	38.122438274590984	31.949999999999992	0.0
C 	39.35219434796489	32.65999999999999	0.0
C 	40.58195042133879	31.949999999999992	0.0
C 	41.81170649471269	32.65999999999999	0.0
C 	43.0414625680866	31.949999999999996	0.0
C 	44.2712186414605	32.65999999999999	0.0
C 	45.5009747148344	31.949999999999992	0.0
C 	46.730730788208305	32.65999999999999	0.0
C 	47.96048686158221	31.949999999999992	0.0
C 	49.1902429349561	32.65999999999999	0.0
C 	50.41999900833002	31.949999999999992	0.0
C 	51.649755081703915	32.65999999999999	0.0
C 	52.879511155077815	31.949999999999992	0.0
C 	54.10926722845172	32.65999999999999	0.0
C 	55.33902330182563	31.949999999999992	0.0
C 	56.568779375199526	32.65999999999999	0.0
C 	57.79853544857343	31.949999999999992	0.0
C 	59.028291521947324	32.65999999999999	0.0
C 	60.25804759532124	31.949999999999992	0.0
C 	61.487803668695136	32.65999999999999	0.0
C 	62.717559742069035	31.94999999999999	0.0
C 	63.94731581544294	32.65999999999999	0.0
C 	65.17707188881685	31.949999999999992	0.0
C 	66.40682796219076	32.66	0.0
C 	67.63658403556465	31.949999999999992	0.0
C 	68.86634010893856	32.65999999999999	0.0
C 	70.09609618231245	31.94999999999999	0.0
C 	71.32585225568636	32.65999999999999	0.0
C 	72.55560832906026	31.949999999999996	0.0
C 	73.78536440243415	32.65999999999999	0.0
C 	75.01512047580806	31.949999999999992	0.0
C 	76.24487654918195	32.65999999999998	0.0
C 	77.47463262255587	31.949999999999985	0.0
C 	78.70438869592978	32.65999999999999	0.0
C 	19.676097173982445	34.07999999999999	0.0
C 	20.90585324735635	34.78999999999999	0.0
C 	22.135609320730254	34.07999999999999	0.0
C 	23.365365394104156	34.78999999999999	0.0
C 	24.595121467478055	34.07999999999999	0.0
C 	25.824877540851958	34.78999999999999	0.0
C 	27.054633614225864	34.07999999999999	0.0
C 	28.284389687599766	34.78999999999999	0.0
C 	29.514145760973665	34.07999999999999	0.0
C 	30.743901834347568	34.78999999999999	0.0
C 	31.97365790772147	34.07999999999999	0.0
C 	33.20341398109537	34.78999999999999	0.0
C 	34.43317005446928	34.07999999999999	0.0
C 	35.662926127843185	34.78999999999999	0.0
C 	36.89268220121708	34.07999999999999	0.0
C 	38.122438274590984	34.78999999999999	0.0
C 	39.35219434796489	34.07999999999999	0.0
C 	40.581950421338796	34.78999999999999	0.0
C 	41.811706494712695	34.07999999999999	0.0
C 	43.0414625680866	34.78999999999999	0.0
C 	44.2712186414605	34.07999999999999	0.0
C 	45.5009747148344	34.78999999999999	0.0
C 	46.730730788208305	34.07999999999999	0.0
C 	47.96048686158221	34.78999999999999	0.0
C 	49.19024293495611	34.07999999999999	0.0
C 	50.41999900833002	34.78999999999999	0.0
C 	51.649755081703915	34.07999999999999	0.0
C 	52.87951115507782	34.78999999999999	0.0
C 	54.10926722845172	34.07999999999999	0.0
C 	55.33902330182562	34.78999999999999	0.0
C 	56.56877937519953	34.07999999999999	0.0
C 	57.79853544857343	34.78999999999999	0.0
C 	59.02829152194733	34.07999999999999	0.0
C 	60.25804759532124	34.78999999999999	0.0
C 	61.487803668695136	34.07999999999999	0.0
C 	62.71755974206905	34.79	0.0
C 	63.947315815442934	34.079999999999984	0.0
C 	65.17707188881685	34.78999999999999	0.0
C 	66.40682796219075	34.07999999999999	0.0
C 	67.63658403556465	34.78999999999999	0.0
C 	68.86634010893854	34.07999999999999	0.0
C 	70.09609618231245	34.78999999999999	0.0
C 	71.32585225568636	34.07999999999999	0.0
C 	72.55560832906025	34.789999999999985	0.0
C 	73.78536440243417	34.07999999999999	0.0
C 	75.01512047580808	34.78999999999999	0.0
C 	76.24487654918197	34.07999999999999	0.0
C 	77.47463262255587	34.78999999999999	0.0
C 	78.70438869592977	34.079999999999984	0.0
C 	79.93414476930369	34.78999999999999	0.0
C 	20.90585324735635	36.209999999999994	0.0
C 	22.135609320730254	36.919999999999995	0.0
C 	23.36536539410416	36.209999999999994	0.0
C 	24.595121467478062	36.919999999999995	0.0
C 	25.82487754085196	36.209999999999994	0.0
C 	27.054633614225864	36.919999999999995	0.0
C 	28.284389687599766	36.209999999999994	0.0
C 	29.514145760973673	36.919999999999995	0.0
C 	30.743901834347575	36.209999999999994	0.0
C 	31.973657907721478	36.919999999999995	0.0
C 	33.20341398109537	36.209999999999994	0.0
C 	34.43317005446928	36.919999999999995	0.0
C 	35.662926127843185	36.209999999999994	0.0
C 	36.89268220121709	36.919999999999995	0.0
C 	38.12243827459099	36.209999999999994	0.0
C 	39.3521943479649	36.919999999999995	0.0
C 	40.581950421338796	36.209999999999994	0.0
C 	41.811706494712695	36.919999999999995	0.0
C 	43.041462568086594	36.209999999999994	0.0
C 	44.2712186414605	36.919999999999995	0.0
C 	45.500974714834406	36.209999999999994	0.0
C 	46.730730788208305	36.919999999999995	0.0
C 	47.96048686158221	36.209999999999994	0.0
C 	49.19024293495612	36.919999999999995	0.0
C 	50.41999900833002	36.20999999999999	0.0
C 	51.649755081703915	36.91999999999999	0.0
C 	52.87951115507782	36.209999999999994	0.0
C 	54.10926722845172	36.91999999999999	0.0
C 	55.33902330182563	36.209999999999994	0.0
C 	56.56877937519953	36.919999999999995	0.0
C 	57.79853544857343	36.20999999999999	0.0
C 	59.02829152194733	36.91999999999999	0.0
C 	60.25804759532123	36.20999999999999	0.0
C 	61.48780366869515	36.919999999999995	0.0
C 	62.71755974206904	36.209999999999994	0.0
C 	63.94731581544295	36.919999999999995	0.0
C 	65.17707188881684	36.209999999999994	0.0
C 	66.40682796219075	36.919999999999995	0.0
C 	67.63658403556467	36.209999999999994	0.0
C 	68.86634010893856	36.91999999999999	0.0
C 	70.09609618231246	36.209999999999994	0.0
C 	71.32585225568636	36.91999999999999	0.0
C 	72.55560832906026	36.209999999999994	0.0
C 	73.78536440243417	36.919999999999995	0.0
C 	75.01512047580806	36.20999999999999	0.0
C 	76.24487654918198	36.919999999999995	0.0
C 	77.47463262255586	36.20999999999999	0.0
C 	78.70438869592978	36.919999999999995	0.0
C 	79.93414476930369	36.20999999999999	0.0
C 	81.16390084267759	36.91999999999999	0.0
C 	22.13560932073025	38.33999999999999	0.0
C 	23.365365394104153	39.04999999999999	0.0
C 	24.59512146747806	38.33999999999999	0.0
C 	25.82487754085196	39.04999999999999	0.0
C 	27.05463361422586	38.33999999999999	0.0
C 	28.284389687599763	39.04999999999999	0.0
C 	29.514145760973665	38.33999999999999	0.0
C 	30.74390183434757	39.04999999999999	0.0
C 	31.973657907721474	38.339999999999996	0.0
C 	33.20341398109538	39.04999999999999	0.0
C 	34.43317005446927	38.33999999999999	0.0
C 	35.66292612784318	39.04999999999999	0.0
C 	36.892682201217085	38.33999999999999	0.0
C 	38.12243827459099	39.04999999999999	0.0
C 	39.35219434796489	38.33999999999999	0.0
C 	40.581950421338796	39.04999999999999	0.0
C 	41.811706494712695	38.33999999999999	0.0
C 	43.0414625680866	39.04999999999999	0.0
C 	44.27121864146049	38.33999999999999	0.0
C 	45.5009747148344	39.04999999999999	0.0
C 	46.730730788208305	38.33999999999999	0.0
C 	47.960486861582204	39.04999999999999	0.0
C 	49.19024293495611	38.33999999999999	0.0
C 	50.41999900833002	39.04999999999999	0.0
C 	51.649755081703915	38.33999999999999	0.0
C 	52.879511155077815	39.04999999999999	0.0
C 	54.10926722845173	38.33999999999999	0.0
C 	55.33902330182562	39.04999999999998	0.0
C 	56.568779375199526	38.33999999999999	0.0
C 	57.79853544857343	39.04999999999999	0.0
C 	59.02829152194733	38.33999999999999	0.0
C 	60.25804759532123	39.04999999999999	0.0
C 	61.48780366869513	38.33999999999998	0.0
C 	62.71755974206905	39.04999999999999	0.0
C 	63.94731581544294	38.33999999999999	0.0
C 	65.17707188881685	39.04999999999999	0.0
C 	66.40682796219075	38.33999999999999	0.0
C 	67.63658403556465	39.04999999999999	0.0
C 	68.86634010893856	38.33999999999999	0.0
C 	70.09609618231245	39.04999999999998	0.0
C 	71.32585225568636	38.33999999999999	0.0
C 	72.55560832906025	39.04999999999998	0.0
C 	73.78536440243415	38.33999999999999	0.0
C 	75.01512047580806	39.04999999999999	0.0
C 	76.24487654918197	38.33999999999999	0.0
C 	77.47463262255587	39.05	0.0
C 	78.70438869592977	38.33999999999998	0.0
C 	79.93414476930369	39.04999999999999	0.0
C 	81.16390084267758	38.33999999999998	0.0
C 	82.39365691605148	39.04999999999998	0.0
C 	23.365365394104156	40.46999999999999	0.0
C 	24.59512146747806	41.17999999999999	0.0
C 	25.82487754085196	40.46999999999999	0.0
C 	27.054633614225867	41.17999999999999	0.0
C 	28.284389687599763	40.46999999999999	0.0
C 	29.51414576097367	41.17999999999999	0.0
C 	30.74390183434757	40.46999999999999	0.0
C 	31.973657907721474	41.17999999999999	0.0
C 	33.20341398109537	40.46999999999999	0.0
C 	34.43317005446928	41.17999999999999	0.0
C 	35.66292612784318	40.46999999999999	0.0
C 	36.892682201217085	41.17999999999999	0.0
C 	38.12243827459099	40.46999999999999	0.0
C 	39.3521943479649	41.17999999999999	0.0
C 	40.58195042133879	40.46999999999999	0.0
C 	41.811706494712695	41.17999999999999	0.0
C 	43.0414625680866	40.46999999999999	0.0
C 	44.2712186414605	41.17999999999999	0.0
C 	45.500974714834406	40.46999999999999	0.0
C 	46.73073078820831	41.17999999999999	0.0
C 	47.960486861582204	40.46999999999999	0.0
C 	49.19024293495611	41.17999999999999	0.0
C 	50.41999900833002	40.46999999999999	0.0
C 	51.649755081703915	41.179999999999986	0.0
C 	52.87951115507782	40.46999999999999	0.0
C 	54.10926722845173	41.17999999999999	0.0
C 	55.33902330182563	40.46999999999999	0.0
C 	56.568779375199526	41.17999999999999	0.0
C 	57.798535448573425	40.469999999999985	0.0
C 	59.028291521947345	41.17999999999999	0.0
C 	60.25804759532124	40.46999999999999	0.0
C 	61.48780366869514	41.17999999999999	0.0
C 	62.71755974206904	40.46999999999999	0.0
C 	63.94731581544295	41.17999999999999	0.0
C 	65.17707188881685	40.46999999999999	0.0
C 	66.40682796219075	41.179999999999986	0.0
C 	67.63658403556465	40.46999999999999	0.0
C 	68.86634010893854	41.179999999999986	0.0
C 	70.09609618231246	40.46999999999999	0.0
C 	71.32585225568636	41.17999999999999	0.0
C 	72.55560832906026	40.469999999999985	0.0
C 	73.78536440243417	41.179999999999986	0.0
C 	75.01512047580806	40.469999999999985	0.0
C 	76.24487654918198	41.17999999999999	0.0
C 	77.47463262255587	40.46999999999999	0.0
C 	78.70438869592978	41.17999999999999	0.0
C 	79.93414476930367	40.469999999999985	0.0
C 	81.16390084267758	41.179999999999986	0.0
C 	82.3936569160515	40.46999999999999	0.0
C 	83.62341298942539	41.179999999999986	0.0
C 	24.595121467478055	42.59999999999999	0.0
C 	25.82487754085196	43.30999999999999	0.0
C 	27.05463361422586	42.59999999999999	0.0
C 	28.284389687599766	43.30999999999999	0.0
C 	29.514145760973662	42.59999999999999	0.0
C 	30.743901834347568	43.30999999999999	0.0
C 	31.97365790772147	42.59999999999999	0.0
C 	33.20341398109537	43.30999999999999	0.0
C 	34.43317005446927	42.59999999999999	0.0
C 	35.66292612784318	43.30999999999999	0.0
C 	36.89268220121708	42.59999999999999	0.0
C 	38.122438274590984	43.30999999999999	0.0
C 	39.35219434796489	42.59999999999999	0.0
C 	40.581950421338796	43.30999999999999	0.0
C 	41.81170649471269	42.59999999999999	0.0
C 	43.041462568086594	43.30999999999999	0.0
C 	44.2712186414605	42.59999999999999	0.0
C 	45.5009747148344	43.30999999999999	0.0
C 	46.730730788208305	42.59999999999999	0.0
C 	47.96048686158221	43.30999999999999	0.0
C 	49.19024293495611	42.59999999999999	0.0
C 	50.41999900833001	43.30999999999999	0.0
C 	51.64975508170392	42.599999999999994	0.0
C 	52.879511155077815	43.30999999999999	0.0
C 	54.10926722845172	42.59999999999999	0.0
C 	55.33902330182563	43.30999999999999	0.0
C 	56.568779375199526	42.59999999999999	0.0
C 	57.798535448573425	43.30999999999999	0.0
C 	59.028291521947324	42.59999999999998	0.0
C 	60.258047595321244	43.30999999999999	0.0
C 	61.487803668695136	42.59999999999999	0.0
C 	62.71755974206904	43.30999999999999	0.0
C 	63.94731581544294	42.59999999999999	0.0
C 	65.17707188881684	43.30999999999999	0.0
C 	66.40682796219076	42.599999999999994	0.0
C 	67.63658403556465	43.30999999999999	0.0
C 	68.86634010893856	42.59999999999999	0.0
C 	70.09609618231245	43.30999999999998	0.0
C 	71.32585225568636	42.59999999999999	0.0
C 	72.55560832906026	43.30999999999999	0.0
C 	73.78536440243415	42.59999999999999	0.0
C 	75.01512047580806	43.30999999999999	0.0
C 	76.24487654918197	42.59999999999998	0.0
C 	77.47463262255587	43.30999999999999	0.0
C 	78.70438869592978	42.59999999999999	0.0
C 	79.93414476930367	43.30999999999999	0.0
C 	81.16390084267758	42.59999999999999	0.0
C 	82.39365691605148	43.30999999999999	0.0
C 	83.62341298942539	42.59999999999999	0.0
C 	84.85316906279928	43.30999999999998	0.0
C 	25.82487754085196	44.72999999999999	0.0
C 	27.054633614225864	45.43999999999999	0.0
C 	28.284389687599766	44.72999999999999	0.0
C 	29.514145760973673	45.43999999999999	0.0
C 	30.743901834347568	44.72999999999999	0.0
C 	31.97365790772147	45.43999999999999	0.0
C 	33.20341398109537	44.72999999999999	0.0
C 	34.43317005446928	45.43999999999999	0.0
C 	35.662926127843185	44.72999999999999	0.0
C 	36.892682201217085	45.43999999999999	0.0
C 	38.122438274590984	44.72999999999999	0.0
C 	39.35219434796489	45.43999999999999	0.0
C 	40.581950421338796	44.72999999999999	0.0
C 	41.811706494712695	45.43999999999999	0.0
C 	43.0414625680866	44.72999999999999	0.0
C 	44.27121864146051	45.43999999999999	0.0
C 	45.500974714834406	44.72999999999999	0.0
C 	46.730730788208305	45.43999999999999	0.0
C 	47.960486861582204	44.72999999999999	0.0
C 	49.19024293495611	45.43999999999998	0.0
C 	50.41999900833002	44.72999999999999	0.0
C 	51.64975508170391	45.43999999999998	0.0
C 	52.87951115507782	44.72999999999999	0.0
C 	54.10926722845172	45.43999999999999	0.0
C 	55.33902330182562	44.72999999999998	0.0
C 	56.568779375199526	45.43999999999998	0.0
C 	57.798535448573425	44.72999999999998	0.0
C 	59.02829152194734	45.43999999999999	0.0
C 	60.25804759532124	44.72999999999999	0.0
C 	61.48780366869514	45.43999999999999	0.0
C 	62.717559742069035	44.72999999999998	0.0
C 	63.94731581544294	45.43999999999998	0.0
C 	65.17707188881685	44.72999999999999	0.0
C 	66.40682796219075	45.43999999999998	0.0
C 	67.63658403556465	44.72999999999999	0.0
C 	68.86634010893856	45.43999999999999	0.0
C 	70.09609618231245	44.72999999999999	0.0
C 	71.32585225568636	45.43999999999998	0.0
C 	72.55560832906026	44.72999999999998	0.0
C 	73.78536440243417	45.43999999999999	0.0
C 	75.01512047580806	44.72999999999998	0.0
C 	76.24487654918198	45.43999999999999	0.0
C 	77.47463262255587	44.72999999999999	0.0
C 	78.70438869592978	45.43999999999999	0.0
C 	79.93414476930369	44.72999999999999	0.0
C 	81.16390084267758	45.43999999999998	0.0
C 	82.39365691605148	44.72999999999999	0.0
C 	83.62341298942538	45.43999999999998	0.0
C 	84.8531690627993	44.72999999999998	0.0
C 	86.08292513617319	45.43999999999998	0.0
C 	27.054633614225864	46.85999999999999	0.0
C 	28.28438968759977	47.56999999999999	0.0
C 	29.514145760973673	46.85999999999999	0.0
C 	30.74390183434758	47.56999999999999	0.0
C 	31.973657907721474	46.85999999999999	0.0
C 	33.20341398109538	47.56999999999999	0.0
C 	34.43317005446928	46.85999999999999	0.0
C 	35.662926127843185	47.56999999999999	0.0
C 	36.892682201217085	46.85999999999999	0.0
C 	38.122438274590984	47.56999999999999	0.0
C 	39.35219434796489	46.85999999999999	0.0
C 	40.581950421338796	47.56999999999999	0.0
C 	41.8117064947127	46.85999999999999	0.0
C 	43.0414625680866	47.56999999999999	0.0
C 	44.2712186414605	46.85999999999999	0.0
C 	45.500974714834406	47.56999999999999	0.0
C 	46.73073078820831	46.859999999999985	0.0
C 	47.960486861582204	47.569999999999986	0.0
C 	49.19024293495612	46.85999999999999	0.0
C 	50.41999900833002	47.56999999999999	0.0
C 	51.649755081703915	46.859999999999985	0.0
C 	52.87951115507782	47.569999999999986	0.0
C 	54.10926722845172	46.859999999999985	0.0
C 	55.339023301825634	47.56999999999999	0.0
C 	56.56877937519953	46.85999999999999	0.0
C 	57.79853544857344	47.56999999999999	0.0
C 	59.02829152194733	46.859999999999985	0.0
C 	60.25804759532124	47.569999999999986	0.0
C 	61.48780366869515	46.85999999999999	0.0
C 	62.71755974206904	47.569999999999986	0.0
C 	63.94731581544295	46.85999999999999	0.0
C 	65.17707188881685	47.56999999999999	0.0
C 	66.40682796219075	46.859999999999985	0.0
C 	67.63658403556465	47.569999999999986	0.0
C 	68.86634010893856	46.859999999999985	0.0
C 	70.09609618231246	47.56999999999999	0.0
C 	71.32585225568636	46.859999999999985	0.0
C 	72.55560832906028	47.56999999999999	0.0
C 	73.78536440243417	46.859999999999985	0.0
C 	75.01512047580808	47.569999999999986	0.0
C 	76.24487654918197	46.859999999999985	0.0
C 	77.47463262255587	47.569999999999986	0.0
C 	78.70438869592978	46.85999999999999	0.0
C 	79.93414476930367	47.569999999999986	0.0
C 	81.16390084267758	46.85999999999999	0.0
C 	82.39365691605148	47.56999999999999	0.0
C 	83.62341298942539	46.859999999999985	0.0
C 	84.8531690627993	47.569999999999986	0.0
C 	86.08292513617319	46.85999999999998	0.0
C 	87.31268120954711	47.569999999999986	0.0
C 	28.284389687599763	48.98999999999999	0.0
C 	29.51414576097367	49.69999999999999	0.0
C 	30.74390183434757	48.98999999999999	0.0
C 	31.973657907721478	49.69999999999999	0.0
C 	33.20341398109537	48.98999999999999	0.0
C 	34.43317005446928	49.69999999999999	0.0
C 	35.66292612784318	48.98999999999999	0.0
C 	36.892682201217085	49.69999999999999	0.0
C 	38.122438274590984	48.98999999999999	0.0
C 	39.35219434796488	49.69999999999999	0.0
C 	40.58195042133879	48.98999999999999	0.0
C 	41.811706494712695	49.69999999999999	0.0
C 	43.041462568086594	48.98999999999999	0.0
C 	44.2712186414605	49.69999999999999	0.0
C 	45.5009747148344	48.98999999999999	0.0
C 	46.730730788208305	49.69999999999998	0.0
C 	47.96048686158221	48.98999999999999	0.0
C 	49.1902429349561	49.69999999999998	0.0
C 	50.41999900833002	48.98999999999999	0.0
C 	51.64975508170392	49.69999999999999	0.0
C 	52.879511155077815	48.98999999999999	0.0
C 	54.10926722845172	49.69999999999999	0.0
C 	55.33902330182562	48.98999999999998	0.0
C 	56.56877937519953	49.69999999999999	0.0
C 	57.79853544857343	48.98999999999999	0.0
C 	59.02829152194734	49.69999999999999	0.0
C 	60.25804759532124	48.98999999999999	0.0
C 	61.487803668695136	49.69999999999999	0.0
C 	62.71755974206905	48.98999999999999	0.0
C 	63.94731581544294	49.69999999999998	0.0
C 	65.17707188881685	48.98999999999999	0.0
C 	66.40682796219075	49.69999999999999	0.0
C 	67.63658403556465	48.98999999999999	0.0
C 	68.86634010893856	49.69999999999999	0.0
C 	70.09609618231245	48.98999999999998	0.0
C 	71.32585225568637	49.69999999999999	0.0
C 	72.55560832906025	48.98999999999998	0.0
C 	73.78536440243417	49.69999999999999	0.0
C 	75.01512047580806	48.98999999999999	0.0
C 	76.24487654918197	49.69999999999999	0.0
C 	77.47463262255587	48.98999999999998	0.0
C 	78.70438869592978	49.69999999999998	0.0
C 	79.93414476930369	48.98999999999999	0.0
C 	81.16390084267758	49.69999999999998	0.0
C 	82.39365691605148	48.98999999999999	0.0
C 	83.62341298942539	49.69999999999999	0.0
C 	84.85316906279928	48.98999999999998	0.0
C 	86.08292513617319	49.69999999999998	0.0
C 	87.3126812095471	48.98999999999998	0.0
C 	88.542437282921	49.69999999999999	0.0
C 	29.51414576097367	51.11999999999999	0.0
C 	30.74390183434757	51.82999999999999	0.0
C 	31.973657907721474	51.11999999999999	0.0
C 	33.20341398109538	51.82999999999999	0.0
C 	34.43317005446928	51.11999999999999	0.0
C 	35.66292612784318	51.82999999999999	0.0
C 	36.892682201217085	51.11999999999999	0.0
C 	38.12243827459099	51.82999999999999	0.0
C 	39.35219434796489	51.12	0.0
C 	40.581950421338796	51.83	0.0
C 	41.811706494712695	51.11999999999999	0.0
C 	43.041462568086594	51.82999999999999	0.0
C 	44.2712186414605	51.12	0.0
C 	45.5009747148344	51.82999999999999	0.0
C 	46.73073078820831	51.11999999999999	0.0
C 	47.96048686158221	51.82999999999999	0.0
C 	49.19024293495611	51.11999999999999	0.0
C 	50.41999900833002	51.82999999999999	0.0
C 	51.649755081703915	51.11999999999998	0.0
C 	52.879511155077815	51.829999999999984	0.0
C 	54.10926722845171	51.11999999999999	0.0
C 	55.33902330182563	51.83	0.0
C 	56.568779375199526	51.11999999999999	0.0
C 	57.79853544857343	51.82999999999999	0.0
C 	59.02829152194733	51.11999999999999	0.0
C 	60.25804759532124	51.82999999999999	0.0
C 	61.48780366869514	51.11999999999999	0.0
C 	62.717559742069035	51.829999999999984	0.0
C 	63.94731581544295	51.11999999999999	0.0
C 	65.17707188881685	51.82999999999999	0.0
C 	66.40682796219075	51.11999999999999	0.0
C 	67.63658403556465	51.82999999999999	0.0
C 	68.86634010893854	51.11999999999998	0.0
C 	70.09609618231246	51.82999999999999	0.0
C 	71.32585225568636	51.11999999999999	0.0
C 	72.55560832906026	51.82999999999999	0.0
C 	73.78536440243417	51.11999999999999	0.0
C 	75.01512047580806	51.82999999999999	0.0
C 	76.24487654918198	51.11999999999999	0.0
C 	77.47463262255587	51.829999999999984	0.0
C 	78.70438869592978	51.11999999999999	0.0
C 	79.93414476930367	51.829999999999984	0.0
C 	81.16390084267758	51.11999999999999	0.0
C 	82.39365691605148	51.82999999999999	0.0
C 	83.62341298942538	51.11999999999998	0.0
C 	84.8531690627993	51.82999999999999	0.0
C 	86.08292513617319	51.11999999999998	0.0
C 	87.3126812095471	51.82999999999999	0.0
C 	88.542437282921	51.11999999999998	0.0
C 	89.7721933562949	51.829999999999984	0.0
C 	51.96053399052355	0.2500148388506016	2.15
C 	53.25776854037605	0.8275808720182312	2.15
C 	53.406198958216116	2.2398019634411805	2.15
C 	54.703433508068606	2.817367996608817	2.15
C 	54.85186392590868	4.229589088031767	2.15
C 	56.14909847576117	4.807155121199404	2.15
C 	56.29752889360124	6.219376212622354	2.15
C 	57.59476344345373	6.7969422457899835	2.15
C 	57.7431938612938	8.209163337212933	2.15
C 	59.04042841114629	8.78672937038057	2.15
C 	59.188858828986355	10.19895046180352	2.15
C 	60.48609337883886	10.776516494971156	2.15
C 	60.63452379667893	12.188737586394105	2.15
C 	61.9317583465314	12.766303619561736	2.15
C 	62.08018876437148	14.178524710984686	2.15
C 	63.37742331422397	14.756090744152322	2.15
C 	63.525853732064036	16.16831183557527	2.15
C 	49.51449530865863	0.5071038639382711	2.15
C 	50.81172985851112	1.0846698971059077	2.15
C 	50.96016027635119	2.496890988528857	2.15
C 	52.25739482620369	3.0744570216964866	2.15
C 	52.405825244043754	4.486678113119436	2.15
C 	53.70305979389625	5.064244146287073	2.15
C 	53.85149021173632	6.4764652377100225	2.15
C 	55.14872476158882	7.054031270877659	2.15
C 	55.297155179428884	8.466252362300608	2.15
C 	56.594389729281374	9.04381839546824	2.15
C 	56.74282014712144	10.45603948689119	2.15
C 	58.04005469697393	11.033605520058826	2.15
C 	58.188485114814	12.445826611481774	2.15
C 	59.48571966466649	13.02339264464941	2.15
C 	59.634150082506565	14.43561373607236	2.15
C 	60.931384632359055	15.013179769239992	2.15
C 	61.07981505019912	16.42540086066294	2.15
C 	62.37704960005162	17.00296689383058	2.15
C 	62.52548001789169	18.415187985253528	2.15
C 	63.82271456774417	18.992754018421163	2.15
C 	63.97114498558424	20.404975109844113	2.15
C 	65.26837953543674	20.982541143011744	2.15
C 	65.41680995327681	22.394762234434694	2.15
C 	66.7140445031293	22.97232826760232	2.15
C 	66.86247492096938	24.38454935902527	2.15
C 	68.15970947082187	24.962115392192917	2.15
C 	68.30813988866193	26.374336483615867	2.15
C 	69.60537443851443	26.951902516783495	2.15
C 	69.75380485635449	28.364123608206445	2.15
C 	71.05103940620698	28.941689641374076	2.15
C 	71.19946982404706	30.353910732797022	2.15
C 	72.49670437389955	30.931476765964668	2.15
C 	72.64513479173962	32.34369785738762	2.15
C 	47.06845662679371	0.7641928890259467	2.15
C 	48.365691176646216	1.3417589221935833	2.15
C 	48.514121594486284	2.7539800136165327	2.15
C 	49.81135614433877	3.33154604678417	2.15
C 	49.95978656217884	4.74376713820712	2.15
C 	51.257021112031325	5.321333171374749	2.15
C 	51.40545152987139	6.733554262797699	2.15
C 	52.7026860797239	7.311120295965336	2.15
C 	52.851116497563964	8.723341387388285	2.15
C 	54.148351047416455	9.300907420555921	2.15
C 	54.29678146525652	10.713128511978871	2.15
C 	55.59401601510902	11.2906945451465	2.15
C 	55.74244643294909	12.70291563656945	2.15
C 	57.03968098280157	13.280481669737087	2.15
C 	57.188111400641645	14.692702761160037	2.15
C 	58.485345950494136	15.270268794327674	2.15
C 	58.6337763683342	16.682489885750623	2.15
C 	59.9310109181867	17.260055918918255	2.15
C 	60.07944133602677	18.6722770103412	2.15
C 	61.376675885879266	19.24984304350884	2.15
C 	61.52510630371933	20.66206413493179	2.15
C 	62.822340853571816	21.239630168099428	2.15
C 	62.970771271411884	22.651851259522378	2.15
C 	64.26800582126438	23.229417292690005	2.15
C 	64.41643623910444	24.641638384112955	2.15
C 	65.71367078895695	25.219204417280583	2.15
C 	65.86210120679702	26.631425508703533	2.15
C 	67.15933575664951	27.20899154187118	2.15
C 	67.30776617448957	28.621212633294128	2.15
C 	68.60500072434208	29.198778666461756	2.15
C 	68.75343114218215	30.610999757884706	2.15
C 	70.05066569203461	31.188565791052337	2.15
C 	70.19909610987469	32.60078688247529	2.15
C 	71.49633065972719	33.17835291564293	2.15
C 	71.64476107756725	34.59057400706588	2.15
C 	72.94199562741976	35.16814004023351	2.15
C 	73.09042604525983	36.58036113165646	2.15
C 	74.38766059511231	37.15792716482409	2.15
C 	74.53609101295238	38.57014825624704	2.15
C 	43.17675297723624	-0.9685052104769639	2.15
C 	44.47398752708873	-0.3909391773093273	2.15
C 	44.6224179449288	1.0212819141136222	2.15
C 	45.91965249478129	1.5988479472812527	2.15
C 	46.06808291262136	3.0110690387042025	2.15
C 	47.36531746247385	3.5886350718718387	2.15
C 	47.513747880313915	5.000856163294788	2.15
C 	48.81098243016642	5.578422196462425	2.15
C 	48.95941284800649	6.990643287885375	2.15
C 	50.25664739785898	7.568209321053005	2.15
C 	50.405077815699045	8.980430412475954	2.15
C 	51.702312365551535	9.55799644564359	2.15
C 	51.8507427833916	10.97021753706654	2.15
C 	53.1479773332441	11.547783570234177	2.15
C 	53.29640775108417	12.960004661657127	2.15
C 	54.59364230093666	13.537570694824757	2.15
C 	54.742072718776726	14.949791786247706	2.15
C 	56.039307268629216	15.527357819415343	2.15
C 	56.18773768646928	16.939578910838293	2.15
C 	57.48497223632179	17.51714494400593	2.15
C 	57.633402654161856	18.929366035428878	2.15
C 	58.93063720401434	19.50693206859651	2.15
C 	59.079067621854406	20.91915316001946	2.15
C 	60.376302171706904	21.496719193187094	2.15
C 	60.52473258954697	22.908940284610043	2.15
C 	61.82196713939946	23.486506317777682	2.15
C 	61.97039755723954	24.89872740920063	2.15
C 	63.26763210709203	25.47629344236826	2.15
C 	63.416062524932094	26.88851453379121	2.15
C 	64.71329707478459	27.46608056695884	2.15
C 	64.86172749262465	28.87830165838179	2.15
C 	66.15896204247716	29.455867691549432	2.15
C 	66.30739246031722	30.868088782972382	2.15
C 	67.60462701016971	31.445654816140014	2.15
C 	67.75305742800978	32.85787590756296	2.15
C 	69.05029197786227	33.43544194073059	2.15
C 	69.19872239570233	34.84766303215354	2.15
C 	70.49595694555484	35.42522906532118	2.15
C 	70.64438736339491	36.83745015674413	2.15
C 	71.94162191324739	37.41501618991177	2.15
C 	72.09005233108746	38.82723728133472	2.15
C 	73.38728688093997	39.404803314502345	2.15
C 	73.53571729878003	40.817024405925295	2.15
C 	40.730714295371314	-0.7114161853892803	2.15
C 	42.02794884522381	-0.1338501522216508	2.15
C 	42.17637926306388	1.2783709392012987	2.15
C 	43.473613812916376	1.8559369723689354	2.15
C 	43.622044230756444	3.268158063791885	2.15
C 	44.919278780608934	3.8457240969595143	2.15
C 	45.067709198449	5.257945188382464	2.15
C 	46.36494374830149	5.835511221550101	2.15
C 	46.51337416614156	7.247732312973051	2.15
C 	47.81060871599406	7.825298346140688	2.15
C 	47.959039133834125	9.237519437563638	2.15
C 	49.25627368368662	9.815085470731267	2.15
C 	49.40470410152669	11.227306562154217	2.15
C 	50.70193865137919	11.804872595321854	2.15
C 	50.850369069219255	13.217093686744802	2.15
C 	52.14760361907174	13.794659719912438	2.15
C 	52.29603403691181	15.206880811335388	2.15
C 	53.5932685867643	15.78444684450302	2.15
C 	53.74169900460437	17.19666793592597	2.15
C 	55.03893355445687	17.774233969093604	2.15
C 	55.187363972296936	19.186455060516554	2.15
C 	56.484598522149426	19.764021093684192	2.15
C 	56.633028939989494	21.176242185107142	2.15
C 	57.930263489841984	21.75380821827477	2.15
C 	58.07869390768205	23.16602930969772	2.15
C 	59.37592845753454	23.74359534286536	2.15
C 	59.52435887537462	25.155816434288308	2.15
C 	60.82159342522711	25.733382467455943	2.15
C 	60.970023843067175	27.145603558878893	2.15
C 	62.26725839291968	27.723169592046524	2.15
C 	62.41568881075975	29.135390683469474	2.15
C 	63.71292336061224	29.712956716637102	2.15
C 	63.861353778452305	31.12517780806005	2.15
C 	65.15858832830479	31.702743841227697	2.15
C 	65.30701874614486	33.11496493265064	2.15
C 	66.60425329599735	33.69253096581828	2.15
C 	66.75268371383743	35.10475205724123	2.15
C 	68.04991826368992	35.682318090408856	2.15
C 	68.19834868152999	37.094539181831806	2.15
C 	69.49558323138248	37.67210521499945	2.15
C 	69.64401364922256	39.0843263064224	2.15
C 	70.94124819907503	39.661892339590025	2.15
C 	71.0896786169151	41.074113431012975	2.15
C 	72.3869131667676	41.65167946418061	2.15
C 	72.53534358460766	43.06390055560355	2.15
C 	38.28467561350641	-0.4543271603016122	2.15
C 	39.58191016335889	0.12323887286602835	2.15
C 	39.73034058119896	1.5354599642889744	2.15
C 	41.02757513105145	2.1130259974566084	2.15
C 	41.17600554889152	3.5252470888795546	2.15
C 	42.473240098744014	4.102813122047195	2.15
C 	42.62167051658408	5.51503421347014	2.15
C 	43.91890506643658	6.092600246637773	2.15
C 	44.06733548427665	7.50482133806072	2.15
C 	45.364570034129144	8.082387371228359	2.15
C 	45.51300045196921	9.494608462651305	2.15
C 	46.810235001821695	10.072174495818947	2.15
C 	46.95866541966176	11.484395587241893	2.15
C 	48.25589996951426	12.061961620409527	2.15
C 	48.40433038735433	13.474182711832473	2.15
C 	49.701564937206825	14.051748745000111	2.15
C 	49.84999535504689	15.463969836423058	2.15
C 	51.14722990489939	16.0415358695907	2.15
C 	51.29566032273946	17.453756961013646	2.15
C 	52.59289487259195	18.031322994181277	2.15
C 	52.741325290432016	19.443544085604223	2.15
C 	54.038559840284506	20.021110118771865	2.15
C 	54.186990258124574	21.43333121019481	2.15
C 	55.48422480797707	22.01089724336245	2.15
C 	55.63265522581714	23.423118334785396	2.15
C 	56.92988977566962	24.00068436795303	2.15
C 	57.07832019350969	25.412905459375978	2.15
C 	58.375554743362194	25.990471492543616	2.15
C 	58.52398516120226	27.402692583966562	2.15
C 	59.82121971105475	27.9802586171342	2.15
C 	59.96965012889482	29.39247970855715	2.15
C 	61.26688467874731	29.97004574172478	2.15
C 	61.41531509658738	31.382266833147728	2.15
C 	62.71254964643988	31.959832866315356	2.15
C 	62.86098006427995	33.37205395773831	2.15
C 	64.15821461413243	33.94961999090595	2.15
C 	64.30664503197251	35.3618410823289	2.15
C 	65.603879581825	35.93940711549653	2.15
C 	65.75230999966507	37.35162820691948	2.15
C 	67.04954454951756	37.92919424008711	2.15
C 	67.19797496735762	39.341415331510056	2.15
C 	68.49520951721013	39.918981364677705	2.15
C 	68.64363993505019	41.331202456100655	2.15
C 	69.94087448490268	41.90876848926828	2.15
C 	70.08930490274274	43.32098958069123	2.15
C 	71.38653945259524	43.89855561385886	2.15
C 	71.53496987043532	45.31077670528181	2.15
C 	35.83863693164148	-0.19723813521393171	2.15
C 	37.13587148149397	0.38032789795370087	2.15
C 	37.28430189933404	1.7925489893766504	2.15
C 	38.581536449186544	2.370115022544287	2.15
C 	38.72996686702661	3.7823361139672365	2.15
C 	40.027201416879095	4.359902147134867	2.15
C 	40.17563183471916	5.772123238557816	2.15
C 	41.47286638457165	6.349689271725453	2.15
C 	41.62129680241172	7.761910363148403	2.15
C 	42.918531352264225	8.339476396316032	2.15
C 	43.06696177010429	9.751697487738982	2.15
C 	44.36419631995678	10.329263520906618	2.15
C 	44.51262673779685	11.741484612329568	2.15
C 	45.80986128764935	12.319050645497205	2.15
C 	45.958291705489415	13.731271736920155	2.15
C 	47.2555262553419	14.308837770087784	2.15
C 	47.403956673181966	15.721058861510734	2.15
C 	48.70119122303446	16.298624894678372	2.15
C 	48.84962164087453	17.710845986101322	2.15
C 	50.146856190727036	18.288412019268957	2.15
C 	50.2952866085671	19.700633110691907	2.15
C 	51.59252115841959	20.278199143859535	2.15
C 	51.74095157625966	21.690420235282485	2.15
C 	53.038186126112144	22.267986268450123	2.15
C 	53.18661654395221	23.680207359873073	2.15
C 	54.48385109380471	24.25777339304071	2.15
C 	54.632281511644784	25.669994484463658	2.15
C 	55.929516061497274	26.24756051763129	2.15
C 	56.07794647933734	27.65978160905424	2.15
C 	57.37518102918984	28.237347642221874	2.15
C 	57.52361144702991	29.649568733644823	2.15
C 	58.82084599688239	30.227134766812462	2.15
C 	58.96927641472246	31.63935585823541	2.15
C 	60.266510964574955	32.21692189140304	2.15
C 	60.41494138241502	33.62914298282599	2.15
C 	61.71217593226751	34.20670901599362	2.15
C 	61.86060635010759	35.61893010741657	2.15
C 	63.157840899960085	36.196496140584216	2.15
C 	63.30627131780015	37.608717232007166	2.15
C 	64.60350586765264	38.186283265174794	2.15
C 	64.75193628549272	39.59850435659774	2.15
C 	66.0491708353452	40.17607038976537	2.15
C 	66.19760125318527	41.58829148118832	2.15
C 	67.49483580303776	42.16585751435596	2.15
C 	67.64326622087783	43.57807860577891	2.15
C 	68.94050077073032	44.15564463894655	2.15
C 	69.0889311885704	45.5678657303695	2.15
C 	70.3861657384229	46.145431763537125	2.15
C 	33.39259824977657	0.059850889873746996	2.15
C 	34.68983279962906	0.6374169230413804	2.15
C 	34.83826321746913	2.04963801446433	2.15
C 	36.13549776732162	2.627204047631964	2.15
C 	36.283928185161685	4.039425139054914	2.15
C 	37.581162735014175	4.61699117222255	2.15
C 	37.72959315285425	6.0292122636454994	2.15
C 	39.02682770270675	6.606778296813129	2.15
C 	39.175258120546815	8.018999388236079	2.15
C 	40.472492670399305	8.596565421403715	2.15
C 	40.62092308823937	10.008786512826665	2.15
C 	41.918157638091856	10.586352545994295	2.15
C 	42.06658805593192	11.998573637417245	2.15
C 	43.36382260578443	12.576139670584881	2.15
C 	43.512253023624496	13.988360762007831	2.15
C 	44.809487573476986	14.565926795175468	2.15
C 	44.95791799131706	15.978147886598418	2.15
C 	46.25515254116955	16.555713919766045	2.15
C 	46.40358295900962	17.967935011188995	2.15
C 	47.700817508862116	18.545501044356634	2.15
C 	47.84924792670218	19.957722135779584	2.15
C 	49.14648247655467	20.53528816894722	2.15
C 	49.294912894394734	21.94750926037017	2.15
C 	50.59214744424724	22.5250752935378	2.15
C 	50.74057786208731	23.93729638496075	2.15
C 	52.03781241193979	24.514862418128388	2.15
C 	52.186242829779864	25.927083509551334	2.15
C 	53.483477379632355	26.504649542718973	2.15
C 	53.63190779747242	27.916870634141922	2.15
C 	54.92914234732492	28.49443666730955	2.15
C 	55.07757276516499	29.9066577587325	2.15
C 	56.37480731501748	30.48422379190014	2.15
C 	56.523237732857545	31.89644488332309	2.15
C 	57.820472282710035	32.47401091649073	2.15
C 	57.9689027005501	33.88623200791368	2.15
C 	59.26613725040261	34.463798041081304	2.15
C 	59.414567668242675	35.876019132504254	2.15
C 	60.711802218095166	36.45358516567188	2.15
C 	60.86023263593523	37.86580625709483	2.15
C 	62.15746718578772	38.443372290262474	2.15
C 	62.30589760362779	39.85559338168542	2.15
C 	63.60313215348029	40.43315941485306	2.15
C 	63.751562571320356	41.84538050627601	2.15
C 	65.04879712117284	42.422946539443636	2.15
C 	65.19722753901291	43.835167630866586	2.15
C 	66.4944620888654	44.41273366403423	2.15
C 	66.64289250670548	45.82495475545718	2.15
C 	67.94012705655797	46.402520788624805	2.15
C 	30.946559567911645	0.31693991496141644	2.15
C 	32.24379411776414	0.8945059481290565	2.15
C 	32.39222453560421	2.3067270395520025	2.15
C 	33.689459085456704	2.884293072719639	2.15
C 	33.83788950329677	4.296514164142585	2.15
C 	35.13512405314926	4.874080197310223	2.15
C 	35.28355447098933	6.286301288733168	2.15
C 	36.58078902084182	6.863867321900809	2.15
C 	36.72921943868189	8.276088413323755	2.15
C 	38.026453988534385	8.853654446491388	2.15
C 	38.17488440637445	10.265875537914335	2.15
C 	39.47211895622695	10.843441571081975	2.15
C 	39.62054937406702	12.25566266250492	2.15
C 	40.91778392391951	12.833228695672554	2.15
C 	41.066214341759576	14.2454497870955	2.15
C 	42.36344889161206	14.82301582026314	2.15
C 	42.51187930945213	16.235236911686087	2.15
C 	43.80911385930463	16.812802944853726	2.15
C 	43.9575442771447	18.225024036276672	2.15
C 	45.254778826997196	18.802590069444307	2.15
C 	45.403209244837264	20.214811160867253	2.15
C 	46.70044379468976	20.79237719403489	2.15
C 	46.84887421252983	22.204598285457838	2.15
C 	48.14610876238232	22.78216431862548	2.15
C 	48.29453918022239	24.194385410048426	2.15
C 	49.59177373007487	24.771951443216057	2.15
C 	49.74020414791494	26.184172534639004	2.15
C 	51.03743869776744	26.761738567806646	2.15
C 	51.18586911560751	28.173959659229592	2.15
C 	52.48310366546001	28.751525692397227	2.15
C 	52.631534083300075	30.163746783820176	2.15
C 	53.92876863315255	30.741312816987808	2.15
C 	54.07719905099262	32.15353390841076	2.15
C 	55.37443360084512	32.7310999415784	2.15
C 	55.52286401868519	34.14332103300134	2.15
C 	56.82009856853769	34.72088706616898	2.15
C 	56.968528986377756	36.13310815759193	2.15
C 	58.265763536230246	36.71067419075956	2.15
C 	58.41419395407031	38.122895282182505	2.15
C 	59.71142850392282	38.70046131535014	2.15
C 	59.859858921762886	40.11268240677309	2.15
C 	61.15709347161536	40.69024843994073	2.15
C 	61.30552388945543	42.10246953136368	2.15
C 	62.60275843930793	42.68003556453131	2.15
C 	62.751188857147994	44.09225665595426	2.15
C 	64.0484234070005	44.66982268912189	2.15
C 	64.19685382484056	46.082043780544836	2.15
C 	65.49408837469306	46.659609813712486	2.15
C 	28.500520886046726	0.574028940049096	2.15
C 	29.797755435899223	1.151594973216729	2.15
C 	29.946185853739294	2.5638160646396786	2.15
C 	31.24342040359178	3.1413820978073157	2.15
C 	31.39185082143185	4.553603189230265	2.15
C 	32.68908537128434	5.131169222397898	2.15
C 	32.83751578912442	6.543390313820848	2.15
C 	34.1347503389769	7.120956346988482	2.15
C 	34.28318075681697	8.533177438411432	2.15
C 	35.58041530666947	9.110743471579067	2.15
C 	35.72884572450954	10.522964563002017	2.15
C 	37.02608027436202	11.100530596169648	2.15
C 	37.17451069220209	12.512751687592598	2.15
C 	38.47174524205459	13.090317720760233	2.15
C 	38.620175659894656	14.502538812183182	2.15
C 	39.917410209747146	15.080104845350814	2.15
C 	40.065840627587214	16.492325936773764	2.15
C 	41.36307517743971	17.0698919699414	2.15
C 	41.51150559527978	18.48211306136435	2.15
C 	42.80874014513227	19.059679094531987	2.15
C 	42.95717056297234	20.471900185954937	2.15
C 	44.254405112824834	21.049466219122564	2.15
C 	44.4028355306649	22.461687310545514	2.15
C 	45.7000700805174	23.039253343713153	2.15
C 	45.84850049835747	24.451474435136102	2.15
C 	47.14573504820996	25.029040468303737	2.15
C 	47.29416546605003	26.441261559726687	2.15
C 	48.59140001590252	27.018827592894315	2.15
C 	48.73983043374259	28.431048684317265	2.15
C 	50.03706498359508	29.008614717484903	2.15
C 	50.18549540143515	30.420835808907853	2.15
C 	51.482729951287645	30.99840184207549	2.15
C 	51.63116036912771	32.41062293349844	2.15
C 	52.9283949189802	32.98818896666607	2.15
C 	53.07682533682027	34.40041005808902	2.15
C 	54.37405988667277	34.97797609125666	2.15
C 	54.522490304512836	36.39019718267961	2.15
C 	55.819724854365326	36.96776321584724	2.15
C 	55.968155272205394	38.37998430727019	2.15
C 	57.26538982205789	38.95755034043782	2.15
C 	57.41382023989796	40.36977143186077	2.15
C 	58.71105478975045	40.9473374650284	2.15
C 	58.85948520759052	42.35955855645135	2.15
C 	60.156719757443014	42.937124589618996	2.15
C 	60.30515017528308	44.349345681041946	2.15
C 	61.60238472513558	44.926911714209574	2.15
C 	61.75081514297565	46.339132805632524	2.15
C 	63.04804969282813	46.91669883880015	2.15
C 	26.05448220418181	0.8311179651367756	2.15
C 	27.351716754034303	1.4086839983044086	2.15
C 	27.500147171874374	2.820905089727358	2.15
C 	28.797381721726865	3.3984711228949918	2.15
C 	28.945812139566932	4.810692214317942	2.15
C 	30.24304668941943	5.388258247485578	2.15
C 	30.391477107259497	6.800479338908527	2.15
C 	31.688711657111984	7.378045372076161	2.15
C 	31.83714207495205	8.79026646349911	2.15
C 	33.13437662480455	9.367832496666743	2.15
C 	33.28280704264462	10.780053588089693	2.15
C 	34.5800415924971	11.357619621257331	2.15
C 	34.72847201033717	12.76984071268028	2.15
C 	36.025706560189676	13.347406745847909	2.15
C 	36.17413697802974	14.759627837270859	2.15
C 	37.471371527882226	15.337193870438496	2.15
C 	37.6198019457223	16.749414961861447	2.15
C 	38.91703649557479	17.326980995029075	2.15
C 	39.06546691341486	18.739202086452025	2.15
C 	40.362701463267356	19.316768119619663	2.15
C 	40.511131881107424	20.728989211042613	2.15
C 	41.808366430959914	21.306555244210248	2.15
C 	41.95679684879998	22.718776335633198	2.15
C 	43.25403139865247	23.29634236880083	2.15
C 	43.40246181649254	24.70856346022378	2.15
C 	44.69969636634504	25.286129493391414	2.15
C 	44.84812678418511	26.698350584814364	2.15
C 	46.1453613340376	27.275916617982	2.15
C 	46.29379175187767	28.68813770940495	2.15
C 	47.59102630173017	29.26570374257258	2.15
C 	47.739456719570235	30.67792483399553	2.15
C 	49.03669126942272	31.255490867163168	2.15
C 	49.185121687262786	32.66771195858612	2.15
C 	50.48235623711528	33.24527799175375	2.15
C 	50.63078665495535	34.6574990831767	2.15
C 	51.92802120480785	35.23506511634433	2.15
C 	52.076451622647916	36.64728620776728	2.15
C 	53.373686172500406	37.22485224093492	2.15
C 	53.522116590340474	38.637073332357865	2.15
C 	54.819351140192964	39.21463936552551	2.15
C 	54.96778155803303	40.62686045694846	2.15
C 	56.26501610788553	41.204426490116084	2.15
C 	56.4134465257256	42.616647581539034	2.15
C 	57.710681075578094	43.19421361470666	2.15
C 	57.85911149341816	44.60643470612961	2.15
C 	59.15634604327065	45.184000739297254	2.15
C 	22.16277855462433	-0.9015801343661385	2.15
C 	23.460013104476822	-0.32401410119850144	2.15
C 	23.60844352231689	1.0882069902244447	2.15
C 	24.905678072169383	1.665773023392085	2.15
C 	25.054108490009455	3.077994114815031	2.15
C 	26.35134303986195	3.655560147982668	2.15
C 	26.499773457702016	5.067781239405614	2.15
C 	27.79700800755451	5.64534727257325	2.15
C 	27.945438425394578	7.057568363996197	2.15
C 	29.242672975247068	7.635134397163837	2.15
C 	29.391103393087135	9.047355488586783	2.15
C 	30.688337942939633	9.62492152175442	2.15
C 	30.8367683607797	11.037142613177366	2.15
C 	32.13400291063219	11.614708646345003	2.15
C 	32.28243332847226	13.026929737767949	2.15
C 	33.579667878324756	13.60449577093559	2.15
C 	33.72809829616482	15.016716862358535	2.15
C 	35.02533284601731	15.594282895526169	2.15
C 	35.173763263857374	17.006503986949117	2.15
C 	36.47099781370988	17.584070020116755	2.15
C 	36.619428231549946	18.9962911115397	2.15
C 	37.91666278140244	19.573857144707336	2.15
C 	38.065093199242504	20.98607823613028	2.15
C 	39.362327749094995	21.56364426929792	2.15
C 	39.51075816693506	22.975865360720867	2.15
C 	40.80799271678756	23.553431393888506	2.15
C 	40.95642313462763	24.965652485311452	2.15
C 	42.25365768448012	25.543218518479087	2.15
C 	42.402088102320185	26.955439609902033	2.15
C 	43.69932265217268	27.53300564306967	2.15
C 	43.84775307001275	28.945226734492618	2.15
C 	45.14498761986525	29.522792767660256	2.15
C 	45.293418037705315	30.935013859083206	2.15
C 	46.590652587557805	31.512579892250834	2.15
C 	46.73908300539787	32.924800983673784	2.15
C 	48.03631755525037	33.502367016841426	2.15
C 	48.18474797309044	34.91458810826437	2.15
C 	49.481982522942936	35.49215414143201	2.15
C 	49.630412940783	36.90437523285496	2.15
C 	50.927647490635486	37.48194126602259	2.15
C 	51.076077908475554	38.89416235744554	2.15
C 	52.37331245832806	39.47172839061318	2.15
C 	52.521742876168126	40.88394948203612	2.15
C 	53.81897742602061	41.46151551520376	2.15
C 	53.96740784386068	42.87373660662671	2.15
C 	55.264642393713174	43.45130263979434	2.15
C 	55.41307281155324	44.863523731217285	2.15
C 	56.71030736140574	45.44108976438492	2.15
C 	19.716739872759412	-0.6444911092784606	2.15
C 	21.013974422611906	-0.0669250761108254	2.15
C 	21.162404840451973	1.3452960153121225	2.15
C 	22.459639390304467	1.9228620484797572	2.15
C 	22.60806980814454	3.335083139902705	2.15
C 	23.90530435799703	3.912649173070344	2.15
C 	24.053734775837096	5.324870264493292	2.15
C 	25.350969325689594	5.902436297660927	2.15
C 	25.49939974352966	7.314657389083874	2.15
C 	26.79663429338215	7.89222342225151	2.15
C 	26.94506471122222	9.304444513674458	2.15
C 	28.242299261074713	9.882010546842096	2.15
C 	28.39072967891478	11.294231638265044	2.15
C 	29.68796422876727	11.87179767143268	2.15
C 	29.836394646607342	13.284018762855625	2.15
C 	31.13362919645984	13.861584796023262	2.15
C 	31.282059614299907	15.27380588744621	2.15
C 	32.579294164152394	15.851371920613849	2.15
C 	32.72772458199246	17.263593012036797	2.15
C 	34.02495913184496	17.841159045204428	2.15
C 	34.17338954968503	19.253380136627378	2.15
C 	35.47062409953752	19.830946169795013	2.15
C 	35.619054517377585	21.243167261217963	2.15
C 	36.91628906723008	21.820733294385594	2.15
C 	37.06471948507015	23.232954385808544	2.15
C 	38.36195403492264	23.81052041897618	2.15
C 	38.51038445276271	25.22274151039913	2.15
C 	39.8076190026152	25.800307543566767	2.15
C 	39.95604942045527	27.212528634989717	2.15
C 	41.25328397030776	27.790094668157344	2.15
C 	41.40171438814783	29.202315759580294	2.15
C 	42.69894893800033	29.779881792747933	2.15
C 	42.847379355840395	31.192102884170883	2.15
C 	44.144613905692886	31.769668917338517	2.15
C 	44.29304432353295	33.181890008761464	2.15
C 	45.59027887338545	33.7594560419291	2.15
C 	45.73870929122552	35.17167713335205	2.15
C 	47.03594384107801	35.74924316651968	2.15
C 	47.184374258918076	37.16146425794263	2.15
C 	48.481608808770574	37.73903029111027	2.15
C 	48.63003922661064	39.15125138253322	2.15
C 	49.92727377646313	39.72881741570085	2.15
C 	50.0757041943032	41.1410385071238	2.15
C 	51.37293874415569	41.71860454029144	2.15
C 	51.52136916199576	43.13082563171439	2.15
C 	52.818603711848255	43.70839166488202	2.15
C 	52.96703412968832	45.12061275630497	2.15
C 	54.26426867954082	45.6981787894726	2.15
C 	17.270701190894496	-0.3874020841907846	2.15
C 	18.567935740746986	0.19016394897685043	2.15
C 	18.716366158587054	1.6023850403997983	2.15
C 	20.013600708439547	2.1799510735674335	2.15
C 	20.16203112627962	3.592172164990381	2.15
C 	21.459265676132112	4.169738198158016	2.15
C 	21.60769609397218	5.581959289580964	2.15
C 	22.904930643824674	6.159525322748602	2.15
C 	23.05336106166474	7.5717464141715505	2.15
C 	24.35059561151723	8.149312447339186	2.15
C 	24.4990260293573	9.561533538762134	2.15
C 	25.796260579209797	10.139099571929767	2.15
C 	25.944690997049864	11.551320663352715	2.15
C 	27.241925546902355	12.128886696520356	2.15
C 	27.390355964742426	13.5411077879433	2.15
C 	28.68759051459492	14.118673821110937	2.15
C 	28.836020932434987	15.530894912533887	2.15
C 	30.133255482287478	16.10846094570152	2.15
C 	30.281685900127545	17.520682037124466	2.15
C 	31.578920449980043	18.098248070292108	2.15
C 	31.72735086782011	19.510469161715054	2.15
C 	33.0245854176726	20.088035194882686	2.15
C 	33.173015835512665	21.500256286305632	2.15
C 	34.47025038536516	22.077822319473274	2.15
C 	34.61868080320523	23.49004341089622	2.15
C 	35.91591535305772	24.06760944406385	2.15
C 	36.06434577089779	25.479830535486798	2.15
C 	37.361580320750285	26.05739656865444	2.15
C 	37.51001073859035	27.469617660077382	2.15
C 	38.80724528844284	28.047183693245024	2.15
C 	38.95567570628291	29.45940478466797	2.15
C 	40.25291025613541	30.036970817835606	2.15
C 	40.401340673975476	31.44919190925855	2.15
C 	41.69857522382797	32.02675794242619	2.15
C 	41.84700564166804	33.43897903384914	2.15
C 	43.14424019152053	34.01654506701678	2.15
C 	43.2926706093606	35.42876615843972	2.15
C 	44.589905159213096	36.006332191607356	2.15
C 	44.738335577053164	37.4185532830303	2.15
C 	46.035570126905654	37.99611931619794	2.15
C 	46.18400054474572	39.40834040762089	2.15
C 	47.48123509459822	39.98590644078853	2.15
C 	47.62966551243829	41.398127532211475	2.15
C 	48.92690006229078	41.97569356537911	2.15
C 	49.075330480130845	43.38791465680205	2.15
C 	50.37256502998334	43.96548068996969	2.15
C 	50.52099544782341	45.37770178139264	2.15
C 	51.8182299976759	45.95526781456029	2.15
C 	14.824662509029578	-0.1303130591031085	2.15
C 	16.12189705888207	0.44725297406452824	2.15
C 	16.270327476722137	1.8594740654874762	2.15
C 	17.56756202657463	2.4370400986551113	2.15
C 	17.715992444414702	3.849261190078059	2.15
C 	19.013226994267193	4.426827223245694	2.15
C 	19.16165741210726	5.839048314668641	2.15
C 	20.458891961959754	6.416614347836277	2.15
C 	20.60732237979982	7.828835439259224	2.15
C 	21.904556929652315	8.406401472426863	2.15
C 	22.052987347492383	9.81862256384981	2.15
C 	23.35022189734488	10.396188597017446	2.15
C 	23.49865231518495	11.808409688440394	2.15
C 	24.795886865037435	12.385975721608029	2.15
C 	24.944317282877506	13.798196813030977	2.15
C 	26.241551832730003	14.375762846198613	2.15
C 	26.38998225057007	15.787983937621563	2.15
C 	27.68721680042256	16.3655499707892	2.15
C 	27.83564721826263	17.777771062212146	2.15
C 	29.132881768115123	18.35533709537978	2.15
C 	29.28131218595519	19.767558186802727	2.15
C 	30.57854673580768	20.345124219970366	2.15
C 	30.726977153647752	21.757345311393316	2.15
C 	32.02421170350025	22.334911344560943	2.15
C 	32.17264212134032	23.747132435983893	2.15
C 	33.4698766711928	24.32469846915153	2.15
C 	33.61830708903287	25.73691956057448	2.15
C 	34.915541638885365	26.31448559374211	2.15
C 	35.06397205672543	27.72670668516506	2.15
C 	36.36120660657792	28.304272718332697	2.15
C 	36.50963702441799	29.716493809755647	2.15
C 	37.806871574270495	30.294059842923282	2.15
C 	37.95530199211056	31.706280934346232	2.15
C 	39.252536541963046	32.28384696751387	2.15
C 	39.400966959803114	33.69606805893681	2.15
C 	40.69820150965561	34.27363409210445	2.15
C 	40.84663192749568	35.6858551835274	2.15
C 	42.14386647734818	36.263421216695036	2.15
C 	42.29229689518825	37.675642308117986	2.15
C 	43.589531445040734	38.253208341285614	2.15
C 	43.7379618628808	39.665429432708564	2.15
C 	45.03519641273329	40.2429954658762	2.15
C 	45.18362683057336	41.65521655729915	2.15
C 	46.48086138042586	42.23278259046679	2.15
C 	46.629291798265925	43.64500368188974	2.15
C 	47.926526348118415	44.22256971505737	2.15
C 	48.07495676595848	45.63479080648032	2.15
C 	49.37219131581099	46.21235683964795	2.15
C 	12.378623827164658	0.12677596598456778	2.15
C 	13.675858377017152	0.7043419991522043	2.15
C 	13.824288794857221	2.116563090575152	2.15
C 	15.121523344709715	2.694129123742789	2.15
C 	15.269953762549783	4.106350215165737	2.15
C 	16.567188312402276	4.683916248333372	2.15
C 	16.715618730242344	6.09613733975632	2.15
C 	18.012853280094838	6.6737033729239545	2.15
C 	18.161283697934905	8.085924464346903	2.15
C 	19.458518247787396	8.663490497514537	2.15
C 	19.606948665627463	10.075711588937486	2.15
C 	20.904183215479957	10.653277622105124	2.15
C 	21.052613633320025	12.065498713528072	2.15
C 	22.34984818317252	12.643064746695707	2.15
C 	22.49827860101259	14.055285838118653	2.15
C 	23.795513150865084	14.63285187128629	2.15
C 	23.94394356870515	16.045072962709238	2.15
C 	25.24117811855764	16.622638995876876	2.15
C 	25.38960853639771	18.034860087299826	2.15
C 	26.686843086250203	18.61242612046746	2.15
C 	26.83527350409027	20.024647211890404	2.15
C 	28.132508053942765	20.602213245058042	2.15
C 	28.280938471782836	22.014434336480992	2.15
C 	29.578173021635326	22.592000369648627	2.15
C 	29.726603439475394	24.004221461071577	2.15
C 	31.023837989327887	24.581787494239208	2.15
C 	31.172268407167955	25.994008585662158	2.15
C 	32.469502957020445	26.571574618829793	2.15
C 	32.61793337486052	27.983795710252743	2.15
C 	33.91516792471301	28.561361743420374	2.15
C 	34.06359834255308	29.973582834843324	2.15
C 	35.36083289240557	30.55114886801096	2.15
C 	35.509263310245636	31.96336995943391	2.15
C 	36.806497860098126	32.54093599260155	2.15
C 	36.954928277938194	33.9531570840245	2.15
C 	38.2521628277907	34.530723117192125	2.15
C 	38.400593245630766	35.942944208615074	2.15
C 	39.69782779548326	36.52051024178271	2.15
C 	39.84625821332333	37.93273133320566	2.15
C 	41.143492763175814	38.5102973663733	2.15
C 	41.29192318101588	39.92251845779625	2.15
C 	42.589157730868386	40.50008449096388	2.15
C 	42.737588148708454	41.91230558238683	2.15
C 	44.03482269856094	42.48987161555446	2.15
C 	44.183253116401005	43.90209270697741	2.15
C 	45.4804876662535	44.47965874014505	2.15
C 	45.62891808409357	45.891879831568	2.15
C 	46.92615263394607	46.46944586473563	2.15
C 	9.93258514529974	0.3838649910722436	2.15
C 	11.229819695152234	0.9614310242398786	2.15
C 	11.378250112992303	2.3736521156628263	2.15
C 	12.675484662844797	2.9512181488304634	2.15
C 	12.823915080684865	4.3634392402534115	2.15
C 	14.121149630537357	4.941005273421048	2.15
C 	14.269580048377426	6.353226364843995	2.15
C 	15.56681459822992	6.930792398011631	2.15
C 	15.715245016069987	8.343013489434579	2.15
C 	17.01247956592248	8.920579522602214	2.15
C 	17.160909983762547	10.332800614025162	2.15
C 	18.45814453361504	10.910366647192797	2.15
C 	18.60657495145511	12.322587738615745	2.15
C 	19.9038095013076	12.900153771783383	2.15
C 	20.05223991914767	14.31237486320633	2.15
C 	21.349474469000164	14.889940896373966	2.15
C 	21.49790488684023	16.302161987796914	2.15
C 	22.795139436692725	16.87972802096455	2.15
C 	22.943569854532793	18.291949112387496	2.15
C 	24.240804404385287	18.869515145555134	2.15
C 	24.389234822225355	20.28173623697808	2.15
C 	25.686469372077845	20.85930227014572	2.15
C 	25.834899789917916	22.27152336156867	2.15
C 	27.13213433977041	22.8490893947363	2.15
C 	27.280564757610477	24.261310486159246	2.15
C 	28.57779930746297	24.838876519326888	2.15
C 	28.72622972530304	26.251097610749834	2.15
C 	30.02346427515553	26.828663643917466	2.15
C 	30.171894692995597	28.240884735340412	2.15
C 	31.46912924284809	28.818450768508054	2.15
C 	31.61755966068816	30.230671859931	2.15
C 	32.914794210540656	30.808237893098635	2.15
C 	33.06322462838072	32.22045898452158	2.15
C 	34.360459178233214	32.79802501768921	2.15
C 	34.50888959607328	34.21024610911216	2.15
C 	35.80612414592577	34.78781214227981	2.15
C 	35.95455456376584	36.200033233702754	2.15
C 	37.25178911361834	36.77759926687039	2.15
C 	37.400219531458404	38.18982035829333	2.15
C 	38.6974540813109	38.76738639146097	2.15
C 	38.84588449915097	40.17960748288392	2.15
C 	40.14311904900347	40.75717351605156	2.15
C 	40.291549466843534	42.1693946074745	2.15
C 	41.58878401669602	42.746960640642136	2.15
C 	41.737214434536085	44.15918173206508	2.15
C 	43.03444898438858	44.73674776523272	2.15
C 	43.18287940222865	46.14896885665567	2.15
C 	44.48011395208115	46.72653488982331	2.15
C 	7.4865464634348236	0.6409540161599196	2.15
C 	8.783781013287316	1.2185200493275556	2.15
C 	8.932211431127385	2.6307411407505032	2.15
C 	10.229445980979877	3.2083071739181386	2.15
C 	10.377876398819945	4.620528265341086	2.15
C 	11.67511094867244	5.198094298508723	2.15
C 	11.82354136651251	6.610315389931671	2.15
C 	13.120775916365002	7.187881423099307	2.15
C 	13.26920633420507	8.600102514522256	2.15
C 	14.566440884057561	9.17766854768989	2.15
C 	14.71487130189763	10.589889639112839	2.15
C 	16.012105851750125	11.167455672280472	2.15
C 	16.160536269590192	12.579676763703421	2.15
C 	17.457770819442683	13.157242796871055	2.15
C 	17.606201237282754	14.569463888294004	2.15
C 	18.903435787135248	15.147029921461641	2.15
C 	19.051866204975315	16.55925101288459	2.15
C 	20.349100754827806	17.136817046052226	2.15
C 	20.497531172667873	18.549038137475176	2.15
C 	21.794765722520367	19.126604170642807	2.15
C 	21.943196140360435	20.538825262065757	2.15
C 	23.24043069021293	21.116391295233395	2.15
C 	23.388861108053	22.528612386656345	2.15
C 	24.686095657905494	23.106178419823976	2.15
C 	24.83452607574556	24.518399511246926	2.15
C 	26.13176062559805	25.09596554441456	2.15
C 	26.28019104343812	26.50818663583751	2.15
C 	27.577425593290613	27.085752669005146	2.15
C 	27.72585601113068	28.497973760428096	2.15
C 	29.023090560983174	29.075539793595727	2.15
C 	29.171520978823242	30.487760885018677	2.15
C 	30.468755528675732	31.06532691818631	2.15
C 	30.617185946515804	32.477548009609265	2.15
C 	31.914420496368294	33.05511404277689	2.15
C 	32.06285091420836	34.46733513419984	2.15
C 	33.36008546406086	35.04490116736748	2.15
C 	33.50851588190093	36.45712225879043	2.15
C 	34.80575043175342	37.03468829195806	2.15
C 	34.954180849593484	38.44690938338101	2.15
C 	36.25141539944598	39.02447541654865	2.15
C 	36.39984581728605	40.43669650797159	2.15
C 	37.69708036713855	41.01426254113923	2.15
C 	37.845510784978615	42.42648363256218	2.15
C 	39.142745334831105	43.004049665729816	2.15
C 	39.29117575267117	44.416270757152766	2.15
C 	40.58841030252367	44.993836790320394	2.15
C 	5.040507781569905	0.8980430412475957	2.15
C 	6.337742331422398	1.4756090744152317	2.15
C 	6.486172749262466	2.8878301658381793	2.15
C 	7.78340729911496	3.4653961990058155	2.15
C 	7.931837716955028	4.877617290428764	2.15
C 	9.22907226680752	5.4551833235963985	2.15
C 	9.377502684647588	6.867404415019346	2.15
C 	10.674737234500082	7.444970448186983	2.15
C 	10.82316765234015	8.85719153960993	2.15
C 	12.120402202192643	9.434757572777567	2.15
C 	12.268832620032711	10.846978664200515	2.15
C 	13.566067169885205	11.42454469736815	2.15
C 	13.714497587725273	12.836765788791098	2.15
C 	15.011732137577765	13.414331821958733	2.15
C 	15.160162555417832	14.826552913381681	2.15
C 	16.457397105270328	15.404118946549318	2.15
C 	16.605827523110396	16.816340037972264	2.15
C 	17.903062072962886	17.393906071139906	2.15
C 	18.051492490802957	18.806127162562852	2.15
C 	19.34872704065545	19.383693195730483	2.15
C 	19.49715745849552	20.795914287153433	2.15
C 	20.79439200834801	21.373480320321068	2.15
C 	20.942822426188076	22.785701411744014	2.15
C 	22.240056976040574	23.363267444911656	2.15
C 	22.38848739388064	24.775488536334603	2.15
C 	23.685721943733135	25.353054569502234	2.15
C 	23.834152361573203	26.765275660925184	2.15
C 	25.131386911425697	27.342841694092822	2.15
C 	25.279817329265764	28.75506278551577	2.15
C 	26.577051879118255	29.332628818683407	2.15
C 	26.725482296958322	30.744849910106357	2.15
C 	28.022716846810816	31.322415943273988	2.15
C 	28.171147264650887	32.73463703469694	2.15
C 	29.46838181450338	33.31220306786457	2.15
C 	29.61681223234345	34.724424159287516	2.15
C 	30.91404678219594	35.30199019245515	2.15
C 	31.062477200036007	36.71421128387809	2.15
C 	32.359711749888504	37.29177731704574	2.15
C 	32.50814216772857	38.70399840846869	2.15
C 	33.80537671758106	39.28156444163633	2.15
C 	33.95380713542113	40.69378553305927	2.15
C 	35.25104168527362	41.271351566226905	2.15
C 	35.39947210311369	42.68357265764985	2.15
C 	36.696706652966185	43.26113869081749	2.15
C 	36.84513707080625	44.67335978224044	2.15
C 	38.14237162065875	45.25092581540808	2.15
C 	2.446038681864918	-0.25708902508767606	2.15
C 	2.594469099704986	1.1551320663352718	2.15
C 	3.89170364955748	1.7326980995029078	2.15
C 	4.040134067397548	3.1449191909258554	2.15
C 	5.337368617250041	3.7224852240934916	2.15
C 	5.485799035090109	5.134706315516439	2.15
C 	6.7830335849426024	5.712272348684075	2.15
C 	6.93146400278267	7.124493440107023	2.15
C 	8.228698552635164	7.702059473274659	2.15
C 	8.377128970475232	9.114280564697605	2.15
C 	9.674363520327725	9.691846597865242	2.15
C 	9.822793938167793	11.104067689288192	2.15
C 	11.120028488020287	11.681633722455828	2.15
C 	11.268458905860355	13.093854813878774	2.15
C 	12.565693455712848	13.671420847046411	2.15
C 	12.714123873552916	15.083641938469357	2.15
C 	14.011358423405408	15.661207971636994	2.15
C 	14.159788841245478	17.07342906305994	2.15
C 	15.45702339109797	17.650995096227575	2.15
C 	15.605453808938037	19.06321618765052	2.15
C 	16.90268835879053	19.640782220818163	2.15
C 	17.0511187766306	21.05300331224111	2.15
C 	18.348353326483092	21.630569345408745	2.15
C 	18.49678374432316	23.04279043683169	2.15
C 	19.794018294175658	23.62035646999933	2.15
C 	19.942448712015725	25.032577561422276	2.15
C 	21.239683261868215	25.610143594589914	2.15
C 	21.388113679708283	27.02236468601286	2.15
C 	22.685348229560777	27.5999307191805	2.15
C 	22.833778647400845	29.012151810603445	2.15
C 	24.13101319725334	29.58971784377108	2.15
C 	24.279443615093406	31.001938935194026	2.15
C 	25.5766781649459	31.579504968361665	2.15
C 	25.72510858278597	32.99172605978461	2.15
C 	27.022343132638458	33.569292092952246	2.15
C 	27.17077355047853	34.981513184375196	2.15
C 	28.468008100331023	35.55907921754283	2.15
C 	28.61643851817109	36.97130030896578	2.15
C 	29.913673068023584	37.54886634213341	2.15
C 	30.062103485863652	38.96108743355636	2.15
C 	31.359338035716142	39.53865346672399	2.15
C 	31.50776845355621	40.95087455814694	2.15
C 	32.80500300340871	41.528440591314585	2.15
C 	32.953433421248775	42.940661682737534	2.15
C 	34.250667971101265	43.51822771590516	2.15
C 	34.39909838894133	44.93044880732811	2.15
C 	35.69633293879383	45.50801484049575	2.15
C 	1.4456649676925613	1.9897871245905838	2.15
C 	1.5940953855326296	3.4020082160135314	2.15
C 	2.8913299353851225	3.9795742491811676	2.15
C 	3.0397603532251907	5.391795340604116	2.15
C 	4.336994903077684	5.9693613737717515	2.15
C 	4.485425320917753	7.381582465194699	2.15
C 	5.782659870770245	7.959148498362335	2.15
C 	5.931090288610314	9.371369589785283	2.15
C 	7.2283248384628065	9.948935622952918	2.15
C 	7.376755256302875	11.361156714375866	2.15
C 	8.673989806155369	11.938722747543503	2.15
C 	8.822420223995437	13.350943838966451	2.15
C 	10.11965477384793	13.928509872134088	2.15
C 	10.268085191687998	15.340730963557034	2.15
C 	11.56531974154049	15.91829699672467	2.15
C 	11.71375015938056	17.33051808814762	2.15
C 	13.010984709233053	17.90808412131525	2.15
C 	13.159415127073121	19.320305212738198	2.15
C 	14.456649676925613	19.897871245905836	2.15
C 	14.60508009476568	21.310092337328786	2.15
C 	15.902314644618174	21.88765837049642	2.15
C 	16.050745062458244	23.29987946191937	2.15
C 	17.347979612310738	23.877445495087006	2.15
C 	17.496410030150805	25.289666586509952	2.15
C 	18.7936445800033	25.867232619677587	2.15
C 	18.942074997843367	27.279453711100537	2.15
C 	20.23930954769586	27.857019744268175	2.15
C 	20.38773996553593	29.269240835691125	2.15
C 	21.68497451538842	29.846806868858756	2.15
C 	21.833404933228486	31.259027960281703	2.15
C 	23.13063948308098	31.83659399344934	2.15
C 	23.27906990092105	33.24881508487229	2.15
C 	24.576304450773545	33.826381118039926	2.15
C 	24.724734868613613	35.238602209462876	2.15
C 	26.021969418466107	35.8161682426305	2.15
C 	26.170399836306174	37.22838933405345	2.15
C 	27.467634386158664	37.805955367221095	2.15
C 	27.616064803998732	39.218176458644045	2.15
C 	28.913299353851226	39.79574249181167	2.15
C 	29.061729771691294	41.20796358323462	2.15
C 	30.358964321543787	41.78552961640226	2.15
C 	30.50739473938386	43.19775070782521	2.15
C 	31.80462928923635	43.77531674099284	2.15
C 	31.953059707076417	45.18753783241579	2.15
C 	33.25029425692891	45.76510386558343	2.15
C 	12.010610995060695	20.154960270993513	2.15
C 	12.159041412900763	21.567181362416463	2.15
C 	13.456275962753256	22.144747395584094	2.15
C 	13.604706380593326	23.556968487007044	2.15
C 	14.901940930445818	24.134534520174682	2.15
C 	15.050371348285886	25.546755611597632	2.15
C 	16.34760589813838	26.124321644765264	2.15
C 	16.496036315978447	27.536542736188213	2.15
C 	17.79327086583094	28.11410876935585	2.15
C 	17.941701283671012	29.526329860778795	2.15
C 	19.238935833523502	30.103895893946433	2.15
C 	19.38736625136357	31.51611698536938	2.15
C 	20.684600801216064	32.093683018537014	2.15
C 	20.833031219056135	33.505904109959964	2.15
C 	22.130265768908625	34.0834701431276	2.15
C 	22.278696186748693	35.49569123455054	2.15
C 	23.575930736601187	36.07325726771819	2.15
C 	23.724361154441254	37.48547835914113	2.15
C 	25.02159570429375	38.06304439230877	2.15
C 	25.170026122133816	39.47526548373171	2.15
C 	26.46726067198631	40.05283151689935	2.15
C 	26.615691089826377	41.465052608322296	2.15
C 	27.912925639678868	42.04261864148993	2.15
C 	28.061356057518935	43.45483973291287	2.15
C 	29.358590607371433	44.03240576608052	2.15
C 	29.5070210252115	45.444626857503465	2.15
C 	30.804255575063994	46.02219289067111	2.15
C 	22.57555702242883	38.32013341739644	2.15
C 	22.723987440268896	39.73235450881939	2.15
C 	24.02122199012139	40.309920541987026	2.15
C 	24.169652407961458	41.722141633409976	2.15
C 	25.46688695781395	42.29970766657761	2.15
C 	25.615317375654023	43.71192875800056	2.15
C 	26.912551925506513	44.28949479116819	2.15
C 	27.060982343346584	45.70171588259114	2.15
C 	28.358216893199074	46.27928191575877	2.15
H 	51.84659796556181	-0.8340140271008167	2.15
H 	54.13959706424474	0.186894947019433	2.15
H 	55.5852620319373	2.1766820716100175	2.15
H 	57.03092699962986	4.166469196200605	2.15
H 	58.47659196732242	6.156256320791185	2.15
H 	59.92225693501498	8.14604344538177	2.15
H 	61.36792190270755	10.135830569972363	2.15
H 	62.81358687040009	12.125617694562928	2.15
H 	64.25925183809265	14.115404819153524	2.15
H 	64.52161828089447	16.6116547765279	2.15
H 	49.400559283696886	-0.5769250020131463	2.15
H 	64.70454309161286	18.35206809342236	2.15
H 	66.15020805930543	20.341855218012945	2.15
H 	67.59587302699799	22.331642342603523	2.15
H 	69.04153799469056	24.32142946719413	2.15
H 	70.48720296238312	26.311216591784696	2.15
H 	71.93286793007567	28.30100371637528	2.15
H 	73.37853289776824	30.290790840965865	2.15
H 	73.64089934057006	32.78704079834023	2.15
H 	46.95452060183195	-0.3198359769254696	2.15
H 	73.82382415128845	34.52745411523471	2.15
H 	75.26948911898099	36.517241239825275	2.15
H 	75.53185556178282	39.01349119719966	2.15
H 	43.0628169522745	-2.0525340764283824	2.15
H 	45.35581605095742	-1.0316251023081273	2.15
H 	74.53148184761046	41.26036734687792	2.15
H 	40.61677827040957	-1.7954450513406979	2.15
H 	73.5311081334381	43.507243496556185	2.15
H 	38.170739588544684	-1.538356026253032	2.15
H 	72.53073441926576	45.754119646234436	2.15
H 	35.72470090667974	-1.2812670011653502	2.15
H 	70.50010176338465	47.22946062948854	2.15
H 	33.27866222481483	-1.0241779760776712	2.15
H 	68.05406308151971	47.48654965457622	2.15
H 	30.832623542949904	-0.7670889509900014	2.15
H 	65.60802439965481	47.7436386796639	2.15
H 	28.386584861084977	-0.5099999259023215	2.15
H 	60.86898661910696	46.97981873063133	2.15
H 	63.161985717789854	48.00072770475157	2.15
H 	25.940546179220068	-0.2529109008146423	2.15
H 	59.27028206823239	46.26802960524867	2.15
H 	22.048842529662593	-1.985609000317557	2.15
H 	24.341841628345513	-0.9647000261972967	2.15
H 	56.824243386367485	46.52511863033634	2.15
H 	19.60280384779767	-1.7285199752298788	2.15
H 	54.378204704502565	46.78220765542402	2.15
H 	17.156765165932754	-1.4714309501422025	2.15
H 	51.932166022637645	47.039296680511704	2.15
H 	14.710726484067838	-1.2143419250545269	2.15
H 	49.48612734077275	47.29638570559937	2.15
H 	12.264687802202912	-0.9572528999668499	2.15
H 	47.04008865890783	47.55347473068705	2.15
H 	9.818649120337998	-0.7001638748791743	2.15
H 	42.30105087835995	46.78965478165446	2.15
H 	44.59404997704289	47.81056375577473	2.15
H 	7.372610438473082	-0.44307484979149825	2.15
H 	40.702346327485415	46.07786565627181	2.15
H 	4.926571756608161	-0.1859858247038222	2.15
H 	38.256307645620495	46.3349546813595	2.15
H 	35.810268963755576	46.592043706447164	2.15
H 	0.44990041886212584	1.5464441836379625	2.15
H 	0.7122668616639369	4.042694141012327	2.15
H 	2.1579318293564977	6.032481265602911	2.15
H 	3.60359679704906	8.022268390193494	2.15
H 	5.049261764741621	10.012055514784079	2.15
H 	6.494926732434182	12.001842639374662	2.15
H 	7.940591700126744	13.991629763965246	2.15
H 	9.386256667819307	15.981416888555831	2.15
H 	10.831921635511872	17.971204013146423	2.15
H 	33.364230281890656	46.849132731534844	2.15
H 	11.01484644623026	19.71161733004089	2.15
H 	11.277212889032073	22.20786728741526	2.15
H 	12.722877856724635	24.197654412005843	2.15
H 	14.168542824417196	26.18744153659643	2.15
H 	15.614207792109756	28.177228661187012	2.15
H 	17.059872759802317	30.16701578577759	2.15
H 	18.505537727494875	32.15680291036817	2.15
H 	19.95120269518744	34.146590034958756	2.15
H 	21.396867662879995	36.136377159549326	2.15
H 	30.918191600025736	47.106221756622524	2.15
H 	21.579792473598395	37.876790476443816	2.15
H 	21.8421589164002	40.37304043381818	2.15
H 	23.287823884092766	42.362827558408775	2.15
H 	24.733488851785335	44.352614682999366	2.15
H 	26.17915381947789	46.34240180758993	2.15
H 	28.472152918160816	47.36331078171019	2.15
