2362

C 	0.0	0.0	0.0
C 	1.2297560733739028	0.7099999999999999	0.0
C 	2.4595121467478056	-2.3647750424515833e-16	0.0
C 	3.689268220121708	0.7099999999999995	0.0
C 	4.919024293495611	-4.729550084903167e-16	0.0
C 	6.148780366869514	0.7099999999999993	0.0
C 	7.378536440243416	-7.09432512735475e-16	0.0
C 	8.60829251361732	0.7099999999999991	0.0
C 	9.838048586991222	-9.459100169806333e-16	0.0
C 	11.067804660365125	0.7099999999999989	0.0
C 	12.297560733739026	-1.1823875212257916e-15	0.0
C 	13.527316807112928	0.7099999999999986	0.0
C 	14.757072880486833	-1.41886502547095e-15	0.0
C 	15.986828953860735	0.7099999999999984	0.0
C 	17.21658502723464	-7.671641100159832e-16	0.0
C 	18.44634110060854	0.7099999999999982	0.0
C 	19.676097173982445	-1.8918200339612667e-15	0.0
C 	20.905853247356347	0.7099999999999989	0.0
C 	22.135609320730246	-2.128297538206425e-15	0.0
C 	23.36536539410415	0.7099999999999967	0.0
C 	24.59512146747805	-2.364775042451583e-15	0.0
C 	25.824877540851954	0.7099999999999983	0.0
C 	27.05463361422586	-8.248957072964913e-16	0.0
C 	28.284389687599763	0.7099999999999999	0.0
C 	29.514145760973665	-2.8377300509419e-15	0.0
C 	30.743901834347565	0.7099999999999961	0.0
C 	31.97365790772147	-3.0742075551870582e-15	0.0
C 	33.20341398109537	0.7099999999999976	0.0
C 	34.43317005446928	-1.5343282200319664e-15	0.0
C 	35.66292612784318	0.7099999999999992	0.0
C 	36.892682201217085	-1.7708057242771246e-15	0.0
C 	38.122438274590984	0.7099999999999972	0.0
C 	39.35219434796489	-3.783640067922533e-15	0.0
C 	40.58195042133879	0.7099999999999969	0.0
C 	41.811706494712695	-4.67403893367191e-16	0.0
C 	43.0414625680866	0.7100000000000002	0.0
C 	44.27121864146049	-4.25659507641285e-15	0.0
C 	45.5009747148344	0.7099999999999964	0.0
C 	46.730730788208305	-9.403589018575075e-16	0.0
C 	47.96048686158221	0.7099999999999997	0.0
C 	49.1902429349561	-4.729550084903166e-15	0.0
C 	50.41999900833001	0.709999999999996	0.0
C 	51.64975508170391	-1.413313910347824e-15	0.0
C 	52.879511155077815	0.7099999999999993	0.0
C 	54.10926722845172	-1.6497914145929826e-15	0.0
C 	55.33902330182562	0.7099999999999991	0.0
C 	56.56877937519952	-5.438982597638641e-15	0.0
C 	57.798535448573425	0.7099999999999953	0.0
C 	59.02829152194733	-5.6754601018838e-15	0.0
C 	60.25804759532124	0.709999999999995	0.0
C 	1.2297560733739028	2.1299999999999994	0.0
C 	2.4595121467478056	2.8399999999999994	0.0
C 	3.689268220121708	2.1299999999999994	0.0
C 	4.919024293495611	2.8399999999999994	0.0
C 	6.148780366869514	2.129999999999999	0.0
C 	7.378536440243416	2.839999999999999	0.0
C 	8.60829251361732	2.1299999999999986	0.0
C 	9.838048586991222	2.8399999999999985	0.0
C 	11.067804660365123	2.129999999999998	0.0
C 	12.297560733739028	2.839999999999999	0.0
C 	13.527316807112928	2.1299999999999977	0.0
C 	14.757072880486833	2.839999999999998	0.0
C 	15.986828953860735	2.129999999999998	0.0
C 	17.216585027234636	2.839999999999997	0.0
C 	18.446341100608542	2.129999999999998	0.0
C 	19.676097173982445	2.8399999999999985	0.0
C 	20.905853247356344	2.1299999999999977	0.0
C 	22.13560932073025	2.8399999999999985	0.0
C 	23.36536539410415	2.129999999999997	0.0
C 	24.595121467478055	2.839999999999997	0.0
C 	25.824877540851954	2.1299999999999963	0.0
C 	27.05463361422586	2.839999999999997	0.0
C 	28.284389687599763	2.129999999999998	0.0
C 	29.514145760973665	2.8399999999999985	0.0
C 	30.743901834347568	2.129999999999996	0.0
C 	31.97365790772147	2.8399999999999967	0.0
C 	33.20341398109537	2.129999999999996	0.0
C 	34.43317005446928	2.8399999999999963	0.0
C 	35.66292612784318	2.1299999999999972	0.0
C 	36.89268220121708	2.8399999999999963	0.0
C 	38.122438274590984	2.129999999999997	0.0
C 	39.35219434796489	2.8399999999999976	0.0
C 	40.58195042133879	2.1299999999999986	0.0
C 	41.81170649471269	2.839999999999996	0.0
C 	43.0414625680866	2.129999999999998	0.0
C 	44.2712186414605	2.8399999999999954	0.0
C 	45.5009747148344	2.129999999999998	0.0
C 	46.7307307882083	2.8399999999999954	0.0
C 	47.96048686158221	2.1299999999999977	0.0
C 	49.19024293495611	2.839999999999995	0.0
C 	50.41999900833001	2.1299999999999977	0.0
C 	51.64975508170391	2.8399999999999945	0.0
C 	52.879511155077815	2.1299999999999972	0.0
C 	54.10926722845171	2.8399999999999945	0.0
C 	55.33902330182563	2.130000000000001	0.0
C 	56.56877937519952	2.8399999999999976	0.0
C 	57.798535448573425	2.129999999999997	0.0
C 	59.028291521947324	2.839999999999994	0.0
C 	60.25804759532124	2.129999999999997	0.0
C 	61.487803668695136	2.8399999999999936	0.0
C 	2.4595121467478056	4.259999999999999	0.0
C 	3.689268220121708	4.969999999999999	0.0
C 	4.919024293495611	4.259999999999999	0.0
C 	6.148780366869514	4.969999999999999	0.0
C 	7.378536440243416	4.259999999999999	0.0
C 	8.60829251361732	4.969999999999999	0.0
C 	9.83804858699122	4.259999999999998	0.0
C 	11.067804660365125	4.969999999999999	0.0
C 	12.297560733739028	4.259999999999998	0.0
C 	13.52731680711293	4.969999999999998	0.0
C 	14.757072880486831	4.259999999999998	0.0
C 	15.986828953860735	4.969999999999998	0.0
C 	17.21658502723464	4.259999999999997	0.0
C 	18.446341100608542	4.969999999999998	0.0
C 	19.676097173982445	4.259999999999999	0.0
C 	20.905853247356347	4.969999999999997	0.0
C 	22.135609320730246	4.259999999999996	0.0
C 	23.365365394104153	4.969999999999997	0.0
C 	24.595121467478055	4.259999999999998	0.0
C 	25.824877540851958	4.969999999999997	0.0
C 	27.054633614225857	4.259999999999995	0.0
C 	28.28438968759976	4.969999999999996	0.0
C 	29.514145760973665	4.259999999999997	0.0
C 	30.743901834347568	4.969999999999997	0.0
C 	31.97365790772147	4.259999999999996	0.0
C 	33.20341398109537	4.969999999999995	0.0
C 	34.43317005446927	4.2599999999999945	0.0
C 	35.66292612784318	4.969999999999995	0.0
C 	36.892682201217085	4.259999999999996	0.0
C 	38.122438274590984	4.969999999999997	0.0
C 	39.35219434796489	4.259999999999997	0.0
C 	40.58195042133879	4.969999999999994	0.0
C 	41.81170649471269	4.259999999999995	0.0
C 	43.041462568086594	4.969999999999996	0.0
C 	44.2712186414605	4.259999999999997	0.0
C 	45.500974714834406	4.969999999999998	0.0
C 	46.7307307882083	4.259999999999994	0.0
C 	47.960486861582204	4.9699999999999935	0.0
C 	49.19024293495611	4.259999999999996	0.0
C 	50.41999900833001	4.969999999999997	0.0
C 	51.64975508170391	4.259999999999993	0.0
C 	52.879511155077815	4.9699999999999935	0.0
C 	54.10926722845171	4.259999999999996	0.0
C 	55.33902330182562	4.969999999999997	0.0
C 	56.568779375199526	4.259999999999996	0.0
C 	57.798535448573425	4.969999999999996	0.0
C 	59.028291521947324	4.259999999999995	0.0
C 	60.25804759532123	4.969999999999996	0.0
C 	61.487803668695136	4.259999999999992	0.0
C 	62.717559742069035	4.969999999999993	0.0
C 	3.6892682201217086	6.389999999999999	0.0
C 	4.919024293495611	7.099999999999999	0.0
C 	6.148780366869514	6.389999999999999	0.0
C 	7.378536440243416	7.099999999999999	0.0
C 	8.608292513617318	6.389999999999998	0.0
C 	9.838048586991222	7.099999999999999	0.0
C 	11.067804660365125	6.389999999999998	0.0
C 	12.297560733739028	7.099999999999998	0.0
C 	13.52731680711293	6.389999999999999	0.0
C 	14.757072880486833	7.099999999999998	0.0
C 	15.986828953860735	6.389999999999998	0.0
C 	17.216585027234636	7.099999999999997	0.0
C 	18.44634110060854	6.389999999999997	0.0
C 	19.676097173982445	7.099999999999998	0.0
C 	20.905853247356347	6.389999999999998	0.0
C 	22.13560932073025	7.099999999999997	0.0
C 	23.365365394104153	6.389999999999998	0.0
C 	24.59512146747805	7.099999999999997	0.0
C 	25.824877540851958	6.389999999999998	0.0
C 	27.054633614225857	7.099999999999997	0.0
C 	28.28438968759976	6.389999999999999	0.0
C 	29.514145760973662	7.099999999999997	0.0
C 	30.743901834347568	6.389999999999999	0.0
C 	31.97365790772147	7.099999999999998	0.0
C 	33.20341398109537	6.389999999999995	0.0
C 	34.43317005446928	7.099999999999994	0.0
C 	35.66292612784318	6.389999999999995	0.0
C 	36.892682201217085	7.099999999999996	0.0
C 	38.122438274590984	6.389999999999996	0.0
C 	39.35219434796489	7.099999999999997	0.0
C 	40.58195042133879	6.389999999999994	0.0
C 	41.811706494712695	7.099999999999995	0.0
C 	43.041462568086594	6.389999999999996	0.0
C 	44.2712186414605	7.099999999999997	0.0
C 	45.500974714834406	6.389999999999998	0.0
C 	46.730730788208305	7.099999999999998	0.0
C 	47.960486861582204	6.389999999999995	0.0
C 	49.19024293495611	7.099999999999996	0.0
C 	50.41999900833001	6.389999999999995	0.0
C 	51.649755081703915	7.099999999999996	0.0
C 	52.879511155077815	6.389999999999995	0.0
C 	54.10926722845172	7.099999999999996	0.0
C 	55.33902330182562	6.389999999999995	0.0
C 	56.568779375199526	7.099999999999995	0.0
C 	57.79853544857343	6.389999999999998	0.0
C 	59.02829152194733	7.099999999999999	0.0
C 	60.25804759532123	6.389999999999994	0.0
C 	61.487803668695136	7.099999999999995	0.0
C 	62.71755974206904	6.389999999999994	0.0
C 	63.94731581544294	7.099999999999995	0.0
C 	4.919024293495611	8.519999999999998	0.0
C 	6.148780366869514	9.229999999999999	0.0
C 	7.378536440243416	8.519999999999998	0.0
C 	8.60829251361732	9.229999999999999	0.0
C 	9.838048586991222	8.519999999999998	0.0
C 	11.067804660365125	9.229999999999999	0.0
C 	12.297560733739028	8.519999999999998	0.0
C 	13.52731680711293	9.229999999999997	0.0
C 	14.757072880486833	8.519999999999998	0.0
C 	15.986828953860737	9.229999999999999	0.0
C 	17.216585027234636	8.519999999999998	0.0
C 	18.44634110060854	9.229999999999997	0.0
C 	19.67609717398244	8.519999999999996	0.0
C 	20.905853247356347	9.229999999999997	0.0
C 	22.13560932073025	8.519999999999998	0.0
C 	23.365365394104153	9.229999999999999	0.0
C 	24.595121467478055	8.519999999999996	0.0
C 	25.824877540851954	9.229999999999995	0.0
C 	27.05463361422586	8.519999999999996	0.0
C 	28.284389687599763	9.229999999999997	0.0
C 	29.514145760973662	8.519999999999996	0.0
C 	30.743901834347565	9.229999999999995	0.0
C 	31.97365790772147	8.52	0.0
C 	33.20341398109537	9.229999999999997	0.0
C 	34.43317005446928	8.519999999999994	0.0
C 	35.66292612784318	9.229999999999995	0.0
C 	36.89268220121708	8.519999999999992	0.0
C 	38.122438274590984	9.229999999999993	0.0
C 	39.35219434796489	8.519999999999998	0.0
C 	40.58195042133879	9.229999999999995	0.0
C 	41.811706494712695	8.519999999999994	0.0
C 	43.0414625680866	9.229999999999995	0.0
C 	44.27121864146049	8.519999999999992	0.0
C 	45.5009747148344	9.229999999999993	0.0
C 	46.730730788208305	8.519999999999998	0.0
C 	47.960486861582204	9.229999999999995	0.0
C 	49.19024293495611	8.519999999999996	0.0
C 	50.41999900833001	9.229999999999993	0.0
C 	51.64975508170391	8.519999999999994	0.0
C 	52.879511155077815	9.229999999999995	0.0
C 	54.10926722845171	8.51999999999999	0.0
C 	55.33902330182562	9.229999999999992	0.0
C 	56.568779375199526	8.519999999999998	0.0
C 	57.798535448573425	9.229999999999995	0.0
C 	59.02829152194733	8.519999999999994	0.0
C 	60.25804759532123	9.229999999999993	0.0
C 	61.48780366869513	8.519999999999992	0.0
C 	62.717559742069035	9.229999999999993	0.0
C 	63.94731581544294	8.519999999999992	0.0
C 	65.17707188881684	9.22999999999999	0.0
C 	6.148780366869514	10.649999999999997	0.0
C 	7.378536440243416	11.359999999999998	0.0
C 	8.608292513617318	10.649999999999997	0.0
C 	9.838048586991222	11.359999999999998	0.0
C 	11.067804660365125	10.649999999999997	0.0
C 	12.297560733739028	11.359999999999996	0.0
C 	13.52731680711293	10.649999999999997	0.0
C 	14.757072880486831	11.359999999999996	0.0
C 	15.986828953860735	10.649999999999997	0.0
C 	17.216585027234636	11.359999999999996	0.0
C 	18.44634110060854	10.649999999999997	0.0
C 	19.676097173982445	11.359999999999998	0.0
C 	20.905853247356347	10.649999999999997	0.0
C 	22.13560932073025	11.359999999999996	0.0
C 	23.365365394104153	10.649999999999997	0.0
C 	24.595121467478055	11.359999999999996	0.0
C 	25.824877540851958	10.649999999999997	0.0
C 	27.05463361422586	11.359999999999996	0.0
C 	28.284389687599763	10.649999999999995	0.0
C 	29.514145760973662	11.359999999999994	0.0
C 	30.743901834347565	10.649999999999995	0.0
C 	31.97365790772147	11.359999999999996	0.0
C 	33.20341398109537	10.649999999999997	0.0
C 	34.43317005446928	11.359999999999998	0.0
C 	35.66292612784318	10.649999999999991	0.0
C 	36.89268220121708	11.359999999999992	0.0
C 	38.122438274590984	10.649999999999993	0.0
C 	39.35219434796489	11.359999999999994	0.0
C 	40.58195042133879	10.649999999999993	0.0
C 	41.811706494712695	11.359999999999994	0.0
C 	43.041462568086594	10.649999999999991	0.0
C 	44.2712186414605	11.359999999999992	0.0
C 	45.5009747148344	10.649999999999993	0.0
C 	46.730730788208305	11.359999999999994	0.0
C 	47.960486861582204	10.649999999999995	0.0
C 	49.19024293495611	11.359999999999996	0.0
C 	50.41999900833001	10.649999999999993	0.0
C 	51.649755081703915	11.359999999999994	0.0
C 	52.879511155077815	10.649999999999995	0.0
C 	54.10926722845172	11.359999999999996	0.0
C 	55.33902330182562	10.649999999999993	0.0
C 	56.568779375199526	11.359999999999994	0.0
C 	57.798535448573425	10.649999999999993	0.0
C 	59.02829152194733	11.359999999999992	0.0
C 	60.25804759532124	10.649999999999995	0.0
C 	61.487803668695136	11.359999999999996	0.0
C 	62.717559742069035	10.649999999999991	0.0
C 	63.94731581544294	11.359999999999992	0.0
C 	65.17707188881684	10.649999999999991	0.0
C 	66.40682796219075	11.359999999999992	0.0
C 	7.378536440243417	12.779999999999998	0.0
C 	8.60829251361732	13.489999999999998	0.0
C 	9.838048586991222	12.78	0.0
C 	11.067804660365125	13.489999999999997	0.0
C 	12.297560733739028	12.779999999999998	0.0
C 	13.527316807112932	13.489999999999998	0.0
C 	14.757072880486833	12.779999999999998	0.0
C 	15.986828953860737	13.489999999999997	0.0
C 	17.216585027234636	12.779999999999996	0.0
C 	18.446341100608542	13.489999999999997	0.0
C 	19.676097173982445	12.779999999999998	0.0
C 	20.905853247356347	13.489999999999997	0.0
C 	22.13560932073025	12.779999999999996	0.0
C 	23.36536539410415	13.489999999999995	0.0
C 	24.595121467478055	12.779999999999996	0.0
C 	25.824877540851958	13.489999999999997	0.0
C 	27.05463361422586	12.779999999999998	0.0
C 	28.284389687599763	13.489999999999997	0.0
C 	29.514145760973662	12.779999999999996	0.0
C 	30.743901834347568	13.489999999999997	0.0
C 	31.97365790772147	12.779999999999996	0.0
C 	33.20341398109537	13.489999999999997	0.0
C 	34.43317005446928	12.779999999999998	0.0
C 	35.66292612784318	13.489999999999995	0.0
C 	36.89268220121708	12.779999999999994	0.0
C 	38.122438274590984	13.489999999999995	0.0
C 	39.35219434796489	12.779999999999996	0.0
C 	40.581950421338796	13.489999999999997	0.0
C 	41.811706494712695	12.779999999999996	0.0
C 	43.041462568086594	13.489999999999993	0.0
C 	44.2712186414605	12.779999999999994	0.0
C 	45.5009747148344	13.489999999999995	0.0
C 	46.730730788208305	12.779999999999996	0.0
C 	47.96048686158221	13.489999999999997	0.0
C 	49.19024293495611	12.779999999999998	0.0
C 	50.41999900833001	13.489999999999995	0.0
C 	51.649755081703915	12.779999999999996	0.0
C 	52.879511155077815	13.489999999999993	0.0
C 	54.10926722845172	12.779999999999998	0.0
C 	55.33902330182563	13.489999999999998	0.0
C 	56.56877937519952	12.779999999999998	0.0
C 	57.798535448573425	13.489999999999997	0.0
C 	59.02829152194733	12.779999999999994	0.0
C 	60.25804759532123	13.489999999999991	0.0
C 	61.487803668695136	12.779999999999998	0.0
C 	62.71755974206904	13.489999999999998	0.0
C 	63.94731581544294	12.779999999999994	0.0
C 	65.17707188881684	13.489999999999995	0.0
C 	66.40682796219075	12.77999999999999	0.0
C 	67.63658403556465	13.489999999999988	0.0
C 	8.60829251361732	14.909999999999998	0.0
C 	9.838048586991222	15.619999999999996	0.0
C 	11.067804660365125	14.909999999999997	0.0
C 	12.297560733739026	15.619999999999996	0.0
C 	13.527316807112934	14.909999999999998	0.0
C 	14.757072880486831	15.619999999999996	0.0
C 	15.986828953860737	14.909999999999998	0.0
C 	17.21658502723464	15.619999999999997	0.0
C 	18.446341100608542	14.909999999999997	0.0
C 	19.676097173982445	15.619999999999996	0.0
C 	20.905853247356347	14.909999999999997	0.0
C 	22.135609320730246	15.619999999999996	0.0
C 	23.365365394104153	14.909999999999995	0.0
C 	24.595121467478055	15.619999999999996	0.0
C 	25.824877540851958	14.909999999999997	0.0
C 	27.05463361422586	15.619999999999996	0.0
C 	28.284389687599763	14.909999999999997	0.0
C 	29.514145760973665	15.619999999999996	0.0
C 	30.743901834347568	14.909999999999997	0.0
C 	31.973657907721474	15.619999999999997	0.0
C 	33.203413981095366	14.909999999999993	0.0
C 	34.43317005446927	15.619999999999994	0.0
C 	35.662926127843185	14.909999999999998	0.0
C 	36.892682201217085	15.619999999999996	0.0
C 	38.122438274590984	14.909999999999995	0.0
C 	39.35219434796489	15.619999999999996	0.0
C 	40.58195042133879	14.909999999999993	0.0
C 	41.811706494712695	15.619999999999994	0.0
C 	43.0414625680866	14.909999999999998	0.0
C 	44.2712186414605	15.619999999999996	0.0
C 	45.5009747148344	14.909999999999995	0.0
C 	46.730730788208305	15.619999999999996	0.0
C 	47.960486861582204	14.909999999999993	0.0
C 	49.19024293495611	15.619999999999994	0.0
C 	50.41999900833002	14.909999999999998	0.0
C 	51.649755081703915	15.619999999999996	0.0
C 	52.87951115507782	14.909999999999997	0.0
C 	54.10926722845171	15.619999999999994	0.0
C 	55.33902330182562	14.909999999999995	0.0
C 	56.568779375199526	15.619999999999994	0.0
C 	57.798535448573425	14.909999999999991	0.0
C 	59.028291521947324	15.619999999999992	0.0
C 	60.25804759532124	14.909999999999998	0.0
C 	61.487803668695136	15.619999999999996	0.0
C 	62.717559742069035	14.909999999999993	0.0
C 	63.94731581544294	15.619999999999994	0.0
C 	65.17707188881684	14.909999999999993	0.0
C 	66.40682796219075	15.619999999999994	0.0
C 	67.63658403556465	14.909999999999997	0.0
C 	68.86634010893854	15.61999999999999	0.0
C 	9.838048586991222	17.039999999999996	0.0
C 	11.067804660365127	17.749999999999996	0.0
C 	12.297560733739028	17.039999999999996	0.0
C 	13.527316807112932	17.749999999999996	0.0
C 	14.757072880486833	17.039999999999996	0.0
C 	15.986828953860735	17.749999999999996	0.0
C 	17.21658502723464	17.039999999999996	0.0
C 	18.446341100608546	17.749999999999996	0.0
C 	19.676097173982445	17.039999999999996	0.0
C 	20.905853247356347	17.749999999999996	0.0
C 	22.13560932073025	17.039999999999996	0.0
C 	23.365365394104153	17.749999999999996	0.0
C 	24.595121467478055	17.039999999999996	0.0
C 	25.82487754085196	17.749999999999996	0.0
C 	27.05463361422586	17.039999999999996	0.0
C 	28.28438968759977	17.75	0.0
C 	29.514145760973665	17.039999999999996	0.0
C 	30.74390183434757	17.749999999999996	0.0
C 	31.973657907721467	17.039999999999992	0.0
C 	33.20341398109537	17.749999999999993	0.0
C 	34.43317005446927	17.039999999999996	0.0
C 	35.66292612784318	17.749999999999996	0.0
C 	36.892682201217085	17.039999999999996	0.0
C 	38.122438274590984	17.749999999999996	0.0
C 	39.35219434796488	17.039999999999992	0.0
C 	40.58195042133879	17.749999999999993	0.0
C 	41.811706494712695	17.039999999999992	0.0
C 	43.041462568086594	17.749999999999993	0.0
C 	44.2712186414605	17.039999999999996	0.0
C 	45.500974714834406	17.749999999999996	0.0
C 	46.7307307882083	17.039999999999992	0.0
C 	47.960486861582204	17.749999999999993	0.0
C 	49.19024293495611	17.039999999999992	0.0
C 	50.41999900833002	17.749999999999993	0.0
C 	51.649755081703915	17.039999999999996	0.0
C 	52.87951115507782	17.749999999999996	0.0
C 	54.10926722845172	17.039999999999992	0.0
C 	55.33902330182562	17.749999999999993	0.0
C 	56.568779375199526	17.039999999999996	0.0
C 	57.79853544857343	17.749999999999996	0.0
C 	59.028291521947324	17.039999999999992	0.0
C 	60.25804759532123	17.749999999999993	0.0
C 	61.487803668695136	17.039999999999996	0.0
C 	62.71755974206904	17.749999999999996	0.0
C 	63.94731581544294	17.04	0.0
C 	65.17707188881684	17.749999999999993	0.0
C 	66.40682796219075	17.039999999999996	0.0
C 	67.63658403556464	17.74999999999999	0.0
C 	68.86634010893856	17.03999999999999	0.0
C 	70.09609618231246	17.74999999999999	0.0
C 	11.067804660365125	19.169999999999995	0.0
C 	12.297560733739026	19.879999999999995	0.0
C 	13.52731680711293	19.169999999999995	0.0
C 	14.757072880486831	19.879999999999995	0.0
C 	15.986828953860737	19.169999999999998	0.0
C 	17.216585027234636	19.879999999999992	0.0
C 	18.446341100608542	19.169999999999995	0.0
C 	19.676097173982445	19.879999999999995	0.0
C 	20.905853247356347	19.169999999999995	0.0
C 	22.135609320730246	19.879999999999995	0.0
C 	23.365365394104153	19.169999999999995	0.0
C 	24.59512146747805	19.879999999999995	0.0
C 	25.824877540851958	19.169999999999995	0.0
C 	27.05463361422586	19.879999999999995	0.0
C 	28.284389687599763	19.169999999999995	0.0
C 	29.51414576097367	19.879999999999995	0.0
C 	30.743901834347565	19.16999999999999	0.0
C 	31.97365790772147	19.879999999999992	0.0
C 	33.20341398109537	19.169999999999995	0.0
C 	34.43317005446927	19.879999999999992	0.0
C 	35.66292612784318	19.169999999999995	0.0
C 	36.89268220121708	19.879999999999992	0.0
C 	38.122438274590984	19.169999999999995	0.0
C 	39.35219434796488	19.879999999999992	0.0
C 	40.58195042133879	19.16999999999999	0.0
C 	41.81170649471269	19.87999999999999	0.0
C 	43.0414625680866	19.169999999999995	0.0
C 	44.27121864146049	19.879999999999992	0.0
C 	45.5009747148344	19.16999999999999	0.0
C 	46.730730788208305	19.879999999999992	0.0
C 	47.960486861582204	19.169999999999995	0.0
C 	49.1902429349561	19.879999999999992	0.0
C 	50.41999900833002	19.169999999999995	0.0
C 	51.649755081703915	19.879999999999992	0.0
C 	52.879511155077815	19.16999999999999	0.0
C 	54.10926722845172	19.879999999999992	0.0
C 	55.33902330182562	19.16999999999999	0.0
C 	56.56877937519952	19.879999999999992	0.0
C 	57.79853544857343	19.169999999999995	0.0
C 	59.02829152194733	19.879999999999992	0.0
C 	60.25804759532123	19.169999999999995	0.0
C 	61.48780366869513	19.879999999999992	0.0
C 	62.717559742069035	19.16999999999999	0.0
C 	63.94731581544294	19.879999999999992	0.0
C 	65.17707188881684	19.169999999999995	0.0
C 	66.40682796219075	19.87999999999999	0.0
C 	67.63658403556465	19.169999999999995	0.0
C 	68.86634010893854	19.87999999999999	0.0
C 	70.09609618231245	19.16999999999999	0.0
C 	71.32585225568636	19.879999999999992	0.0
C 	12.297560733739028	21.299999999999994	0.0
C 	13.527316807112932	22.009999999999994	0.0
C 	14.757072880486831	21.299999999999994	0.0
C 	15.986828953860735	22.009999999999994	0.0
C 	17.216585027234636	21.299999999999994	0.0
C 	18.44634110060854	22.009999999999994	0.0
C 	19.676097173982445	21.299999999999994	0.0
C 	20.905853247356347	22.009999999999994	0.0
C 	22.13560932073025	21.299999999999994	0.0
C 	23.365365394104153	22.009999999999994	0.0
C 	24.595121467478055	21.299999999999994	0.0
C 	25.824877540851958	22.009999999999994	0.0
C 	27.05463361422586	21.299999999999994	0.0
C 	28.284389687599766	22.009999999999994	0.0
C 	29.514145760973662	21.29999999999999	0.0
C 	30.743901834347568	22.00999999999999	0.0
C 	31.97365790772147	21.299999999999994	0.0
C 	33.20341398109537	22.009999999999994	0.0
C 	34.43317005446928	21.299999999999994	0.0
C 	35.662926127843185	22.009999999999994	0.0
C 	36.89268220121708	21.299999999999994	0.0
C 	38.122438274590984	22.009999999999994	0.0
C 	39.35219434796489	21.299999999999994	0.0
C 	40.58195042133879	22.009999999999994	0.0
C 	41.811706494712695	21.299999999999994	0.0
C 	43.0414625680866	22.009999999999994	0.0
C 	44.2712186414605	21.29999999999999	0.0
C 	45.5009747148344	22.00999999999999	0.0
C 	46.730730788208305	21.299999999999994	0.0
C 	47.96048686158221	22.009999999999994	0.0
C 	49.19024293495611	21.299999999999994	0.0
C 	50.41999900833002	22.009999999999994	0.0
C 	51.649755081703915	21.299999999999994	0.0
C 	52.879511155077815	22.00999999999999	0.0
C 	54.10926722845172	21.299999999999994	0.0
C 	55.33902330182563	22.009999999999994	0.0
C 	56.568779375199526	21.29999999999999	0.0
C 	57.798535448573425	22.00999999999999	0.0
C 	59.02829152194733	21.299999999999994	0.0
C 	60.25804759532124	22.009999999999994	0.0
C 	61.48780366869513	21.29999999999999	0.0
C 	62.717559742069035	22.00999999999999	0.0
C 	63.94731581544294	21.299999999999994	0.0
C 	65.17707188881684	22.009999999999987	0.0
C 	66.40682796219075	21.299999999999994	0.0
C 	67.63658403556465	22.009999999999994	0.0
C 	68.86634010893854	21.29999999999999	0.0
C 	70.09609618231245	22.00999999999999	0.0
C 	71.32585225568636	21.299999999999983	0.0
C 	72.55560832906026	22.00999999999999	0.0
C 	13.527316807112932	23.429999999999996	0.0
C 	14.757072880486836	24.139999999999997	0.0
C 	15.986828953860737	23.429999999999996	0.0
C 	17.216585027234643	24.139999999999997	0.0
C 	18.446341100608542	23.429999999999996	0.0
C 	19.676097173982445	24.139999999999997	0.0
C 	20.90585324735635	23.429999999999996	0.0
C 	22.135609320730254	24.139999999999997	0.0
C 	23.365365394104156	23.429999999999993	0.0
C 	24.595121467478062	24.139999999999997	0.0
C 	25.824877540851958	23.429999999999993	0.0
C 	27.054633614225864	24.139999999999993	0.0
C 	28.284389687599766	23.429999999999996	0.0
C 	29.514145760973673	24.139999999999997	0.0
C 	30.743901834347575	23.429999999999996	0.0
C 	31.973657907721478	24.139999999999997	0.0
C 	33.20341398109537	23.429999999999993	0.0
C 	34.43317005446928	24.139999999999993	0.0
C 	35.66292612784318	23.429999999999993	0.0
C 	36.892682201217085	24.139999999999993	0.0
C 	38.122438274590984	23.429999999999993	0.0
C 	39.35219434796489	24.139999999999993	0.0
C 	40.58195042133879	23.429999999999996	0.0
C 	41.811706494712695	24.139999999999993	0.0
C 	43.041462568086594	23.42999999999999	0.0
C 	44.2712186414605	24.13999999999999	0.0
C 	45.5009747148344	23.429999999999993	0.0
C 	46.730730788208305	24.139999999999993	0.0
C 	47.96048686158221	23.429999999999993	0.0
C 	49.19024293495611	24.139999999999993	0.0
C 	50.41999900833001	23.429999999999993	0.0
C 	51.649755081703915	24.13999999999999	0.0
C 	52.87951115507782	23.429999999999993	0.0
C 	54.10926722845172	24.139999999999993	0.0
C 	55.33902330182563	23.429999999999993	0.0
C 	56.56877937519953	24.139999999999993	0.0
C 	57.798535448573425	23.429999999999993	0.0
C 	59.02829152194733	24.139999999999993	0.0
C 	60.25804759532124	23.429999999999993	0.0
C 	61.487803668695136	24.13999999999999	0.0
C 	62.71755974206904	23.429999999999993	0.0
C 	63.947315815442934	24.139999999999986	0.0
C 	65.17707188881684	23.429999999999993	0.0
C 	66.40682796219075	24.139999999999993	0.0
C 	67.63658403556464	23.42999999999999	0.0
C 	68.86634010893856	24.139999999999997	0.0
C 	70.09609618231245	23.42999999999999	0.0
C 	71.32585225568636	24.139999999999997	0.0
C 	72.55560832906026	23.42999999999999	0.0
C 	73.78536440243417	24.13999999999999	0.0
C 	14.757072880486835	25.559999999999995	0.0
C 	15.986828953860735	26.269999999999996	0.0
C 	17.21658502723464	25.559999999999995	0.0
C 	18.44634110060854	26.269999999999996	0.0
C 	19.676097173982445	25.56	0.0
C 	20.905853247356344	26.269999999999996	0.0
C 	22.13560932073025	25.56	0.0
C 	23.365365394104153	26.269999999999996	0.0
C 	24.595121467478055	25.559999999999995	0.0
C 	25.824877540851958	26.269999999999996	0.0
C 	27.054633614225857	25.559999999999995	0.0
C 	28.28438968759976	26.269999999999996	0.0
C 	29.514145760973665	25.559999999999995	0.0
C 	30.743901834347568	26.269999999999996	0.0
C 	31.973657907721474	25.559999999999995	0.0
C 	33.20341398109538	26.269999999999996	0.0
C 	34.43317005446927	25.55999999999999	0.0
C 	35.66292612784318	26.269999999999992	0.0
C 	36.892682201217085	25.559999999999995	0.0
C 	38.12243827459098	26.269999999999992	0.0
C 	39.35219434796489	25.559999999999995	0.0
C 	40.58195042133879	26.269999999999992	0.0
C 	41.81170649471269	25.55999999999999	0.0
C 	43.041462568086594	26.269999999999992	0.0
C 	44.2712186414605	25.55999999999999	0.0
C 	45.5009747148344	26.26999999999999	0.0
C 	46.730730788208305	25.559999999999995	0.0
C 	47.960486861582204	26.269999999999992	0.0
C 	49.19024293495611	25.55999999999999	0.0
C 	50.41999900833001	26.269999999999992	0.0
C 	51.649755081703915	25.559999999999995	0.0
C 	52.879511155077815	26.269999999999992	0.0
C 	54.10926722845172	25.559999999999995	0.0
C 	55.33902330182562	26.269999999999992	0.0
C 	56.568779375199526	25.55999999999999	0.0
C 	57.79853544857343	26.269999999999992	0.0
C 	59.028291521947324	25.55999999999999	0.0
C 	60.25804759532123	26.269999999999992	0.0
C 	61.487803668695136	25.559999999999995	0.0
C 	62.717559742069035	26.26999999999999	0.0
C 	63.94731581544294	25.55999999999999	0.0
C 	65.17707188881683	26.269999999999985	0.0
C 	66.40682796219075	25.55999999999999	0.0
C 	67.63658403556465	26.269999999999992	0.0
C 	68.86634010893856	25.559999999999995	0.0
C 	70.09609618231246	26.269999999999996	0.0
C 	71.32585225568636	25.559999999999995	0.0
C 	72.55560832906026	26.269999999999996	0.0
C 	73.78536440243415	25.559999999999988	0.0
C 	75.01512047580806	26.26999999999999	0.0
C 	15.986828953860735	27.689999999999994	0.0
C 	17.21658502723464	28.399999999999995	0.0
C 	18.446341100608542	27.689999999999994	0.0
C 	19.676097173982445	28.399999999999995	0.0
C 	20.905853247356344	27.689999999999994	0.0
C 	22.13560932073025	28.399999999999995	0.0
C 	23.365365394104153	27.689999999999994	0.0
C 	24.59512146747806	28.399999999999995	0.0
C 	25.824877540851954	27.689999999999994	0.0
C 	27.054633614225857	28.399999999999995	0.0
C 	28.284389687599763	27.689999999999994	0.0
C 	29.514145760973665	28.399999999999995	0.0
C 	30.74390183434757	27.689999999999994	0.0
C 	31.973657907721474	28.399999999999995	0.0
C 	33.20341398109537	27.68999999999999	0.0
C 	34.43317005446928	28.39999999999999	0.0
C 	35.66292612784318	27.689999999999994	0.0
C 	36.892682201217085	28.399999999999995	0.0
C 	38.122438274590984	27.689999999999994	0.0
C 	39.35219434796489	28.399999999999995	0.0
C 	40.58195042133879	27.689999999999994	0.0
C 	41.811706494712695	28.399999999999995	0.0
C 	43.041462568086594	27.689999999999994	0.0
C 	44.2712186414605	28.399999999999995	0.0
C 	45.500974714834406	27.689999999999994	0.0
C 	46.730730788208305	28.399999999999995	0.0
C 	47.960486861582204	27.68999999999999	0.0
C 	49.19024293495611	28.39999999999999	0.0
C 	50.41999900833002	27.689999999999994	0.0
C 	51.649755081703915	28.399999999999995	0.0
C 	52.87951115507782	27.689999999999994	0.0
C 	54.10926722845173	28.399999999999995	0.0
C 	55.33902330182562	27.68999999999999	0.0
C 	56.568779375199526	28.39999999999999	0.0
C 	57.79853544857343	27.689999999999994	0.0
C 	59.02829152194733	28.39999999999999	0.0
C 	60.25804759532124	27.689999999999994	0.0
C 	61.48780366869513	28.399999999999988	0.0
C 	62.717559742069035	27.689999999999994	0.0
C 	63.94731581544294	28.399999999999995	0.0
C 	65.17707188881684	27.68999999999999	0.0
C 	66.40682796219075	28.39999999999999	0.0
C 	67.63658403556464	27.689999999999987	0.0
C 	68.86634010893856	28.399999999999995	0.0
C 	70.09609618231245	27.689999999999994	0.0
C 	71.32585225568636	28.399999999999995	0.0
C 	72.55560832906026	27.68999999999999	0.0
C 	73.78536440243415	28.39999999999999	0.0
C 	75.01512047580808	27.689999999999994	0.0
C 	76.24487654918197	28.399999999999984	0.0
C 	17.21658502723464	29.819999999999997	0.0
C 	18.446341100608546	30.529999999999998	0.0
C 	19.676097173982445	29.819999999999997	0.0
C 	20.905853247356355	30.529999999999998	0.0
C 	22.13560932073025	29.819999999999993	0.0
C 	23.365365394104156	30.529999999999994	0.0
C 	24.59512146747806	29.819999999999997	0.0
C 	25.82487754085196	30.529999999999998	0.0
C 	27.054633614225867	29.819999999999997	0.0
C 	28.28438968759977	30.529999999999998	0.0
C 	29.514145760973665	29.819999999999997	0.0
C 	30.74390183434757	30.529999999999998	0.0
C 	31.973657907721474	29.819999999999997	0.0
C 	33.20341398109538	30.529999999999998	0.0
C 	34.43317005446928	29.819999999999997	0.0
C 	35.662926127843185	30.529999999999998	0.0
C 	36.892682201217085	29.819999999999993	0.0
C 	38.12243827459099	30.529999999999994	0.0
C 	39.35219434796488	29.819999999999993	0.0
C 	40.58195042133879	30.529999999999994	0.0
C 	41.811706494712695	29.819999999999993	0.0
C 	43.0414625680866	30.529999999999994	0.0
C 	44.2712186414605	29.819999999999993	0.0
C 	45.500974714834406	30.529999999999994	0.0
C 	46.730730788208305	29.81999999999999	0.0
C 	47.960486861582204	30.52999999999999	0.0
C 	49.19024293495611	29.819999999999993	0.0
C 	50.41999900833002	30.529999999999994	0.0
C 	51.649755081703915	29.819999999999993	0.0
C 	52.87951115507782	30.529999999999994	0.0
C 	54.10926722845172	29.819999999999993	0.0
C 	55.33902330182563	30.52999999999999	0.0
C 	56.568779375199526	29.819999999999993	0.0
C 	57.798535448573425	30.52999999999999	0.0
C 	59.02829152194734	29.819999999999993	0.0
C 	60.25804759532124	30.529999999999994	0.0
C 	61.487803668695136	29.819999999999993	0.0
C 	62.71755974206904	30.529999999999994	0.0
C 	63.947315815442934	29.81999999999999	0.0
C 	65.17707188881685	30.529999999999998	0.0
C 	66.40682796219073	29.819999999999986	0.0
C 	67.63658403556465	30.529999999999994	0.0
C 	68.86634010893856	29.819999999999993	0.0
C 	70.09609618231245	30.529999999999994	0.0
C 	71.32585225568637	29.819999999999997	0.0
C 	72.55560832906026	30.52999999999999	0.0
C 	73.78536440243417	29.819999999999997	0.0
C 	75.01512047580806	30.529999999999987	0.0
C 	76.24487654918197	29.81999999999999	0.0
C 	77.47463262255587	30.52999999999999	0.0
C 	18.446341100608542	31.949999999999996	0.0
C 	19.676097173982445	32.65999999999999	0.0
C 	20.905853247356347	31.949999999999992	0.0
C 	22.135609320730254	32.66	0.0
C 	23.365365394104156	31.949999999999996	0.0
C 	24.595121467478055	32.65999999999999	0.0
C 	25.824877540851958	31.949999999999992	0.0
C 	27.05463361422586	32.66	0.0
C 	28.284389687599766	31.949999999999996	0.0
C 	29.51414576097367	32.66	0.0
C 	30.743901834347568	31.949999999999992	0.0
C 	31.97365790772147	32.66	0.0
C 	33.20341398109537	31.949999999999992	0.0
C 	34.43317005446928	32.66	0.0
C 	35.66292612784318	31.949999999999996	0.0
C 	36.892682201217085	32.66	0.0
C 	38.122438274590984	31.949999999999992	0.0
C 	39.35219434796489	32.65999999999999	0.0
C 	40.58195042133879	31.949999999999992	0.0
C 	41.81170649471269	32.65999999999999	0.0
C 	43.0414625680866	31.949999999999996	0.0
C 	44.2712186414605	32.65999999999999	0.0
C 	45.5009747148344	31.949999999999992	0.0
C 	46.730730788208305	32.65999999999999	0.0
C 	47.96048686158221	31.949999999999992	0.0
C 	49.1902429349561	32.65999999999999	0.0
C 	50.41999900833002	31.949999999999992	0.0
C 	51.649755081703915	32.65999999999999	0.0
C 	52.879511155077815	31.949999999999992	0.0
C 	54.10926722845172	32.65999999999999	0.0
C 	55.33902330182563	31.949999999999992	0.0
C 	56.568779375199526	32.65999999999999	0.0
C 	57.79853544857343	31.949999999999992	0.0
C 	59.028291521947324	32.65999999999999	0.0
C 	60.25804759532124	31.949999999999992	0.0
C 	61.487803668695136	32.65999999999999	0.0
C 	62.717559742069035	31.94999999999999	0.0
C 	63.94731581544294	32.65999999999999	0.0
C 	65.17707188881685	31.949999999999992	0.0
C 	66.40682796219076	32.66	0.0
C 	67.63658403556465	31.949999999999992	0.0
C 	68.86634010893856	32.65999999999999	0.0
C 	70.09609618231245	31.94999999999999	0.0
C 	71.32585225568636	32.65999999999999	0.0
C 	72.55560832906026	31.949999999999996	0.0
C 	73.78536440243415	32.65999999999999	0.0
C 	75.01512047580806	31.949999999999992	0.0
C 	76.24487654918195	32.65999999999998	0.0
C 	77.47463262255587	31.949999999999985	0.0
C 	78.70438869592978	32.65999999999999	0.0
C 	19.676097173982445	34.07999999999999	0.0
C 	20.90585324735635	34.78999999999999	0.0
C 	22.135609320730254	34.07999999999999	0.0
C 	23.365365394104156	34.78999999999999	0.0
C 	24.595121467478055	34.07999999999999	0.0
C 	25.824877540851958	34.78999999999999	0.0
C 	27.054633614225864	34.07999999999999	0.0
C 	28.284389687599766	34.78999999999999	0.0
C 	29.514145760973665	34.07999999999999	0.0
C 	30.743901834347568	34.78999999999999	0.0
C 	31.97365790772147	34.07999999999999	0.0
C 	33.20341398109537	34.78999999999999	0.0
C 	34.43317005446928	34.07999999999999	0.0
C 	35.662926127843185	34.78999999999999	0.0
C 	36.89268220121708	34.07999999999999	0.0
C 	38.122438274590984	34.78999999999999	0.0
C 	39.35219434796489	34.07999999999999	0.0
C 	40.581950421338796	34.78999999999999	0.0
C 	41.811706494712695	34.07999999999999	0.0
C 	43.0414625680866	34.78999999999999	0.0
C 	44.2712186414605	34.07999999999999	0.0
C 	45.5009747148344	34.78999999999999	0.0
C 	46.730730788208305	34.07999999999999	0.0
C 	47.96048686158221	34.78999999999999	0.0
C 	49.19024293495611	34.07999999999999	0.0
C 	50.41999900833002	34.78999999999999	0.0
C 	51.649755081703915	34.07999999999999	0.0
C 	52.87951115507782	34.78999999999999	0.0
C 	54.10926722845172	34.07999999999999	0.0
C 	55.33902330182562	34.78999999999999	0.0
C 	56.56877937519953	34.07999999999999	0.0
C 	57.79853544857343	34.78999999999999	0.0
C 	59.02829152194733	34.07999999999999	0.0
C 	60.25804759532124	34.78999999999999	0.0
C 	61.487803668695136	34.07999999999999	0.0
C 	62.71755974206905	34.79	0.0
C 	63.947315815442934	34.079999999999984	0.0
C 	65.17707188881685	34.78999999999999	0.0
C 	66.40682796219075	34.07999999999999	0.0
C 	67.63658403556465	34.78999999999999	0.0
C 	68.86634010893854	34.07999999999999	0.0
C 	70.09609618231245	34.78999999999999	0.0
C 	71.32585225568636	34.07999999999999	0.0
C 	72.55560832906025	34.789999999999985	0.0
C 	73.78536440243417	34.07999999999999	0.0
C 	75.01512047580808	34.78999999999999	0.0
C 	76.24487654918197	34.07999999999999	0.0
C 	77.47463262255587	34.78999999999999	0.0
C 	78.70438869592977	34.079999999999984	0.0
C 	79.93414476930369	34.78999999999999	0.0
C 	20.90585324735635	36.209999999999994	0.0
C 	22.135609320730254	36.919999999999995	0.0
C 	23.36536539410416	36.209999999999994	0.0
C 	24.595121467478062	36.919999999999995	0.0
C 	25.82487754085196	36.209999999999994	0.0
C 	27.054633614225864	36.919999999999995	0.0
C 	28.284389687599766	36.209999999999994	0.0
C 	29.514145760973673	36.919999999999995	0.0
C 	30.743901834347575	36.209999999999994	0.0
C 	31.973657907721478	36.919999999999995	0.0
C 	33.20341398109537	36.209999999999994	0.0
C 	34.43317005446928	36.919999999999995	0.0
C 	35.662926127843185	36.209999999999994	0.0
C 	36.89268220121709	36.919999999999995	0.0
C 	38.12243827459099	36.209999999999994	0.0
C 	39.3521943479649	36.919999999999995	0.0
C 	40.581950421338796	36.209999999999994	0.0
C 	41.811706494712695	36.919999999999995	0.0
C 	43.041462568086594	36.209999999999994	0.0
C 	44.2712186414605	36.919999999999995	0.0
C 	45.500974714834406	36.209999999999994	0.0
C 	46.730730788208305	36.919999999999995	0.0
C 	47.96048686158221	36.209999999999994	0.0
C 	49.19024293495612	36.919999999999995	0.0
C 	50.41999900833002	36.20999999999999	0.0
C 	51.649755081703915	36.91999999999999	0.0
C 	52.87951115507782	36.209999999999994	0.0
C 	54.10926722845172	36.91999999999999	0.0
C 	55.33902330182563	36.209999999999994	0.0
C 	56.56877937519953	36.919999999999995	0.0
C 	57.79853544857343	36.20999999999999	0.0
C 	59.02829152194733	36.91999999999999	0.0
C 	60.25804759532123	36.20999999999999	0.0
C 	61.48780366869515	36.919999999999995	0.0
C 	62.71755974206904	36.209999999999994	0.0
C 	63.94731581544295	36.919999999999995	0.0
C 	65.17707188881684	36.209999999999994	0.0
C 	66.40682796219075	36.919999999999995	0.0
C 	67.63658403556467	36.209999999999994	0.0
C 	68.86634010893856	36.91999999999999	0.0
C 	70.09609618231246	36.209999999999994	0.0
C 	71.32585225568636	36.91999999999999	0.0
C 	72.55560832906026	36.209999999999994	0.0
C 	73.78536440243417	36.919999999999995	0.0
C 	75.01512047580806	36.20999999999999	0.0
C 	76.24487654918198	36.919999999999995	0.0
C 	77.47463262255586	36.20999999999999	0.0
C 	78.70438869592978	36.919999999999995	0.0
C 	79.93414476930369	36.20999999999999	0.0
C 	81.16390084267759	36.91999999999999	0.0
C 	22.13560932073025	38.33999999999999	0.0
C 	23.365365394104153	39.04999999999999	0.0
C 	24.59512146747806	38.33999999999999	0.0
C 	25.82487754085196	39.04999999999999	0.0
C 	27.05463361422586	38.33999999999999	0.0
C 	28.284389687599763	39.04999999999999	0.0
C 	29.514145760973665	38.33999999999999	0.0
C 	30.74390183434757	39.04999999999999	0.0
C 	31.973657907721474	38.339999999999996	0.0
C 	33.20341398109538	39.04999999999999	0.0
C 	34.43317005446927	38.33999999999999	0.0
C 	35.66292612784318	39.04999999999999	0.0
C 	36.892682201217085	38.33999999999999	0.0
C 	38.12243827459099	39.04999999999999	0.0
C 	39.35219434796489	38.33999999999999	0.0
C 	40.581950421338796	39.04999999999999	0.0
C 	41.811706494712695	38.33999999999999	0.0
C 	43.0414625680866	39.04999999999999	0.0
C 	44.27121864146049	38.33999999999999	0.0
C 	45.5009747148344	39.04999999999999	0.0
C 	46.730730788208305	38.33999999999999	0.0
C 	47.960486861582204	39.04999999999999	0.0
C 	49.19024293495611	38.33999999999999	0.0
C 	50.41999900833002	39.04999999999999	0.0
C 	51.649755081703915	38.33999999999999	0.0
C 	52.879511155077815	39.04999999999999	0.0
C 	54.10926722845173	38.33999999999999	0.0
C 	55.33902330182562	39.04999999999998	0.0
C 	56.568779375199526	38.33999999999999	0.0
C 	57.79853544857343	39.04999999999999	0.0
C 	59.02829152194733	38.33999999999999	0.0
C 	60.25804759532123	39.04999999999999	0.0
C 	61.48780366869513	38.33999999999998	0.0
C 	62.71755974206905	39.04999999999999	0.0
C 	63.94731581544294	38.33999999999999	0.0
C 	65.17707188881685	39.04999999999999	0.0
C 	66.40682796219075	38.33999999999999	0.0
C 	67.63658403556465	39.04999999999999	0.0
C 	68.86634010893856	38.33999999999999	0.0
C 	70.09609618231245	39.04999999999998	0.0
C 	71.32585225568636	38.33999999999999	0.0
C 	72.55560832906025	39.04999999999998	0.0
C 	73.78536440243415	38.33999999999999	0.0
C 	75.01512047580806	39.04999999999999	0.0
C 	76.24487654918197	38.33999999999999	0.0
C 	77.47463262255587	39.05	0.0
C 	78.70438869592977	38.33999999999998	0.0
C 	79.93414476930369	39.04999999999999	0.0
C 	81.16390084267758	38.33999999999998	0.0
C 	82.39365691605148	39.04999999999998	0.0
C 	23.365365394104156	40.46999999999999	0.0
C 	24.59512146747806	41.17999999999999	0.0
C 	25.82487754085196	40.46999999999999	0.0
C 	27.054633614225867	41.17999999999999	0.0
C 	28.284389687599763	40.46999999999999	0.0
C 	29.51414576097367	41.17999999999999	0.0
C 	30.74390183434757	40.46999999999999	0.0
C 	31.973657907721474	41.17999999999999	0.0
C 	33.20341398109537	40.46999999999999	0.0
C 	34.43317005446928	41.17999999999999	0.0
C 	35.66292612784318	40.46999999999999	0.0
C 	36.892682201217085	41.17999999999999	0.0
C 	38.12243827459099	40.46999999999999	0.0
C 	39.3521943479649	41.17999999999999	0.0
C 	40.58195042133879	40.46999999999999	0.0
C 	41.811706494712695	41.17999999999999	0.0
C 	43.0414625680866	40.46999999999999	0.0
C 	44.2712186414605	41.17999999999999	0.0
C 	45.500974714834406	40.46999999999999	0.0
C 	46.73073078820831	41.17999999999999	0.0
C 	47.960486861582204	40.46999999999999	0.0
C 	49.19024293495611	41.17999999999999	0.0
C 	50.41999900833002	40.46999999999999	0.0
C 	51.649755081703915	41.179999999999986	0.0
C 	52.87951115507782	40.46999999999999	0.0
C 	54.10926722845173	41.17999999999999	0.0
C 	55.33902330182563	40.46999999999999	0.0
C 	56.568779375199526	41.17999999999999	0.0
C 	57.798535448573425	40.469999999999985	0.0
C 	59.028291521947345	41.17999999999999	0.0
C 	60.25804759532124	40.46999999999999	0.0
C 	61.48780366869514	41.17999999999999	0.0
C 	62.71755974206904	40.46999999999999	0.0
C 	63.94731581544295	41.17999999999999	0.0
C 	65.17707188881685	40.46999999999999	0.0
C 	66.40682796219075	41.179999999999986	0.0
C 	67.63658403556465	40.46999999999999	0.0
C 	68.86634010893854	41.179999999999986	0.0
C 	70.09609618231246	40.46999999999999	0.0
C 	71.32585225568636	41.17999999999999	0.0
C 	72.55560832906026	40.469999999999985	0.0
C 	73.78536440243417	41.179999999999986	0.0
C 	75.01512047580806	40.469999999999985	0.0
C 	76.24487654918198	41.17999999999999	0.0
C 	77.47463262255587	40.46999999999999	0.0
C 	78.70438869592978	41.17999999999999	0.0
C 	79.93414476930367	40.469999999999985	0.0
C 	81.16390084267758	41.179999999999986	0.0
C 	82.3936569160515	40.46999999999999	0.0
C 	83.62341298942539	41.179999999999986	0.0
C 	24.595121467478055	42.59999999999999	0.0
C 	25.82487754085196	43.30999999999999	0.0
C 	27.05463361422586	42.59999999999999	0.0
C 	28.284389687599766	43.30999999999999	0.0
C 	29.514145760973662	42.59999999999999	0.0
C 	30.743901834347568	43.30999999999999	0.0
C 	31.97365790772147	42.59999999999999	0.0
C 	33.20341398109537	43.30999999999999	0.0
C 	34.43317005446927	42.59999999999999	0.0
C 	35.66292612784318	43.30999999999999	0.0
C 	36.89268220121708	42.59999999999999	0.0
C 	38.122438274590984	43.30999999999999	0.0
C 	39.35219434796489	42.59999999999999	0.0
C 	40.581950421338796	43.30999999999999	0.0
C 	41.81170649471269	42.59999999999999	0.0
C 	43.041462568086594	43.30999999999999	0.0
C 	44.2712186414605	42.59999999999999	0.0
C 	45.5009747148344	43.30999999999999	0.0
C 	46.730730788208305	42.59999999999999	0.0
C 	47.96048686158221	43.30999999999999	0.0
C 	49.19024293495611	42.59999999999999	0.0
C 	50.41999900833001	43.30999999999999	0.0
C 	51.64975508170392	42.599999999999994	0.0
C 	52.879511155077815	43.30999999999999	0.0
C 	54.10926722845172	42.59999999999999	0.0
C 	55.33902330182563	43.30999999999999	0.0
C 	56.568779375199526	42.59999999999999	0.0
C 	57.798535448573425	43.30999999999999	0.0
C 	59.028291521947324	42.59999999999998	0.0
C 	60.258047595321244	43.30999999999999	0.0
C 	61.487803668695136	42.59999999999999	0.0
C 	62.71755974206904	43.30999999999999	0.0
C 	63.94731581544294	42.59999999999999	0.0
C 	65.17707188881684	43.30999999999999	0.0
C 	66.40682796219076	42.599999999999994	0.0
C 	67.63658403556465	43.30999999999999	0.0
C 	68.86634010893856	42.59999999999999	0.0
C 	70.09609618231245	43.30999999999998	0.0
C 	71.32585225568636	42.59999999999999	0.0
C 	72.55560832906026	43.30999999999999	0.0
C 	73.78536440243415	42.59999999999999	0.0
C 	75.01512047580806	43.30999999999999	0.0
C 	76.24487654918197	42.59999999999998	0.0
C 	77.47463262255587	43.30999999999999	0.0
C 	78.70438869592978	42.59999999999999	0.0
C 	79.93414476930367	43.30999999999999	0.0
C 	81.16390084267758	42.59999999999999	0.0
C 	82.39365691605148	43.30999999999999	0.0
C 	83.62341298942539	42.59999999999999	0.0
C 	84.85316906279928	43.30999999999998	0.0
C 	25.82487754085196	44.72999999999999	0.0
C 	27.054633614225864	45.43999999999999	0.0
C 	28.284389687599766	44.72999999999999	0.0
C 	29.514145760973673	45.43999999999999	0.0
C 	30.743901834347568	44.72999999999999	0.0
C 	31.97365790772147	45.43999999999999	0.0
C 	33.20341398109537	44.72999999999999	0.0
C 	34.43317005446928	45.43999999999999	0.0
C 	35.662926127843185	44.72999999999999	0.0
C 	36.892682201217085	45.43999999999999	0.0
C 	38.122438274590984	44.72999999999999	0.0
C 	39.35219434796489	45.43999999999999	0.0
C 	40.581950421338796	44.72999999999999	0.0
C 	41.811706494712695	45.43999999999999	0.0
C 	43.0414625680866	44.72999999999999	0.0
C 	44.27121864146051	45.43999999999999	0.0
C 	45.500974714834406	44.72999999999999	0.0
C 	46.730730788208305	45.43999999999999	0.0
C 	47.960486861582204	44.72999999999999	0.0
C 	49.19024293495611	45.43999999999998	0.0
C 	50.41999900833002	44.72999999999999	0.0
C 	51.64975508170391	45.43999999999998	0.0
C 	52.87951115507782	44.72999999999999	0.0
C 	54.10926722845172	45.43999999999999	0.0
C 	55.33902330182562	44.72999999999998	0.0
C 	56.568779375199526	45.43999999999998	0.0
C 	57.798535448573425	44.72999999999998	0.0
C 	59.02829152194734	45.43999999999999	0.0
C 	60.25804759532124	44.72999999999999	0.0
C 	61.48780366869514	45.43999999999999	0.0
C 	62.717559742069035	44.72999999999998	0.0
C 	63.94731581544294	45.43999999999998	0.0
C 	65.17707188881685	44.72999999999999	0.0
C 	66.40682796219075	45.43999999999998	0.0
C 	67.63658403556465	44.72999999999999	0.0
C 	68.86634010893856	45.43999999999999	0.0
C 	70.09609618231245	44.72999999999999	0.0
C 	71.32585225568636	45.43999999999998	0.0
C 	72.55560832906026	44.72999999999998	0.0
C 	73.78536440243417	45.43999999999999	0.0
C 	75.01512047580806	44.72999999999998	0.0
C 	76.24487654918198	45.43999999999999	0.0
C 	77.47463262255587	44.72999999999999	0.0
C 	78.70438869592978	45.43999999999999	0.0
C 	79.93414476930369	44.72999999999999	0.0
C 	81.16390084267758	45.43999999999998	0.0
C 	82.39365691605148	44.72999999999999	0.0
C 	83.62341298942538	45.43999999999998	0.0
C 	84.8531690627993	44.72999999999998	0.0
C 	86.08292513617319	45.43999999999998	0.0
C 	27.054633614225864	46.85999999999999	0.0
C 	28.28438968759977	47.56999999999999	0.0
C 	29.514145760973673	46.85999999999999	0.0
C 	30.74390183434758	47.56999999999999	0.0
C 	31.973657907721474	46.85999999999999	0.0
C 	33.20341398109538	47.56999999999999	0.0
C 	34.43317005446928	46.85999999999999	0.0
C 	35.662926127843185	47.56999999999999	0.0
C 	36.892682201217085	46.85999999999999	0.0
C 	38.122438274590984	47.56999999999999	0.0
C 	39.35219434796489	46.85999999999999	0.0
C 	40.581950421338796	47.56999999999999	0.0
C 	41.8117064947127	46.85999999999999	0.0
C 	43.0414625680866	47.56999999999999	0.0
C 	44.2712186414605	46.85999999999999	0.0
C 	45.500974714834406	47.56999999999999	0.0
C 	46.73073078820831	46.859999999999985	0.0
C 	47.960486861582204	47.569999999999986	0.0
C 	49.19024293495612	46.85999999999999	0.0
C 	50.41999900833002	47.56999999999999	0.0
C 	51.649755081703915	46.859999999999985	0.0
C 	52.87951115507782	47.569999999999986	0.0
C 	54.10926722845172	46.859999999999985	0.0
C 	55.339023301825634	47.56999999999999	0.0
C 	56.56877937519953	46.85999999999999	0.0
C 	57.79853544857344	47.56999999999999	0.0
C 	59.02829152194733	46.859999999999985	0.0
C 	60.25804759532124	47.569999999999986	0.0
C 	61.48780366869515	46.85999999999999	0.0
C 	62.71755974206904	47.569999999999986	0.0
C 	63.94731581544295	46.85999999999999	0.0
C 	65.17707188881685	47.56999999999999	0.0
C 	66.40682796219075	46.859999999999985	0.0
C 	67.63658403556465	47.569999999999986	0.0
C 	68.86634010893856	46.859999999999985	0.0
C 	70.09609618231246	47.56999999999999	0.0
C 	71.32585225568636	46.859999999999985	0.0
C 	72.55560832906028	47.56999999999999	0.0
C 	73.78536440243417	46.859999999999985	0.0
C 	75.01512047580808	47.569999999999986	0.0
C 	76.24487654918197	46.859999999999985	0.0
C 	77.47463262255587	47.569999999999986	0.0
C 	78.70438869592978	46.85999999999999	0.0
C 	79.93414476930367	47.569999999999986	0.0
C 	81.16390084267758	46.85999999999999	0.0
C 	82.39365691605148	47.56999999999999	0.0
C 	83.62341298942539	46.859999999999985	0.0
C 	84.8531690627993	47.569999999999986	0.0
C 	86.08292513617319	46.85999999999998	0.0
C 	87.31268120954711	47.569999999999986	0.0
C 	28.284389687599763	48.98999999999999	0.0
C 	29.51414576097367	49.69999999999999	0.0
C 	30.74390183434757	48.98999999999999	0.0
C 	31.973657907721478	49.69999999999999	0.0
C 	33.20341398109537	48.98999999999999	0.0
C 	34.43317005446928	49.69999999999999	0.0
C 	35.66292612784318	48.98999999999999	0.0
C 	36.892682201217085	49.69999999999999	0.0
C 	38.122438274590984	48.98999999999999	0.0
C 	39.35219434796488	49.69999999999999	0.0
C 	40.58195042133879	48.98999999999999	0.0
C 	41.811706494712695	49.69999999999999	0.0
C 	43.041462568086594	48.98999999999999	0.0
C 	44.2712186414605	49.69999999999999	0.0
C 	45.5009747148344	48.98999999999999	0.0
C 	46.730730788208305	49.69999999999998	0.0
C 	47.96048686158221	48.98999999999999	0.0
C 	49.1902429349561	49.69999999999998	0.0
C 	50.41999900833002	48.98999999999999	0.0
C 	51.64975508170392	49.69999999999999	0.0
C 	52.879511155077815	48.98999999999999	0.0
C 	54.10926722845172	49.69999999999999	0.0
C 	55.33902330182562	48.98999999999998	0.0
C 	56.56877937519953	49.69999999999999	0.0
C 	57.79853544857343	48.98999999999999	0.0
C 	59.02829152194734	49.69999999999999	0.0
C 	60.25804759532124	48.98999999999999	0.0
C 	61.487803668695136	49.69999999999999	0.0
C 	62.71755974206905	48.98999999999999	0.0
C 	63.94731581544294	49.69999999999998	0.0
C 	65.17707188881685	48.98999999999999	0.0
C 	66.40682796219075	49.69999999999999	0.0
C 	67.63658403556465	48.98999999999999	0.0
C 	68.86634010893856	49.69999999999999	0.0
C 	70.09609618231245	48.98999999999998	0.0
C 	71.32585225568637	49.69999999999999	0.0
C 	72.55560832906025	48.98999999999998	0.0
C 	73.78536440243417	49.69999999999999	0.0
C 	75.01512047580806	48.98999999999999	0.0
C 	76.24487654918197	49.69999999999999	0.0
C 	77.47463262255587	48.98999999999998	0.0
C 	78.70438869592978	49.69999999999998	0.0
C 	79.93414476930369	48.98999999999999	0.0
C 	81.16390084267758	49.69999999999998	0.0
C 	82.39365691605148	48.98999999999999	0.0
C 	83.62341298942539	49.69999999999999	0.0
C 	84.85316906279928	48.98999999999998	0.0
C 	86.08292513617319	49.69999999999998	0.0
C 	87.3126812095471	48.98999999999998	0.0
C 	88.542437282921	49.69999999999999	0.0
C 	29.51414576097367	51.11999999999999	0.0
C 	30.74390183434757	51.82999999999999	0.0
C 	31.973657907721474	51.11999999999999	0.0
C 	33.20341398109538	51.82999999999999	0.0
C 	34.43317005446928	51.11999999999999	0.0
C 	35.66292612784318	51.82999999999999	0.0
C 	36.892682201217085	51.11999999999999	0.0
C 	38.12243827459099	51.82999999999999	0.0
C 	39.35219434796489	51.12	0.0
C 	40.581950421338796	51.83	0.0
C 	41.811706494712695	51.11999999999999	0.0
C 	43.041462568086594	51.82999999999999	0.0
C 	44.2712186414605	51.12	0.0
C 	45.5009747148344	51.82999999999999	0.0
C 	46.73073078820831	51.11999999999999	0.0
C 	47.96048686158221	51.82999999999999	0.0
C 	49.19024293495611	51.11999999999999	0.0
C 	50.41999900833002	51.82999999999999	0.0
C 	51.649755081703915	51.11999999999998	0.0
C 	52.879511155077815	51.829999999999984	0.0
C 	54.10926722845171	51.11999999999999	0.0
C 	55.33902330182563	51.83	0.0
C 	56.568779375199526	51.11999999999999	0.0
C 	57.79853544857343	51.82999999999999	0.0
C 	59.02829152194733	51.11999999999999	0.0
C 	60.25804759532124	51.82999999999999	0.0
C 	61.48780366869514	51.11999999999999	0.0
C 	62.717559742069035	51.829999999999984	0.0
C 	63.94731581544295	51.11999999999999	0.0
C 	65.17707188881685	51.82999999999999	0.0
C 	66.40682796219075	51.11999999999999	0.0
C 	67.63658403556465	51.82999999999999	0.0
C 	68.86634010893854	51.11999999999998	0.0
C 	70.09609618231246	51.82999999999999	0.0
C 	71.32585225568636	51.11999999999999	0.0
C 	72.55560832906026	51.82999999999999	0.0
C 	73.78536440243417	51.11999999999999	0.0
C 	75.01512047580806	51.82999999999999	0.0
C 	76.24487654918198	51.11999999999999	0.0
C 	77.47463262255587	51.829999999999984	0.0
C 	78.70438869592978	51.11999999999999	0.0
C 	79.93414476930367	51.829999999999984	0.0
C 	81.16390084267758	51.11999999999999	0.0
C 	82.39365691605148	51.82999999999999	0.0
C 	83.62341298942538	51.11999999999998	0.0
C 	84.8531690627993	51.82999999999999	0.0
C 	86.08292513617319	51.11999999999998	0.0
C 	87.3126812095471	51.82999999999999	0.0
C 	88.542437282921	51.11999999999998	0.0
C 	89.7721933562949	51.829999999999984	0.0
C 	51.95937640266173	-0.4275556648181524	2.15
C 	53.376574357029874	-0.33839312708653047	2.15
C 	54.007956311472476	0.933517572453437	2.15
C 	55.425154265840625	1.0226801101850562	2.15
C 	56.05653622028322	2.294590809725024	2.15
C 	47.7077825395573	-0.695043278013026	2.15
C 	49.124980493925435	-0.6058807402814034	2.15
C 	49.75636244836804	0.6660299592585641	2.15
C 	51.173560402736186	0.7551924969901861	2.15
C 	51.80494235717879	2.027103196530154	2.15
C 	53.22214031154692	2.1162657342617828	2.15
C 	53.853522265989525	3.38817643380175	2.15
C 	55.27072022035767	3.477338971533366	2.15
C 	55.90210217480026	4.749249671073334	2.15
C 	57.31930012916841	4.838412208804963	2.15
C 	57.95068208361101	6.11032290834493	2.15
C 	43.45618867645286	-0.9625308912079089	2.15
C 	44.873386630821	-0.8733683534762766	2.15
C 	45.5047685852636	0.3985423460636877	2.15
C 	46.921966539631754	0.4877048837953128	2.15
C 	47.55334849407435	1.7596155833352771	2.15
C 	48.97054644844249	1.8487781210668994	2.15
C 	49.601928402885086	3.1206888206068637	2.15
C 	51.019126357253235	3.2098513583384927	2.15
C 	51.65050831169583	4.4817620578784565	2.15
C 	53.06770626606398	4.5709245956100855	2.15
C 	53.699088220506574	5.84283529515005	2.15
C 	55.116286174874716	5.931997832881676	2.15
C 	55.74766812931731	7.20390853242164	2.15
C 	57.16486608368546	7.293071070153265	2.15
C 	57.796248038128056	8.56498176969323	2.15
C 	59.21344599249621	8.654144307424856	2.15
C 	59.84482794693881	9.926055006964823	2.15
C 	41.253174722159166	0.13105473286881406	2.15
C 	42.6703726765273	0.22021727060043672	2.15
C 	43.3017546309699	1.4921279701404042	2.15
C 	44.71895258533805	1.5812905078720263	2.15
C 	45.350334539780654	2.8532012074119937	2.15
C 	46.76753249414879	2.9423637451436226	2.15
C 	47.39891444859139	4.21427444468359	2.15
C 	48.81611240295954	4.303436982415206	2.15
C 	49.447494357402135	5.575347681955173	2.15
C 	50.864692311770284	5.6645102196867985	2.15
C 	51.49607426621288	6.936420919226767	2.15
C 	52.91327222058102	7.025583456958396	2.15
C 	53.54465417502362	8.297494156498363	2.15
C 	54.96185212939177	8.386656694229979	2.15
C 	55.59323408383437	9.658567393769946	2.15
C 	57.01043203820251	9.747729931501576	2.15
C 	57.641813992645105	11.019640631041543	2.15
C 	59.05901194701325	11.108803168773164	2.15
C 	59.69039390145585	12.380713868313132	2.15
C 	61.10759185582399	12.469876406044754	2.15
C 	61.73897381026659	13.741787105584722	2.15
C 	37.001580859054734	-0.13643288032605427	2.15
C 	38.418778813422875	-0.04727034259443693	2.15
C 	39.05016076786548	1.2246403569455306	2.15
C 	40.46735872223361	1.3138028946771578	2.15
C 	41.098740676676215	2.5857135942171254	2.15
C 	42.51593863104436	2.674876131948743	2.15
C 	43.14732058548696	3.9467868314887102	2.15
C 	44.564518539855094	4.035949369220339	2.15
C 	45.195900494297696	5.307860068760307	2.15
C 	46.613098448665845	5.397022606491928	2.15
C 	47.24448040310845	6.668933306031897	2.15
C 	48.66167835747658	6.758095843763519	2.15
C 	49.29306031191918	8.030006543303486	2.15
C 	50.71025826628733	8.119169081035109	2.15
C 	51.34164022072993	9.391079780575076	2.15
C 	52.75883817509808	9.4802423183067	2.15
C 	53.39022012954067	10.75215301784667	2.15
C 	54.807418083908814	10.841315555578293	2.15
C 	55.43880003835141	12.11322625511826	2.15
C 	56.85599799271956	12.202388792849884	2.15
C 	57.487379947162154	13.474299492389852	2.15
C 	58.9045779015303	13.563462030121478	2.15
C 	59.5359598559729	14.835372729661445	2.15
C 	60.95315781034103	14.924535267393065	2.15
C 	61.584539764783635	16.19644596693303	2.15
C 	63.001737719151784	16.28560850466466	2.15
C 	63.633119673594386	17.557519204204624	2.15
C 	65.05031762796253	17.646681741936252	2.15
C 	65.68169958240512	18.918592441476218	2.15
C 	32.749986995950294	-0.40392049352093745	2.15
C 	34.167184950318436	-0.31475795578930843	2.15
C 	34.79856690476103	0.957152743750656	2.15
C 	36.21576485912919	1.0463152814822827	2.15
C 	36.84714681357178	2.318225981022247	2.15
C 	38.264344767939924	2.407388518753871	2.15
C 	38.89572672238252	3.6792992182938358	2.15
C 	40.31292467675067	3.7684617560254625	2.15
C 	40.944306631193264	5.040372455565427	2.15
C 	42.361504585561406	5.129534993297051	2.15
C 	42.992886540004	6.401445692837015	2.15
C 	44.41008449437215	6.490608230568642	2.15
C 	45.041466448814745	7.762518930108606	2.15
C 	46.45866440318289	7.851681467840239	2.15
C 	47.09004635762548	9.123592167380203	2.15
C 	48.50724431199364	9.212754705111822	2.15
C 	49.13862626643623	10.484665404651786	2.15
C 	50.55582422080438	10.573827942383415	2.15
C 	51.18720617524698	11.84573864192338	2.15
C 	52.604404129615126	11.934901179655006	2.15
C 	53.23578608405772	13.206811879194973	2.15
C 	54.65298403842586	13.295974416926592	2.15
C 	55.284365992868466	14.56788511646656	2.15
C 	56.70156394723661	14.657047654198195	2.15
C 	57.3329459016792	15.928958353738155	2.15
C 	58.75014385604735	16.018120891469778	2.15
C 	59.381525810489954	17.290031591009743	2.15
C 	60.79872376485809	17.379194128741368	2.15
C 	61.430105719300684	18.651104828281333	2.15
C 	62.84730367366883	18.740267366012965	2.15
C 	63.47868562811143	20.012178065552924	2.15
C 	64.89588358247957	20.101340603284555	2.15
C 	65.52726553692217	21.37325130282452	2.15
C 	66.94446349129032	21.462413840556138	2.15
C 	67.57584544573291	22.734324540096104	2.15
C 	28.498393132845855	-0.6714081067158105	2.15
C 	29.915591087214004	-0.5822455689841852	2.15
C 	30.546973041656603	0.6896651305557807	2.15
C 	31.964170996024745	0.7788276682874063	2.15
C 	32.595552950467344	2.0507383678273707	2.15
C 	34.01275090483549	2.1399009055589944	2.15
C 	34.64413285927809	3.4118116050989618	2.15
C 	36.06133081364623	3.500974142830591	2.15
C 	36.692712768088825	4.7728848423705585	2.15
C 	38.10991072245697	4.862047380102176	2.15
C 	38.74129267689957	6.133958079642143	2.15
C 	40.15849063126771	6.2231206173737705	2.15
C 	40.78987258571031	7.495031316913738	2.15
C 	42.207070540078455	7.584193854645355	2.15
C 	42.83845249452106	8.856104554185324	2.15
C 	44.25565044888919	8.94526709191695	2.15
C 	44.887032403331794	10.217177791456917	2.15
C 	46.30423035769994	10.306340329188542	2.15
C 	46.93561231214254	11.57825102872851	2.15
C 	48.35281026651068	11.667413566460132	2.15
C 	48.984192220953275	12.9393242660001	2.15
C 	50.40139017532143	13.028486803731722	2.15
C 	51.03277212976403	14.30039750327169	2.15
C 	52.449970084132175	14.389560041003314	2.15
C 	53.08135203857477	15.661470740543281	2.15
C 	54.49854999294291	15.7506332782749	2.15
C 	55.129931947385515	17.02254397781487	2.15
C 	56.54712990175365	17.111706515546498	2.15
C 	57.17851185619625	18.383617215086463	2.15
C 	58.595709810564394	18.47277975281809	2.15
C 	59.227091765006996	19.744690452358057	2.15
C 	60.64428971937514	19.833852990089678	2.15
C 	61.27567167381773	21.105763689629644	2.15
C 	62.69286962818588	21.19492622736127	2.15
C 	63.32425158262848	22.466836926901237	2.15
C 	64.74144953699661	22.555999464632862	2.15
C 	65.37283149143921	23.82791016417283	2.15
C 	66.79002944580736	23.91707270190445	2.15
C 	67.42141140024997	25.188983401444418	2.15
C 	68.8386093546181	25.27814593917603	2.15
C 	69.4699913090607	26.550056638716	2.15
C 	24.24679926974142	-0.9388957199106839	2.15
C 	25.663997224109565	-0.8497331821790599	2.15
C 	26.295379178552164	0.422177517360906	2.15
C 	27.712577132920313	0.5113400550925281	2.15
C 	28.343959087362908	1.783250754632494	2.15
C 	29.76115704173105	1.8724132923641228	2.15
C 	30.392538996173645	3.1443239919040873	2.15
C 	31.809736950541797	3.233486529635711	2.15
C 	32.44111890498439	4.505397229175679	2.15
C 	33.858316859352534	4.594559766907302	2.15
C 	34.48969881379513	5.866470466447267	2.15
C 	35.906896768163286	5.955633004178893	2.15
C 	36.53827872260588	7.227543703718858	2.15
C 	37.955476676974016	7.316706241450484	2.15
C 	38.58685863141661	8.588616940990448	2.15
C 	40.00405658578477	8.677779478722075	2.15
C 	40.63543854022736	9.94969017826204	2.15
C 	42.052636494595504	10.038852715993663	2.15
C 	42.6840184490381	11.310763415533629	2.15
C 	44.10121640340625	11.399925953265255	2.15
C 	44.73259835784884	12.671836652805219	2.15
C 	46.149796312216985	12.76099919053685	2.15
C 	46.78117826665958	14.032909890076814	2.15
C 	48.198376221027736	14.122072427808439	2.15
C 	48.82975817547033	15.393983127348399	2.15
C 	50.24695612983847	15.483145665080025	2.15
C 	50.878338084281076	16.755056364619993	2.15
C 	52.295536038649225	16.844218902351624	2.15
C 	52.92691799309182	18.116129601891586	2.15
C 	54.34411594745996	18.20529213962321	2.15
C 	54.97549790190256	19.477202839163173	2.15
C 	56.392695856270706	19.566365376894797	2.15
C 	57.0240778107133	20.838276076434763	2.15
C 	58.44127576508145	20.927438614166398	2.15
C 	59.072657719524045	22.199349313706357	2.15
C 	60.48985567389219	22.28851185143799	2.15
C 	61.12123762833478	23.560422550977947	2.15
C 	62.53843558270293	23.64958508870957	2.15
C 	63.16981753714553	24.921495788249537	2.15
C 	64.58701549151367	25.010658325981172	2.15
C 	65.21839744595627	26.282569025521134	2.15
C 	66.63559540032442	26.371731563252755	2.15
C 	67.26697735476701	27.643642262792717	2.15
C 	68.68417530913516	27.73280480052434	2.15
C 	69.31555726357776	29.004715500064304	2.15
C 	70.73275521794591	29.093878037795943	2.15
C 	71.3641371723885	30.365788737335905	2.15
C 	22.043785315447728	0.15468990416602932	2.15
C 	23.460983269815877	0.2438524418976564	2.15
C 	24.092365224258472	1.5157631414376223	2.15
C 	25.509563178626617	1.6049256791692463	2.15
C 	26.140945133069216	2.8768363787092124	2.15
C 	27.558143087437358	2.965998916440838	2.15
C 	28.189525041879953	4.237909615980803	2.15
C 	29.606722996248106	4.327072153712428	2.15
C 	30.2381049506907	5.598982853252395	2.15
C 	31.655302905058843	5.6881453909840225	2.15
C 	32.286684859501435	6.960056090523986	2.15
C 	33.70388281386958	7.049218628255607	2.15
C 	34.335264768312186	8.321129327795575	2.15
C 	35.75246272268033	8.410291865527203	2.15
C 	36.38384467712292	9.68220256506717	2.15
C 	37.80104263149107	9.771365102798788	2.15
C 	38.43242458593367	11.043275802338755	2.15
C 	39.84962254030181	11.132438340070383	2.15
C 	40.481004494744404	12.40434903961035	2.15
C 	41.89820244911255	12.493511577341968	2.15
C 	42.52958440355515	13.765422276881935	2.15
C 	43.9467823579233	13.854584814613563	2.15
C 	44.57816431236589	15.12649551415353	2.15
C 	45.99536226673404	15.215658051885155	2.15
C 	46.62674422117664	16.487568751425123	2.15
C 	48.04394217554478	16.576731289156744	2.15
C 	48.675324129987374	17.84864198869671	2.15
C 	50.09252208435552	17.937804526428334	2.15
C 	50.723904038798125	19.209715225968303	2.15
C 	52.14110199316627	19.298877763699927	2.15
C 	52.77248394760887	20.570788463239893	2.15
C 	54.18968190197701	20.659951000971514	2.15
C 	54.821063856419606	21.93186170051148	2.15
C 	56.23826181078775	22.02102423824311	2.15
C 	56.86964376523034	23.292934937783077	2.15
C 	58.2868417195985	23.3820974755147	2.15
C 	58.918223674041094	24.654008175054667	2.15
C 	60.33542162840923	24.74317071278629	2.15
C 	60.96680358285183	26.015081412326257	2.15
C 	62.38400153721997	26.10424395005788	2.15
C 	63.015383491662575	27.37615464959785	2.15
C 	64.43258144603072	27.465317187329475	2.15
C 	65.06396340047331	28.737227886869444	2.15
C 	66.48116135484146	28.826390424601062	2.15
C 	67.11254330928406	30.09830112414103	2.15
C 	68.5297412636522	30.187463661872645	2.15
C 	69.1611232180948	31.459374361412614	2.15
C 	70.57832117246295	31.54853689914425	2.15
C 	71.20970312690555	32.82044759868422	2.15
C 	72.62690108127369	32.90961013641583	2.15
C 	73.25828303571629	34.1815208359558	2.15
C 	74.67548099008442	34.27068337368742	2.15
C 	75.30686294452703	35.54259407322739	2.15
C 	17.792191452343292	-0.11279770902884236	2.15
C 	19.209389406711438	-0.023635171297218465	2.15
C 	19.840771361154037	1.2482755282427476	2.15
C 	21.25796931552218	1.3374380659743714	2.15
C 	21.889351269964777	2.6093487655143375	2.15
C 	23.306549224332922	2.698511303245964	2.15
C 	23.93793117877552	3.9704220027859303	2.15
C 	25.355129133143667	4.059584540517554	2.15
C 	25.986511087586262	5.331495240057518	2.15
C 	27.403709041954407	5.420657777789146	2.15
C 	28.035090996397003	6.692568477329114	2.15
C 	29.45228895076515	6.781731015060739	2.15
C 	30.083670905207747	8.053641714600706	2.15
C 	31.500868859575892	8.14280425233233	2.15
C 	32.13225081401849	9.414714951872293	2.15
C 	33.54944876838663	9.50387748960392	2.15
C 	34.18083072282923	10.775788189143887	2.15
C 	35.59802867719738	10.864950726875511	2.15
C 	36.22941063163997	12.136861426415479	2.15
C 	37.646608586008114	12.226023964147098	2.15
C 	38.277990540450716	13.497934663687065	2.15
C 	39.695188494818865	13.587097201418691	2.15
C 	40.32657044926146	14.859007900958659	2.15
C 	41.7437684036296	14.94817043869028	2.15
C 	42.3751503580722	16.220081138230245	2.15
C 	43.792348312440346	16.309243675961874	2.15
C 	44.42373026688294	17.58115437550184	2.15
C 	45.84092822125109	17.670316913233467	2.15
C 	46.472310175693686	18.942227612773433	2.15
C 	47.889508130061834	19.03139015050505	2.15
C 	48.52089008450443	20.30330085004502	2.15
C 	49.93808803887258	20.39246338777664	2.15
C 	50.569469993315174	21.66437408731661	2.15
C 	51.986667947683316	21.753536625048238	2.15
C 	52.61804990212592	23.025447324588203	2.15
C 	54.03524785649406	23.114609862319824	2.15
C 	54.666629810936655	24.38652056185979	2.15
C 	56.083827765304804	24.475683099591418	2.15
C 	56.7152097197474	25.747593799131383	2.15
C 	58.13240767411555	25.836756336863008	2.15
C 	58.76378962855814	27.108667036402977	2.15
C 	60.180987582926285	27.197829574134595	2.15
C 	60.81236953736889	28.469740273674564	2.15
C 	62.22956749173703	28.55890281140619	2.15
C 	62.86094944617963	29.830813510946157	2.15
C 	64.27814740054777	29.919976048677785	2.15
C 	64.90952935499037	31.191886748217755	2.15
C 	66.32672730935852	31.28104928594937	2.15
C 	66.95810926380112	32.55295998548934	2.15
C 	68.37530721816925	32.642122523220955	2.15
C 	69.00668917261186	33.91403322276092	2.15
C 	70.42388712698	34.00319576049255	2.15
C 	71.0552690814226	35.275106460032525	2.15
C 	72.47246703579074	35.36426899776414	2.15
C 	73.10384899023335	36.6361796973041	2.15
C 	74.52104694460148	36.72534223503573	2.15
C 	75.15242889904408	37.99725293457569	2.15
C 	76.56962685341223	38.08641547230732	2.15
C 	77.20100880785482	39.35832617184729	2.15
C 	13.540597589238859	-0.38028532222371814	2.15
C 	14.957795543607002	-0.2911227844920926	2.15
C 	15.5891774980496	0.9807879150478733	2.15
C 	17.006375452417746	1.0699504527794972	2.15
C 	17.63775740686034	2.341861152319463	2.15
C 	19.054955361228487	2.431023690051088	2.15
C 	19.686337315671082	3.702934389591054	2.15
C 	21.103535270039227	3.7920969273226777	2.15
C 	21.734917224481826	5.064007626862644	2.15
C 	23.15211517884997	5.153170164594271	2.15
C 	23.783497133292567	6.425080864134235	2.15
C 	25.200695087660716	6.514243401865861	2.15
C 	25.83207704210331	7.786154101405828	2.15
C 	27.249274996471456	7.87531663913745	2.15
C 	27.88065695091405	9.147227338677414	2.15
C 	29.297854905282197	9.236389876409046	2.15
C 	29.929236859724792	10.50830057594901	2.15
C 	31.34643481409294	10.597463113680636	2.15
C 	31.97781676853554	11.869373813220603	2.15
C 	33.39501472290368	11.958536350952224	2.15
C 	34.02639667734628	13.23044705049219	2.15
C 	35.443594631714426	13.319609588223818	2.15
C 	36.07497658615702	14.591520287763782	2.15
C 	37.49217454052516	14.680682825495404	2.15
C 	38.12355649496776	15.952593525035368	2.15
C 	39.54075444933591	16.041756062766996	2.15
C 	40.1721364037785	17.313666762306962	2.15
C 	41.58933435814665	17.402829300038587	2.15
C 	42.220716312589246	18.67473999957855	2.15
C 	43.63791426695739	18.763902537310177	2.15
C 	44.26929622139999	20.035813236850142	2.15
C 	45.68649417576814	20.124975774581774	2.15
C 	46.317876130210735	21.396886474121736	2.15
C 	47.735074084578876	21.48604901185336	2.15
C 	48.36645603902147	22.757959711393323	2.15
C 	49.78365399338962	22.847122249124947	2.15
C 	50.41503594783222	24.119032948664913	2.15
C 	51.83223390220037	24.208195486396544	2.15
C 	52.46361585664297	25.480106185936506	2.15
C 	53.88081381101111	25.569268723668134	2.15
C 	54.512195765453704	26.841179423208093	2.15
C 	55.92939371982184	26.930341960939725	2.15
C 	56.56077567426444	28.20225266047969	2.15
C 	57.9779736286326	28.29141519821132	2.15
C 	58.60935558307519	29.56332589775128	2.15
C 	60.02655353744333	29.65248843548291	2.15
C 	60.65793549188592	30.92439913502287	2.15
C 	62.07513344625408	31.01356167275449	2.15
C 	62.706515400696674	32.28547237229446	2.15
C 	64.12371335506482	32.374634910026096	2.15
C 	64.75509530950741	33.646545609566054	2.15
C 	66.17229326387556	33.73570814729768	2.15
C 	66.80367521831815	35.007618846837644	2.15
C 	68.22087317268631	35.09678138456926	2.15
C 	68.8522551271289	36.36869208410923	2.15
C 	70.26945308149705	36.457854621840866	2.15
C 	70.90083503593965	37.72976532138084	2.15
C 	72.31803299030778	37.81892785911245	2.15
C 	72.94941494475039	39.09083855865242	2.15
C 	74.36661289911854	39.18000109638404	2.15
C 	74.99799485356112	40.45191179592401	2.15
C 	76.41519280792927	40.54107433365564	2.15
C 	77.04657476237188	41.8129850331956	2.15
C 	78.46377271674001	41.90214757092723	2.15
C 	79.09515467118261	43.17405827046719	2.15
C 	9.289003726134421	-0.6477729354185922	2.15
C 	10.706201680502566	-0.5586103976869683	2.15
C 	11.337583634945164	0.7133003018529976	2.15
C 	12.754781589313309	0.8024628395846232	2.15
C 	13.386163543755906	2.074373539124589	2.15
C 	14.803361498124053	2.163536076856214	2.15
C 	15.43474345256665	3.4354467763961813	2.15
C 	16.85194140693479	3.5246093141278036	2.15
C 	17.48332336137739	4.796520013667771	2.15
C 	18.900521315745536	4.885682551399394	2.15
C 	19.531903270188135	6.157593250939361	2.15
C 	20.949101224556276	6.246755788670984	2.15
C 	21.580483178998875	7.518666488210951	2.15
C 	22.99768113336702	7.607829025942578	2.15
C 	23.62906308780962	8.879739725482544	2.15
C 	25.04626104217776	8.968902263214167	2.15
C 	25.67764299662036	10.240812962754134	2.15
C 	27.094840950988505	10.329975500485757	2.15
C 	27.7262229054311	11.601886200025724	2.15
C 	29.14342085979925	11.69104873775735	2.15
C 	29.77480281424185	12.962959437297318	2.15
C 	31.192000768609986	13.05212197502894	2.15
C 	31.823382723052585	14.324032674568908	2.15
C 	33.24058067742073	14.413195212300531	2.15
C 	33.871962631863326	15.685105911840498	2.15
C 	35.289160586231475	15.774268449572125	2.15
C 	35.92054254067407	17.046179149112092	2.15
C 	37.33774049504221	17.13534168684371	2.15
C 	37.96912244948481	18.40725238638368	2.15
C 	39.386320403852956	18.496414924115303	2.15
C 	40.01770235829555	19.768325623655272	2.15
C 	41.4349003126637	19.85748816138689	2.15
C 	42.066282267106295	21.12939886092686	2.15
C 	43.483480221474444	21.218561398658483	2.15
C 	44.11486217591704	22.490472098198452	2.15
C 	45.53206013028518	22.579634635930077	2.15
C 	46.163442084727784	23.851545335470046	2.15
C 	47.580640039095925	23.940707873201664	2.15
C 	48.21202199353852	25.212618572741633	2.15
C 	49.62921994790668	25.301781110473254	2.15
C 	50.26060190234927	26.573691810013223	2.15
C 	51.677799856717414	26.66285434774485	2.15
C 	52.309181811160016	27.934765047284817	2.15
C 	53.72637976552816	28.023927585016434	2.15
C 	54.35776171997075	29.295838284556403	2.15
C 	55.774959674338895	29.385000822288028	2.15
C 	56.4063416287815	30.656911521827997	2.15
C 	57.82353958314964	30.74607405955962	2.15
C 	58.45492153759224	32.01798475909959	2.15
C 	59.87211949196038	32.10714729683121	2.15
C 	60.50350144640298	33.37905799637117	2.15
C 	61.92069940077113	33.468220534102805	2.15
C 	62.55208135521372	34.74013123364277	2.15
C 	63.96927930958187	34.829293771374395	2.15
C 	64.60066126402447	36.10120447091436	2.15
C 	66.01785921839262	36.19036700864598	2.15
C 	66.6492411728352	37.46227770818595	2.15
C 	68.06643912720335	37.55144024591757	2.15
C 	68.69782108164596	38.823350945457534	2.15
C 	70.1150190360141	38.912513483189166	2.15
C 	70.74640099045669	40.18442418272914	2.15
C 	72.16359894482484	40.273586720460756	2.15
C 	72.79498089926744	41.54549742000072	2.15
C 	74.21217885363558	41.63465995773234	2.15
C 	74.84356080807818	42.90657065727231	2.15
C 	76.26075876244633	42.99573319500394	2.15
C 	76.89214071688893	44.26764389454391	2.15
C 	78.30933867125707	44.356806432275526	2.15
C 	78.94072062569967	45.62871713181549	2.15
C 	5.037409863029985	-0.9152605486134667	2.15
C 	6.454607817398131	-0.826098010881842	2.15
C 	7.085989771840728	0.4458126886581239	2.15
C 	8.503187726208873	0.5349752263897486	2.15
C 	9.13456968065147	1.8068859259297145	2.15
C 	10.551767635019614	1.8960484636613388	2.15
C 	11.18314958946221	3.1679591632013047	2.15
C 	12.600347543830358	3.2571217009329305	2.15
C 	13.231729498272955	4.529032400472897	2.15
C 	14.648927452641098	4.618194938204523	2.15
C 	15.280309407083696	5.8901056377444885	2.15
C 	16.69750736145184	5.979268175476112	2.15
C 	17.32888931589444	7.251178875016079	2.15
C 	18.74608727026258	7.340341412747702	2.15
C 	19.37746922470518	8.612252112287669	2.15
C 	20.794667179073326	8.701414650019293	2.15
C 	21.42604913351592	9.973325349559259	2.15
C 	22.84324708788407	10.062487887290887	2.15
C 	23.474629042326665	11.334398586830853	2.15
C 	24.89182699669481	11.423561124562474	2.15
C 	25.52320895113741	12.695471824102441	2.15
C 	26.940406905505554	12.784634361834067	2.15
C 	27.57178885994815	14.056545061374031	2.15
C 	28.9889868143163	14.14570759910566	2.15
C 	29.620368768758894	15.417618298645623	2.15
C 	31.03756672312704	15.506780836377246	2.15
C 	31.668948677569638	16.778691535917215	2.15
C 	33.08614663193778	16.86785407364884	2.15
C 	33.717528586380375	18.139764773188805	2.15
C 	35.134726540748524	18.228927310920433	2.15
C 	35.76610849519112	19.500838010460402	2.15
C 	37.18330644955927	19.59000054819202	2.15
C 	37.81468840400186	20.86191124773199	2.15
C 	39.231886358370005	20.951073785463613	2.15
C 	39.8632683128126	22.222984485003575	2.15
C 	41.28046626718075	22.3121470227352	2.15
C 	41.911848221623345	23.584057722275162	2.15
C 	43.32904617599149	23.673220260006794	2.15
C 	43.96042813043409	24.94513095954676	2.15
C 	45.37762608480224	25.034293497278387	2.15
C 	46.00900803924483	26.306204196818346	2.15
C 	47.426205993612975	26.395366734549974	2.15
C 	48.05758794805557	27.667277434089936	2.15
C 	49.47478590242372	27.756439971821568	2.15
C 	50.10616785686632	29.028350671361533	2.15
C 	51.52336581123447	29.117513209093158	2.15
C 	52.154747765677065	30.38942390863312	2.15
C 	53.57194572004521	30.478586446364744	2.15
C 	54.2033276744878	31.750497145904706	2.15
C 	55.620525628855944	31.83965968363634	2.15
C 	56.25190758329854	33.11157038317631	2.15
C 	57.66910553766669	33.20073292090793	2.15
C 	58.30048749210928	34.47264362044789	2.15
C 	59.717685446477425	34.56180615817952	2.15
C 	60.34906740092002	35.83371685771948	2.15
C 	61.766265355288176	35.92287939545111	2.15
C 	62.39764730973077	37.19479009499108	2.15
C 	63.81484526409891	37.28395263272271	2.15
C 	64.44622721854151	38.55586333226267	2.15
C 	65.86342517290966	38.64502586999429	2.15
C 	66.49480712735226	39.91693656953425	2.15
C 	67.9120050817204	40.00609910726587	2.15
C 	68.543387036163	41.27800980680584	2.15
C 	69.96058499053115	41.36717234453747	2.15
C 	70.59196694497373	42.639083044077445	2.15
C 	72.00916489934188	42.728245581809055	2.15
C 	72.64054685378449	44.00015628134903	2.15
C 	74.05774480815262	44.089318819080646	2.15
C 	74.68912676259522	45.36122951862062	2.15
C 	76.10632471696337	45.45039205635224	2.15
C 	76.73770667140597	46.72230275589221	2.15
C 	78.15490462577411	46.81146529362383	2.15
C 	2.834395908736291	0.1783250754632496	2.15
C 	4.2515938631044365	0.2674876131948743	2.15
C 	4.882975817547034	1.5393983127348403	2.15
C 	6.300173771915179	1.6285608504664653	2.15
C 	6.931555726357775	2.900471550006431	2.15
C 	8.34875368072592	2.989634087738056	2.15
C 	8.980135635168518	4.261544787278022	2.15
C 	10.397333589536663	4.350707325009647	2.15
C 	11.02871554397926	5.622618024549611	2.15
C 	12.445913498347405	5.711780562281237	2.15
C 	13.077295452790004	6.983691261821204	2.15
C 	14.49449340715815	7.07285379955283	2.15
C 	15.125875361600745	8.344764499092793	2.15
C 	16.54307331596889	8.43392703682442	2.15
C 	17.174455270411485	9.705837736364385	2.15
C 	18.591653224779634	9.79500027409601	2.15
C 	19.22303517922223	11.066910973635975	2.15
C 	20.640233133590375	11.1560735113676	2.15
C 	21.27161508803297	12.427984210907564	2.15
C 	22.68881304240112	12.517146748639194	2.15
C 	23.320194996843714	13.789057448179157	2.15
C 	24.73739295121186	13.878219985910784	2.15
C 	25.36877490565446	15.150130685450748	2.15
C 	26.785972860022603	15.239293223182372	2.15
C 	27.4173548144652	16.511203922722338	2.15
C 	28.834552768833344	16.600366460453966	2.15
C 	29.465934723275943	17.87227715999393	2.15
C 	30.883132677644088	17.961439697725556	2.15
C 	31.514514632086684	19.23335039726552	2.15
C 	32.93171258645483	19.322512934997146	2.15
C 	33.563094540897424	20.594423634537108	2.15
C 	34.98029249526557	20.683586172268736	2.15
C 	35.61167444970817	21.955496871808705	2.15
C 	37.02887240407631	22.044659409540323	2.15
C 	37.66025435851891	23.316570109080292	2.15
C 	39.077452312887054	23.405732646811916	2.15
C 	39.70883426732966	24.677643346351886	2.15
C 	41.12603222169779	24.766805884083503	2.15
C 	41.757414176140394	26.038716583623472	2.15
C 	43.174612130508535	26.127879121355097	2.15
C 	43.80599408495114	27.399789820895062	2.15
C 	45.22319203931928	27.48895235862669	2.15
C 	45.85457399376188	28.760863058166656	2.15
C 	47.271771948130024	28.850025595898277	2.15
C 	47.90315390257262	30.121936295438243	2.15
C 	49.32035185694077	30.21109883316987	2.15
C 	49.95173381138336	31.483009532709836	2.15
C 	51.36893176575151	31.57217207044146	2.15
C 	52.00031372019411	32.844082769981426	2.15
C 	53.417511674562256	32.933245307713044	2.15
C 	54.04889362900485	34.20515600725302	2.15
C 	55.46609158337299	34.29431854498464	2.15
C 	56.097473537815596	35.56622924452461	2.15
C 	57.514671492183744	35.65539178225623	2.15
C 	58.14605344662634	36.927302481796204	2.15
C 	59.56325140099448	37.01646501952782	2.15
C 	60.19463335543708	38.28837571906779	2.15
C 	61.611831309805225	38.37753825679941	2.15
C 	62.24321326424782	39.649448956339384	2.15
C 	63.66041121861597	39.73861149407101	2.15
C 	64.29179317305857	41.01052219361098	2.15
C 	65.70899112742671	41.0996847313426	2.15
C 	66.3403730818693	42.37159543088257	2.15
C 	67.75757103623745	42.46075796861419	2.15
C 	68.38895299068005	43.732668668154155	2.15
C 	69.8061509450482	43.821831205885786	2.15
C 	70.4375328994908	45.09374190542575	2.15
C 	71.85473085385894	45.182904443157376	2.15
C 	72.48611280830154	46.45481514269734	2.15
C 	73.90331076266968	46.54397768042896	2.15
C 	2.0485799088107424	1.3610732372715908	2.15
C 	2.6799618632533395	2.6329839368115566	2.15
C 	4.097159817621485	2.7221464745431816	2.15
C 	4.728541772064082	3.9940571740831476	2.15
C 	6.145739726432227	4.083219711814772	2.15
C 	6.777121680874824	5.355130411354738	2.15
C 	8.19431963524297	5.444292949086363	2.15
C 	8.825701589685567	6.716203648626329	2.15
C 	10.242899544053712	6.805366186357953	2.15
C 	10.874281498496309	8.07727688589792	2.15
C 	12.291479452864454	8.166439423629544	2.15
C 	12.922861407307051	9.43835012316951	2.15
C 	14.340059361675198	9.527512660901136	2.15
C 	14.971441316117794	10.7994233604411	2.15
C 	16.38863927048594	10.888585898172726	2.15
C 	17.020021224928538	12.160496597712694	2.15
C 	18.43721917929668	12.249659135444317	2.15
C 	19.068601133739275	13.52156983498428	2.15
C 	20.485799088107424	13.610732372715907	2.15
C 	21.11718104255002	14.882643072255874	2.15
C 	22.534378996918164	14.9718056099875	2.15
C 	23.165760951360763	16.243716309527468	2.15
C 	24.58295890572891	16.33287884725909	2.15
C 	25.214340860171507	17.604789546799054	2.15
C 	26.63153881453965	17.69395208453068	2.15
C 	27.262920768982248	18.965862784070648	2.15
C 	28.680118723350397	19.055025321802272	2.15
C 	29.311500677792992	20.326936021342238	2.15
C 	30.728698632161137	20.416098559073863	2.15
C 	31.360080586603733	21.688009258613825	2.15
C 	32.77727854097188	21.777171796345453	2.15
C 	33.40866049541447	23.04908249588542	2.15
C 	34.82585844978262	23.138245033617046	2.15
C 	35.45724040422522	24.410155733157012	2.15
C 	36.87443835859336	24.499318270888633	2.15
C 	37.50582031303596	25.771228970428602	2.15
C 	38.9230182674041	25.860391508160227	2.15
C 	39.554400221846706	27.132302207700192	2.15
C 	40.97159817621485	27.221464745431813	2.15
C 	41.60298013065744	28.49337544497178	2.15
C 	43.020178085025584	28.582537982703407	2.15
C 	43.65156003946819	29.854448682243373	2.15
C 	45.06875799383633	29.943611219975	2.15
C 	45.70013994827893	31.215521919514966	2.15
C 	47.11733790264707	31.304684457246587	2.15
C 	47.74871985708967	32.57659515678655	2.15
C 	49.16591781145782	32.66575769451818	2.15
C 	49.79729976590042	33.93766839405814	2.15
C 	51.21449772026856	34.026830931789775	2.15
C 	51.845879674711156	35.29874163132974	2.15
C 	53.2630776290793	35.38790416906136	2.15
C 	53.8944595835219	36.65981486860132	2.15
C 	55.31165753789004	36.748977406332955	2.15
C 	55.94303949233264	38.02088810587292	2.15
C 	57.36023744670079	38.110050643604545	2.15
C 	57.99161940114339	39.38196134314451	2.15
C 	59.40881735551152	39.471123880876135	2.15
C 	60.04019930995412	40.7430345804161	2.15
C 	61.457397264322275	40.832197118147725	2.15
C 	62.08877921876487	42.104107817687684	2.15
C 	63.50597717313301	42.19327035541932	2.15
C 	64.1373591275756	43.46518105495929	2.15
C 	65.55455708194376	43.554343592690905	2.15
C 	66.18593903638636	44.82625429223087	2.15
C 	67.60313699075449	44.91541682996249	2.15
C 	68.2345189451971	46.18732752950246	2.15
C 	69.65171689956524	46.27649006723409	2.15
C 	1.894145863327791	3.8157320986198977	2.15
C 	2.525527817770388	5.087642798159864	2.15
C 	3.9427257721385334	5.176805335891489	2.15
C 	4.574107726581131	6.448716035431454	2.15
C 	5.991305680949276	6.537878573163079	2.15
C 	6.622687635391873	7.809789272703045	2.15
C 	8.039885589760019	7.898951810434669	2.15
C 	8.671267544202616	9.170862509974636	2.15
C 	10.08846549857076	9.26002504770626	2.15
C 	10.719847453013358	10.531935747246226	2.15
C 	12.137045407381505	10.621098284977853	2.15
C 	12.7684273618241	11.893008984517817	2.15
C 	14.185625316192246	11.982171522249443	2.15
C 	14.817007270634845	13.25408222178941	2.15
C 	16.234205225002988	13.343244759521033	2.15
C 	16.865587179445587	14.615155459061	2.15
C 	18.28278513381373	14.704317996792621	2.15
C 	18.914167088256328	15.97622869633259	2.15
C 	20.33136504262447	16.06539123406421	2.15
C 	20.962746997067068	17.33730193360418	2.15
C 	22.379944951435213	17.426464471335805	2.15
C 	23.011326905877812	18.698375170875774	2.15
C 	24.428524860245957	18.787537708607395	2.15
C 	25.059906814688556	20.05944840814736	2.15
C 	26.4771047690567	20.148610945878985	2.15
C 	27.108486723499297	21.42052164541895	2.15
C 	28.525684677867442	21.50968418315058	2.15
C 	29.157066632310038	22.78159488269054	2.15
C 	30.574264586678186	22.87075742042217	2.15
C 	31.20564654112078	24.142668119962135	2.15
C 	32.62284449548893	24.231830657693763	2.15
C 	33.25422644993152	25.50374135723372	2.15
C 	34.67142440429967	25.592903894965353	2.15
C 	35.30280635874227	26.864814594505315	2.15
C 	36.720004313110415	26.95397713223694	2.15
C 	37.35138626755301	28.2258878317769	2.15
C 	38.76858422192115	28.315050369508537	2.15
C 	39.39996617636375	29.586961069048495	2.15
C 	40.817164130731896	29.676123606780124	2.15
C 	41.44854608517449	30.948034306320086	2.15
C 	42.86574403954264	31.037196844051717	2.15
C 	43.497125993985236	32.30910754359168	2.15
C 	44.91432394835338	32.39827008132331	2.15
C 	45.54570590279597	33.67018078086327	2.15
C 	46.96290385716412	33.759343318594894	2.15
C 	47.59428581160672	35.03125401813486	2.15
C 	49.011483765974866	35.120416555866484	2.15
C 	49.64286572041746	36.39232725540645	2.15
C 	51.06006367478561	36.48148979313808	2.15
C 	51.691445629228205	37.75340049267804	2.15
C 	53.108643583596354	37.84256303040967	2.15
C 	53.74002553803894	39.11447372994963	2.15
C 	55.15722349240709	39.20363626768126	2.15
C 	55.78860544684969	40.47554696722123	2.15
C 	57.205803401217835	40.56470950495286	2.15
C 	57.83718535566043	41.83662020449282	2.15
C 	59.25438331002857	41.92578274222444	2.15
C 	59.88576526447117	43.19769344176441	2.15
C 	61.30296321883932	43.28685597949604	2.15
C 	61.93434517328191	44.558766679036005	2.15
C 	63.351543127650054	44.64792921676762	2.15
C 	63.982925082092656	45.919839916307595	2.15
C 	65.4001230364608	46.00900245403921	2.15
C 	5.836871635466324	8.992537434511386	2.15
C 	6.468253589908922	10.264448134051353	2.15
C 	7.885451544277067	10.353610671782977	2.15
C 	8.516833498719665	11.625521371322943	2.15
C 	9.934031453087808	11.714683909054568	2.15
C 	10.565413407530405	12.986594608594533	2.15
C 	11.982611361898552	13.075757146326158	2.15
C 	12.613993316341151	14.347667845866125	2.15
C 	14.031191270709297	14.436830383597751	2.15
C 	14.662573225151892	15.708741083137715	2.15
C 	16.079771179520037	15.797903620869338	2.15
C 	16.711153133962632	17.069814320409307	2.15
C 	18.12835108833078	17.15897685814093	2.15
C 	18.759733042773377	18.430887557680897	2.15
C 	20.17693099714152	18.52005009541252	2.15
C 	20.808312951584117	19.791960794952487	2.15
C 	22.225510905952262	19.881123332684112	2.15
C 	22.85689286039486	21.15303403222408	2.15
C 	24.27409081476301	21.242196569955706	2.15
C 	24.905472769205605	22.514107269495668	2.15
C 	26.322670723573747	22.603269807227292	2.15
C 	26.954052678016346	23.875180506767258	2.15
C 	28.37125063238449	23.964343044498886	2.15
C 	29.00263258682709	25.23625374403885	2.15
C 	30.419830541195235	25.32541628177048	2.15
C 	31.05121249563783	26.597326981310438	2.15
C 	32.468410450005976	26.686489519042066	2.15
C 	33.09979240444857	27.95840021858203	2.15
C 	34.51699035881672	28.047562756313656	2.15
C 	35.148372313259316	29.319473455853625	2.15
C 	36.56557026762746	29.408635993585243	2.15
C 	37.19695222207006	30.680546693125212	2.15
C 	38.6141501764382	30.769709230856837	2.15
C 	39.245532130880804	32.041619930396806	2.15
C 	40.66273008524894	32.13078246812842	2.15
C 	41.29411203969154	33.402693167668396	2.15
C 	42.71130999405968	33.49185570540002	2.15
C 	43.342691948502285	34.763766404939986	2.15
C 	44.75988990287043	34.85292894267161	2.15
C 	45.39127185731303	36.124839642211576	2.15
C 	46.808469811681164	36.2140021799432	2.15
C 	47.439851766123766	37.485912879483166	2.15
C 	48.857049720491915	37.57507541721479	2.15
C 	49.48843167493451	38.846986116754756	2.15
C 	50.90562962930266	38.93614865448638	2.15
C 	51.537011583745254	40.208059354026354	2.15
C 	52.9542095381134	40.29722189175797	2.15
C 	53.585591492556	41.56913259129794	2.15
C 	55.00278944692414	41.65829512902957	2.15
C 	55.634171401366736	42.930205828569534	2.15
C 	57.051369355734884	43.01936836630116	2.15
C 	57.68275131017748	44.29127906584112	2.15
C 	59.09994926454563	44.380441603572756	2.15
C 	59.73133121898822	45.65235230311271	2.15
C 	61.14852917335637	45.74151484084434	2.15
C 	7.731017498794116	12.808269533131286	2.15
C 	8.362399453236712	14.08018023267125	2.15
C 	9.779597407604857	14.169342770402876	2.15
C 	10.410979362047454	15.44125346994284	2.15
C 	11.8281773164156	15.530416007674464	2.15
C 	12.459559270858199	16.802326707214434	2.15
C 	13.876757225226344	16.891489244946058	2.15
C 	14.50813917966894	18.163399944486024	2.15
C 	15.925337134037086	18.252562482217648	2.15
C 	16.55671908847968	19.524473181757614	2.15
C 	17.973917042847827	19.61363571948924	2.15
C 	18.605298997290422	20.885546419029204	2.15
C 	20.022496951658567	20.97470895676083	2.15
C 	20.653878906101163	22.246619656300794	2.15
C 	22.07107686046931	22.335782194032422	2.15
C 	22.702458814911907	23.607692893572388	2.15
C 	24.119656769280056	23.696855431304012	2.15
C 	24.75103872372265	24.968766130843974	2.15
C 	26.1682366780908	25.057928668575602	2.15
C 	26.799618632533395	26.329839368115568	2.15
C 	28.21681658690154	26.419001905847193	2.15
C 	28.84819854134414	27.69091260538716	2.15
C 	30.26539649571228	27.78007514311878	2.15
C 	30.89677845015488	29.05198584265875	2.15
C 	32.313976404523025	29.141148380390373	2.15
C 	32.94535835896562	30.413059079930342	2.15
C 	34.36255631333377	30.502221617661966	2.15
C 	34.993938267776365	31.774132317201936	2.15
C 	36.411136222144506	31.863294854933553	2.15
C 	37.04251817658711	33.13520555447352	2.15
C 	38.45971613095525	33.22436809220515	2.15
C 	39.09109808539785	34.49627879174511	2.15
C 	40.508296039765995	34.58544132947674	2.15
C 	41.13967799420859	35.8573520290167	2.15
C 	42.55687594857673	35.94651456674833	2.15
C 	43.188257903019334	37.21842526628829	2.15
C 	44.605455857387476	37.307587804019924	2.15
C 	45.23683781183008	38.57949850355989	2.15
C 	46.65403576619822	38.66866104129151	2.15
C 	47.285417720640815	39.94057174083147	2.15
C 	48.702615675008964	40.0297342785631	2.15
C 	49.33399762945156	41.30164497810307	2.15
C 	50.75119558381971	41.390807515834695	2.15
C 	51.382577538262304	42.66271821537466	2.15
C 	52.79977549263045	42.75188075310628	2.15
C 	53.43115744707305	44.02379145264624	2.15
C 	54.84835540144119	44.112953990377875	2.15
C 	55.479737355883785	45.38486468991783	2.15
C 	56.89693531025193	45.474027227649465	2.15
C 	57.52831726469453	46.74593792718944	2.15
C 	58.94551521906267	46.835100464921055	2.15
C 	9.625163362121906	16.62400163175118	2.15
C 	10.256545316564502	17.895912331291147	2.15
C 	11.673743270932649	17.98507486902277	2.15
C 	12.305125225375246	19.25698556856274	2.15
C 	13.722323179743393	19.346148106294365	2.15
C 	14.35370513418599	20.61805880583433	2.15
C 	15.770903088554133	20.707221343565955	2.15
C 	16.40228504299673	21.979132043105917	2.15
C 	17.819482997364876	22.068294580837545	2.15
C 	18.450864951807475	23.34020528037751	2.15
C 	19.868062906175616	23.429367818109135	2.15
C 	20.499444860618215	24.701278517649097	2.15
C 	21.91664281498636	24.79044105538073	2.15
C 	22.548024769428956	26.06235175492069	2.15
C 	23.965222723797105	26.151514292652315	2.15
C 	24.596604678239704	27.423424992192285	2.15
C 	26.013802632607845	27.512587529923906	2.15
C 	26.645184587050444	28.78449822946387	2.15
C 	28.062382541418593	28.873660767195503	2.15
C 	28.69376449586119	30.145571466735465	2.15
C 	30.11096245022933	30.23473400446709	2.15
C 	30.74234440467193	31.50664470400706	2.15
C 	32.159542359040074	31.595807241738676	2.15
C 	32.79092431348267	32.86771794127864	2.15
C 	34.20812226785082	32.95688047901028	2.15
C 	34.839504222293414	34.22879117855024	2.15
C 	36.25670217666156	34.31795371628186	2.15
C 	36.88808413110415	35.58986441582182	2.15
C 	38.3052820854723	35.67902695355345	2.15
C 	38.936664039914895	36.95093765309342	2.15
C 	40.35386199428304	37.04010019082504	2.15
C 	40.98524394872564	38.312010890365	2.15
C 	42.40244190309379	38.401173428096634	2.15
C 	43.03382385753638	39.6730841276366	2.15
C 	44.451021811904525	39.762246665368224	2.15
C 	45.08240376634712	41.03415736490819	2.15
C 	46.49960172071527	41.123319902639814	2.15
C 	47.130983675157864	42.39523060217978	2.15
C 	48.54818162952602	42.48439313991141	2.15
C 	49.17956358396861	43.75630383945137	2.15
C 	50.59676153833676	43.845466377182994	2.15
C 	51.22814349277935	45.11737707672296	2.15
C 	52.645341447147494	45.206539614454584	2.15
C 	53.2767234015901	46.47845031399455	2.15
C 	54.69392135595824	46.56761285172618	2.15
C 	11.5193092254497	20.43973373037108	2.15
C 	12.150691179892295	21.711644429911043	2.15
C 	13.56788913426044	21.80080696764267	2.15
C 	14.199271088703037	23.072717667182634	2.15
C 	15.616469043071183	23.16188020491426	2.15
C 	16.24785099751378	24.433790904454227	2.15
C 	17.665048951881925	24.52295344218585	2.15
C 	18.29643090632452	25.794864141725814	2.15
C 	19.713628860692666	25.884026679457442	2.15
C 	20.345010815135264	27.155937378997407	2.15
C 	21.76220876950341	27.245099916729036	2.15
C 	22.39359072394601	28.517010616269	2.15
C 	23.81078867831415	28.60617315400062	2.15
C 	24.44217063275675	29.878083853540588	2.15
C 	25.859368587124894	29.967246391272212	2.15
C 	26.490750541567493	31.23915709081218	2.15
C 	27.90794849593564	31.328319628543806	2.15
C 	28.539330450378237	32.600230328083775	2.15
C 	29.95652840474638	32.68939286581539	2.15
C 	30.587910359188978	33.96130356535536	2.15
C 	32.00510831355712	34.05046610308699	2.15
C 	32.63649026799972	35.322376802626955	2.15
C 	34.05368822236787	35.41153934035858	2.15
C 	34.68507017681046	36.683450039898545	2.15
C 	36.102268131178604	36.77261257763017	2.15
C 	36.7336500856212	38.044523277170136	2.15
C 	38.15084803998935	38.13368581490176	2.15
C 	38.78222999443195	39.405596514441726	2.15
C 	40.199427948800086	39.49475905217334	2.15
C 	40.83080990324269	40.766669751713316	2.15
C 	42.24800785761083	40.85583228944494	2.15
C 	42.87938981205343	42.127742988984906	2.15
C 	44.29658776642158	42.21690552671653	2.15
C 	44.927969720864176	43.4888162262565	2.15
C 	46.34516767523232	43.57797876398812	2.15
C 	46.97654962967491	44.849889463528086	2.15
C 	48.39374758404306	44.93905200125971	2.15
C 	49.02512953848566	46.210962700799676	2.15
C 	50.442327492853806	46.30012523853131	2.15
C 	15.462034997588232	25.616539066262572	2.15
C 	16.09341695203083	26.888449765802534	2.15
C 	17.51061490639897	26.97761230353416	2.15
C 	18.14199686084157	28.249523003074124	2.15
C 	19.559194815209715	28.338685540805752	2.15
C 	20.190576769652314	29.610596240345718	2.15
C 	21.60777472402046	29.699758778077342	2.15
C 	22.239156678463054	30.971669477617304	2.15
C 	23.6563546328312	31.06083201534893	2.15
C 	24.2877365872738	32.332742714888894	2.15
C 	25.704934541641943	32.421905252620526	2.15
C 	26.336316496084542	33.69381595216049	2.15
C 	27.753514450452688	33.782978489892116	2.15
C 	28.384896404895283	35.054889189432075	2.15
C 	29.802094359263428	35.144051727163706	2.15
C 	30.433476313706024	36.41596242670367	2.15
C 	31.850674268074172	36.505124964435296	2.15
C 	32.48205622251677	37.77703566397526	2.15
C 	33.89925417688492	37.86619820170689	2.15
C 	34.530636131327505	39.13810890124685	2.15
C 	35.94783408569565	39.22727143897848	2.15
C 	36.57921604013825	40.499182138518435	2.15
C 	37.9964139945064	40.58834467625007	2.15
C 	38.62779594894899	41.86025537579004	2.15
C 	40.044993903317135	41.94941791352166	2.15
C 	40.67637585775974	43.22132861306162	2.15
C 	42.093573812127886	43.31049115079325	2.15
C 	42.724955766570474	44.58240185033321	2.15
C 	44.14215372093862	44.671564388064844	2.15
C 	44.77353567538122	45.94347508760481	2.15
C 	46.19073362974937	46.03263762533643	2.15
C 	17.356180860916023	29.432271164882465	2.15
C 	17.98756281535862	30.704181864422434	2.15
C 	19.404760769726764	30.79334440215405	2.15
C 	20.03614272416936	32.06525510169402	2.15
C 	21.453340678537508	32.15441763942565	2.15
C 	22.084722632980103	33.42632833896561	2.15
C 	23.501920587348252	33.51549087669724	2.15
C 	24.133302541790847	34.78740157623721	2.15
C 	25.550500496158993	34.876564113968826	2.15
C 	26.181882450601588	36.14847481350879	2.15
C 	27.599080404969737	36.23763735124042	2.15
C 	28.230462359412332	37.50954805078039	2.15
C 	29.647660313780477	37.59871058851201	2.15
C 	30.279042268223076	38.87062128805198	2.15
C 	31.696240222591218	38.9597838257836	2.15
C 	32.32762217703382	40.23169452532357	2.15
C 	33.744820131401966	40.3208570630552	2.15
C 	34.37620208584456	41.59276776259516	2.15
C 	35.7934000402127	41.68193030032678	2.15
C 	36.4247819946553	42.95384099986675	2.15
C 	37.84197994902345	43.04300353759837	2.15
C 	38.47336190346604	44.31491423713834	2.15
C 	39.890559857834184	44.404076774869964	2.15
C 	40.52194181227678	45.67598747440993	2.15
C 	41.93913976664493	45.76515001214156	2.15
C 	19.250326724243813	33.24800326350236	2.15
C 	19.88170867868641	34.51991396304233	2.15
C 	21.298906633054557	34.60907650077396	2.15
C 	21.930288587497152	35.880987200313925	2.15
C 	23.347486541865297	35.97014973804554	2.15
C 	23.978868496307896	37.24206043758551	2.15
C 	25.39606645067604	37.33122297531713	2.15
C 	26.02744840511864	38.603133674857105	2.15
C 	27.444646359486786	38.69229621258873	2.15
C 	28.07602831392938	39.964206912128695	2.15
C 	29.493226268297526	40.05336944986031	2.15
C 	30.12460822274012	41.325280149400285	2.15
C 	31.541806177108267	41.41444268713191	2.15
C 	32.173188131550866	42.686353386671875	2.15
C 	33.59038608591901	42.7755159244035	2.15
C 	34.22176804036161	44.04742662394347	2.15
C 	35.63896599472975	44.13658916167509	2.15
C 	36.27034794917235	45.408499861215056	2.15
C 	37.687545903540496	45.49766239894668	2.15
C 	38.31892785798309	46.76957309848665	2.15
C 	39.73612581235123	46.85873563621827	2.15
C 	21.144472587571602	37.06373536212226	2.15
C 	21.7758545420142	38.335646061662224	2.15
C 	23.193052496382347	38.42480859939385	2.15
C 	23.824434450824942	39.696719298933814	2.15
C 	25.24163240519309	39.785881836665446	2.15
C 	25.873014359635686	41.057792536205405	2.15
C 	27.29021231400383	41.14695507393703	2.15
C 	27.92159426844643	42.418865773477	2.15
C 	29.338792222814575	42.508028311208626	2.15
C 	29.97017417725717	43.779939010748585	2.15
C 	31.38737213162532	43.86910154848022	2.15
C 	32.018754086067915	45.14101224802018	2.15
C 	33.43595204043606	45.23017478575181	2.15
C 	34.06733399487866	46.50208548529177	2.15
C 	35.4845319492468	46.59124802302339	2.15
C 	25.087198359710136	42.240540698013746	2.15
C 	25.718580314152735	43.51245139755372	2.15
C 	27.13577826852088	43.60161393528534	2.15
C 	27.76716022296348	44.87352463482531	2.15
C 	29.184358177331625	44.96268717255693	2.15
C 	29.815740131774223	46.2345978720969	2.15
C 	31.232938086142365	46.32376040982852	2.15
H 	51.474724057350166	-1.4038814834791142	2.15
H 	53.97977114570511	-1.246277279460546	2.15
H 	56.02835105451587	0.11479595781105012	2.15
H 	57.144385354270035	2.3630324760119756	2.15
H 	47.22313019424573	-1.671369096673988	2.15
H 	49.72817728260067	-1.5137648926554186	2.15
H 	57.92249691784366	3.930528056430954	2.15
H 	59.03853121759782	6.178764574631886	2.15
H 	42.97153633114131	-1.9388567098688778	2.15
H 	45.47658341949625	-1.7812525058502837	2.15
H 	59.81664278117146	7.746260155050852	2.15
H 	60.93267708092562	9.994496673251774	2.15
H 	40.768522376847606	-0.845271085792153	2.15
H 	61.710788644499225	11.56199225367074	2.15
H 	62.82682294425341	13.810228771871673	2.15
H 	36.51692851374315	-1.1127586989870109	2.15
H 	39.02197560209812	-0.9551544949684484	2.15
H 	63.60493450782703	15.37772435229065	2.15
H 	65.65351441663778	16.738797589562243	2.15
H 	66.76954871639194	18.987034107763176	2.15
H 	32.26533465063873	-1.3802463121819013	2.15
H 	34.770381738993684	-1.2226421081633165	2.15
H 	67.54766027996557	20.55452968818213	2.15
H 	68.66369457971973	22.802766206383055	2.15
H 	28.01374078753428	-1.6477339253767687	2.15
H 	30.51878787588925	-1.4901297213581945	2.15
H 	69.44180614329332	24.370261786802008	2.15
H 	70.55784044304752	26.61849830500295	2.15
H 	23.762146924429846	-1.915221538571642	2.15
H 	26.26719401278481	-1.7576173345530695	2.15
H 	71.33595200662116	28.185993885421937	2.15
H 	72.45198630637532	30.434230403622852	2.15
H 	21.559132970136154	-0.8216359144949295	2.15
H 	73.2300978699489	32.001725984041805	2.15
H 	75.27867777875967	33.36279922131341	2.15
H 	76.39471207851385	35.61103573951434	2.15
H 	17.307539107031722	-1.0891235276898026	2.15
H 	19.812586195386682	-0.9315193236712279	2.15
H 	77.1728236420875	37.17853131993333	2.15
H 	78.28885794184164	39.42676783813423	2.15
H 	13.05594524392729	-1.35661114088468	2.15
H 	15.560992332282247	-1.1990069368661018	2.15
H 	79.06696950541526	40.99426341855322	2.15
H 	80.18300380516943	43.24249993675415	2.15
H 	8.804351380822851	-1.6240987540795524	2.15
H 	11.30939846917781	-1.4664945500609776	2.15
H 	80.02856975968649	45.69715879810244	2.15
H 	4.552757517718414	-1.8915863672744266	2.15
H 	7.057804606073376	-1.7339821632558499	2.15
H 	76.13450988273074	47.630186908266225	2.15
H 	78.63955697108565	47.7877911122848	2.15
H 	2.3497435634247195	-0.7980007431977104	2.15
H 	71.88291601962632	47.362699295071366	2.15
H 	74.38796310798125	47.52030349908992	2.15
H 	0.9607307748239264	1.2926315709846392	2.15
H 	67.63132215652185	47.09521168187647	2.15
H 	70.1363692448768	47.25281588589505	2.15
H 	0.8062967293409748	3.747290432332946	2.15
H 	1.9223310290951432	5.995526950533873	2.15
H 	3.9709109379058862	7.356600187805463	2.15
H 	63.37972829341742	46.82772406868161	2.15
H 	65.88477538177237	46.98532827270017	2.15
H 	4.749022501479509	8.924095768224431	2.15
H 	5.865056801233679	11.172332286425362	2.15
H 	61.63318151866796	46.71784065950529	2.15
H 	6.643168364807299	12.739827866844337	2.15
H 	7.759202664561465	14.988064385045258	2.15
H 	56.925120476019295	47.653822079563454	2.15
H 	59.43016756437424	47.811426283582016	2.15
H 	8.53731422813509	16.55555996546423	2.15
H 	9.653348527889253	18.803796483665153	2.15
H 	52.673526612914856	47.38633446636856	2.15
H 	55.178573701269805	47.54393867038714	2.15
H 	10.431460091462883	20.37129206408413	2.15
H 	11.547494391217047	22.61952858228505	2.15
H 	13.596074300027789	23.98060181955664	2.15
H 	48.42193274981041	47.118846853173686	2.15
H 	50.92697983816538	47.27645105719227	2.15
H 	14.374185863601415	25.548097399975624	2.15
H 	15.490220163355582	27.79633391817654	2.15
H 	44.17033888670597	46.85135923997881	2.15
H 	46.67538597506094	47.00896344399739	2.15
H 	16.26833172692921	29.363829498595514	2.15
H 	17.384366026683377	31.612066016796444	2.15
H 	42.4237921119565	46.74147583080252	2.15
H 	18.162477590256998	33.17956159721541	2.15
H 	19.278511890011167	35.42779811541634	2.15
H 	37.71573106930786	47.67745725086067	2.15
H 	40.2207781576628	47.83506145487923	2.15
H 	20.056623453584788	36.99529369583531	2.15
H 	21.172657753338953	39.243530214036234	2.15
H 	23.22123766214969	40.60460345130782	2.15
H 	33.464137206203425	47.40996963766579	2.15
H 	35.96918429455837	47.56757384168435	2.15
H 	23.99934922572332	42.172099031726795	2.15
H 	25.115383525477494	44.42033554992773	2.15
H 	27.163963434288235	45.78140878719932	2.15
H 	29.212543343098986	47.142482024470915	2.15
H 	31.71759043145393	47.300086228489484	2.15
