2320

C 	0.0	0.0	0.0
C 	1.2297560733739028	0.7099999999999999	0.0
C 	2.4595121467478056	-2.3647750424515833e-16	0.0
C 	3.689268220121708	0.7099999999999995	0.0
C 	4.919024293495611	-4.729550084903167e-16	0.0
C 	6.148780366869514	0.7099999999999993	0.0
C 	7.378536440243416	-7.09432512735475e-16	0.0
C 	8.60829251361732	0.7099999999999991	0.0
C 	9.838048586991222	-9.459100169806333e-16	0.0
C 	11.067804660365125	0.7099999999999989	0.0
C 	12.297560733739026	-1.1823875212257916e-15	0.0
C 	13.527316807112928	0.7099999999999986	0.0
C 	14.757072880486833	-1.41886502547095e-15	0.0
C 	15.986828953860735	0.7099999999999984	0.0
C 	17.21658502723464	-7.671641100159832e-16	0.0
C 	18.44634110060854	0.7099999999999982	0.0
C 	19.676097173982445	-1.8918200339612667e-15	0.0
C 	20.905853247356347	0.7099999999999989	0.0
C 	22.135609320730246	-2.128297538206425e-15	0.0
C 	23.36536539410415	0.7099999999999967	0.0
C 	24.59512146747805	-2.364775042451583e-15	0.0
C 	25.824877540851954	0.7099999999999983	0.0
C 	27.05463361422586	-8.248957072964913e-16	0.0
C 	28.284389687599763	0.7099999999999999	0.0
C 	29.514145760973665	-2.8377300509419e-15	0.0
C 	30.743901834347565	0.7099999999999961	0.0
C 	31.97365790772147	-3.0742075551870582e-15	0.0
C 	33.20341398109537	0.7099999999999976	0.0
C 	34.43317005446928	-1.5343282200319664e-15	0.0
C 	35.66292612784318	0.7099999999999992	0.0
C 	36.892682201217085	-1.7708057242771246e-15	0.0
C 	38.122438274590984	0.7099999999999972	0.0
C 	39.35219434796489	-3.783640067922533e-15	0.0
C 	40.58195042133879	0.7099999999999969	0.0
C 	41.811706494712695	-4.67403893367191e-16	0.0
C 	43.0414625680866	0.7100000000000002	0.0
C 	44.27121864146049	-4.25659507641285e-15	0.0
C 	45.5009747148344	0.7099999999999964	0.0
C 	46.730730788208305	-9.403589018575075e-16	0.0
C 	47.96048686158221	0.7099999999999997	0.0
C 	49.1902429349561	-4.729550084903166e-15	0.0
C 	50.41999900833001	0.709999999999996	0.0
C 	51.64975508170391	-1.413313910347824e-15	0.0
C 	52.879511155077815	0.7099999999999993	0.0
C 	54.10926722845172	-1.6497914145929826e-15	0.0
C 	55.33902330182562	0.7099999999999991	0.0
C 	56.56877937519952	-5.438982597638641e-15	0.0
C 	57.798535448573425	0.7099999999999953	0.0
C 	59.02829152194733	-5.6754601018838e-15	0.0
C 	60.25804759532124	0.709999999999995	0.0
C 	1.2297560733739028	2.1299999999999994	0.0
C 	2.4595121467478056	2.8399999999999994	0.0
C 	3.689268220121708	2.1299999999999994	0.0
C 	4.919024293495611	2.8399999999999994	0.0
C 	6.148780366869514	2.129999999999999	0.0
C 	7.378536440243416	2.839999999999999	0.0
C 	8.60829251361732	2.1299999999999986	0.0
C 	9.838048586991222	2.8399999999999985	0.0
C 	11.067804660365123	2.129999999999998	0.0
C 	12.297560733739028	2.839999999999999	0.0
C 	13.527316807112928	2.1299999999999977	0.0
C 	14.757072880486833	2.839999999999998	0.0
C 	15.986828953860735	2.129999999999998	0.0
C 	17.216585027234636	2.839999999999997	0.0
C 	18.446341100608542	2.129999999999998	0.0
C 	19.676097173982445	2.8399999999999985	0.0
C 	20.905853247356344	2.1299999999999977	0.0
C 	22.13560932073025	2.8399999999999985	0.0
C 	23.36536539410415	2.129999999999997	0.0
C 	24.595121467478055	2.839999999999997	0.0
C 	25.824877540851954	2.1299999999999963	0.0
C 	27.05463361422586	2.839999999999997	0.0
C 	28.284389687599763	2.129999999999998	0.0
C 	29.514145760973665	2.8399999999999985	0.0
C 	30.743901834347568	2.129999999999996	0.0
C 	31.97365790772147	2.8399999999999967	0.0
C 	33.20341398109537	2.129999999999996	0.0
C 	34.43317005446928	2.8399999999999963	0.0
C 	35.66292612784318	2.1299999999999972	0.0
C 	36.89268220121708	2.8399999999999963	0.0
C 	38.122438274590984	2.129999999999997	0.0
C 	39.35219434796489	2.8399999999999976	0.0
C 	40.58195042133879	2.1299999999999986	0.0
C 	41.81170649471269	2.839999999999996	0.0
C 	43.0414625680866	2.129999999999998	0.0
C 	44.2712186414605	2.8399999999999954	0.0
C 	45.5009747148344	2.129999999999998	0.0
C 	46.7307307882083	2.8399999999999954	0.0
C 	47.96048686158221	2.1299999999999977	0.0
C 	49.19024293495611	2.839999999999995	0.0
C 	50.41999900833001	2.1299999999999977	0.0
C 	51.64975508170391	2.8399999999999945	0.0
C 	52.879511155077815	2.1299999999999972	0.0
C 	54.10926722845171	2.8399999999999945	0.0
C 	55.33902330182563	2.130000000000001	0.0
C 	56.56877937519952	2.8399999999999976	0.0
C 	57.798535448573425	2.129999999999997	0.0
C 	59.028291521947324	2.839999999999994	0.0
C 	60.25804759532124	2.129999999999997	0.0
C 	61.487803668695136	2.8399999999999936	0.0
C 	2.4595121467478056	4.259999999999999	0.0
C 	3.689268220121708	4.969999999999999	0.0
C 	4.919024293495611	4.259999999999999	0.0
C 	6.148780366869514	4.969999999999999	0.0
C 	7.378536440243416	4.259999999999999	0.0
C 	8.60829251361732	4.969999999999999	0.0
C 	9.83804858699122	4.259999999999998	0.0
C 	11.067804660365125	4.969999999999999	0.0
C 	12.297560733739028	4.259999999999998	0.0
C 	13.52731680711293	4.969999999999998	0.0
C 	14.757072880486831	4.259999999999998	0.0
C 	15.986828953860735	4.969999999999998	0.0
C 	17.21658502723464	4.259999999999997	0.0
C 	18.446341100608542	4.969999999999998	0.0
C 	19.676097173982445	4.259999999999999	0.0
C 	20.905853247356347	4.969999999999997	0.0
C 	22.135609320730246	4.259999999999996	0.0
C 	23.365365394104153	4.969999999999997	0.0
C 	24.595121467478055	4.259999999999998	0.0
C 	25.824877540851958	4.969999999999997	0.0
C 	27.054633614225857	4.259999999999995	0.0
C 	28.28438968759976	4.969999999999996	0.0
C 	29.514145760973665	4.259999999999997	0.0
C 	30.743901834347568	4.969999999999997	0.0
C 	31.97365790772147	4.259999999999996	0.0
C 	33.20341398109537	4.969999999999995	0.0
C 	34.43317005446927	4.2599999999999945	0.0
C 	35.66292612784318	4.969999999999995	0.0
C 	36.892682201217085	4.259999999999996	0.0
C 	38.122438274590984	4.969999999999997	0.0
C 	39.35219434796489	4.259999999999997	0.0
C 	40.58195042133879	4.969999999999994	0.0
C 	41.81170649471269	4.259999999999995	0.0
C 	43.041462568086594	4.969999999999996	0.0
C 	44.2712186414605	4.259999999999997	0.0
C 	45.500974714834406	4.969999999999998	0.0
C 	46.7307307882083	4.259999999999994	0.0
C 	47.960486861582204	4.9699999999999935	0.0
C 	49.19024293495611	4.259999999999996	0.0
C 	50.41999900833001	4.969999999999997	0.0
C 	51.64975508170391	4.259999999999993	0.0
C 	52.879511155077815	4.9699999999999935	0.0
C 	54.10926722845171	4.259999999999996	0.0
C 	55.33902330182562	4.969999999999997	0.0
C 	56.568779375199526	4.259999999999996	0.0
C 	57.798535448573425	4.969999999999996	0.0
C 	59.028291521947324	4.259999999999995	0.0
C 	60.25804759532123	4.969999999999996	0.0
C 	61.487803668695136	4.259999999999992	0.0
C 	62.717559742069035	4.969999999999993	0.0
C 	3.6892682201217086	6.389999999999999	0.0
C 	4.919024293495611	7.099999999999999	0.0
C 	6.148780366869514	6.389999999999999	0.0
C 	7.378536440243416	7.099999999999999	0.0
C 	8.608292513617318	6.389999999999998	0.0
C 	9.838048586991222	7.099999999999999	0.0
C 	11.067804660365125	6.389999999999998	0.0
C 	12.297560733739028	7.099999999999998	0.0
C 	13.52731680711293	6.389999999999999	0.0
C 	14.757072880486833	7.099999999999998	0.0
C 	15.986828953860735	6.389999999999998	0.0
C 	17.216585027234636	7.099999999999997	0.0
C 	18.44634110060854	6.389999999999997	0.0
C 	19.676097173982445	7.099999999999998	0.0
C 	20.905853247356347	6.389999999999998	0.0
C 	22.13560932073025	7.099999999999997	0.0
C 	23.365365394104153	6.389999999999998	0.0
C 	24.59512146747805	7.099999999999997	0.0
C 	25.824877540851958	6.389999999999998	0.0
C 	27.054633614225857	7.099999999999997	0.0
C 	28.28438968759976	6.389999999999999	0.0
C 	29.514145760973662	7.099999999999997	0.0
C 	30.743901834347568	6.389999999999999	0.0
C 	31.97365790772147	7.099999999999998	0.0
C 	33.20341398109537	6.389999999999995	0.0
C 	34.43317005446928	7.099999999999994	0.0
C 	35.66292612784318	6.389999999999995	0.0
C 	36.892682201217085	7.099999999999996	0.0
C 	38.122438274590984	6.389999999999996	0.0
C 	39.35219434796489	7.099999999999997	0.0
C 	40.58195042133879	6.389999999999994	0.0
C 	41.811706494712695	7.099999999999995	0.0
C 	43.041462568086594	6.389999999999996	0.0
C 	44.2712186414605	7.099999999999997	0.0
C 	45.500974714834406	6.389999999999998	0.0
C 	46.730730788208305	7.099999999999998	0.0
C 	47.960486861582204	6.389999999999995	0.0
C 	49.19024293495611	7.099999999999996	0.0
C 	50.41999900833001	6.389999999999995	0.0
C 	51.649755081703915	7.099999999999996	0.0
C 	52.879511155077815	6.389999999999995	0.0
C 	54.10926722845172	7.099999999999996	0.0
C 	55.33902330182562	6.389999999999995	0.0
C 	56.568779375199526	7.099999999999995	0.0
C 	57.79853544857343	6.389999999999998	0.0
C 	59.02829152194733	7.099999999999999	0.0
C 	60.25804759532123	6.389999999999994	0.0
C 	61.487803668695136	7.099999999999995	0.0
C 	62.71755974206904	6.389999999999994	0.0
C 	63.94731581544294	7.099999999999995	0.0
C 	4.919024293495611	8.519999999999998	0.0
C 	6.148780366869514	9.229999999999999	0.0
C 	7.378536440243416	8.519999999999998	0.0
C 	8.60829251361732	9.229999999999999	0.0
C 	9.838048586991222	8.519999999999998	0.0
C 	11.067804660365125	9.229999999999999	0.0
C 	12.297560733739028	8.519999999999998	0.0
C 	13.52731680711293	9.229999999999997	0.0
C 	14.757072880486833	8.519999999999998	0.0
C 	15.986828953860737	9.229999999999999	0.0
C 	17.216585027234636	8.519999999999998	0.0
C 	18.44634110060854	9.229999999999997	0.0
C 	19.67609717398244	8.519999999999996	0.0
C 	20.905853247356347	9.229999999999997	0.0
C 	22.13560932073025	8.519999999999998	0.0
C 	23.365365394104153	9.229999999999999	0.0
C 	24.595121467478055	8.519999999999996	0.0
C 	25.824877540851954	9.229999999999995	0.0
C 	27.05463361422586	8.519999999999996	0.0
C 	28.284389687599763	9.229999999999997	0.0
C 	29.514145760973662	8.519999999999996	0.0
C 	30.743901834347565	9.229999999999995	0.0
C 	31.97365790772147	8.52	0.0
C 	33.20341398109537	9.229999999999997	0.0
C 	34.43317005446928	8.519999999999994	0.0
C 	35.66292612784318	9.229999999999995	0.0
C 	36.89268220121708	8.519999999999992	0.0
C 	38.122438274590984	9.229999999999993	0.0
C 	39.35219434796489	8.519999999999998	0.0
C 	40.58195042133879	9.229999999999995	0.0
C 	41.811706494712695	8.519999999999994	0.0
C 	43.0414625680866	9.229999999999995	0.0
C 	44.27121864146049	8.519999999999992	0.0
C 	45.5009747148344	9.229999999999993	0.0
C 	46.730730788208305	8.519999999999998	0.0
C 	47.960486861582204	9.229999999999995	0.0
C 	49.19024293495611	8.519999999999996	0.0
C 	50.41999900833001	9.229999999999993	0.0
C 	51.64975508170391	8.519999999999994	0.0
C 	52.879511155077815	9.229999999999995	0.0
C 	54.10926722845171	8.51999999999999	0.0
C 	55.33902330182562	9.229999999999992	0.0
C 	56.568779375199526	8.519999999999998	0.0
C 	57.798535448573425	9.229999999999995	0.0
C 	59.02829152194733	8.519999999999994	0.0
C 	60.25804759532123	9.229999999999993	0.0
C 	61.48780366869513	8.519999999999992	0.0
C 	62.717559742069035	9.229999999999993	0.0
C 	63.94731581544294	8.519999999999992	0.0
C 	65.17707188881684	9.22999999999999	0.0
C 	6.148780366869514	10.649999999999997	0.0
C 	7.378536440243416	11.359999999999998	0.0
C 	8.608292513617318	10.649999999999997	0.0
C 	9.838048586991222	11.359999999999998	0.0
C 	11.067804660365125	10.649999999999997	0.0
C 	12.297560733739028	11.359999999999996	0.0
C 	13.52731680711293	10.649999999999997	0.0
C 	14.757072880486831	11.359999999999996	0.0
C 	15.986828953860735	10.649999999999997	0.0
C 	17.216585027234636	11.359999999999996	0.0
C 	18.44634110060854	10.649999999999997	0.0
C 	19.676097173982445	11.359999999999998	0.0
C 	20.905853247356347	10.649999999999997	0.0
C 	22.13560932073025	11.359999999999996	0.0
C 	23.365365394104153	10.649999999999997	0.0
C 	24.595121467478055	11.359999999999996	0.0
C 	25.824877540851958	10.649999999999997	0.0
C 	27.05463361422586	11.359999999999996	0.0
C 	28.284389687599763	10.649999999999995	0.0
C 	29.514145760973662	11.359999999999994	0.0
C 	30.743901834347565	10.649999999999995	0.0
C 	31.97365790772147	11.359999999999996	0.0
C 	33.20341398109537	10.649999999999997	0.0
C 	34.43317005446928	11.359999999999998	0.0
C 	35.66292612784318	10.649999999999991	0.0
C 	36.89268220121708	11.359999999999992	0.0
C 	38.122438274590984	10.649999999999993	0.0
C 	39.35219434796489	11.359999999999994	0.0
C 	40.58195042133879	10.649999999999993	0.0
C 	41.811706494712695	11.359999999999994	0.0
C 	43.041462568086594	10.649999999999991	0.0
C 	44.2712186414605	11.359999999999992	0.0
C 	45.5009747148344	10.649999999999993	0.0
C 	46.730730788208305	11.359999999999994	0.0
C 	47.960486861582204	10.649999999999995	0.0
C 	49.19024293495611	11.359999999999996	0.0
C 	50.41999900833001	10.649999999999993	0.0
C 	51.649755081703915	11.359999999999994	0.0
C 	52.879511155077815	10.649999999999995	0.0
C 	54.10926722845172	11.359999999999996	0.0
C 	55.33902330182562	10.649999999999993	0.0
C 	56.568779375199526	11.359999999999994	0.0
C 	57.798535448573425	10.649999999999993	0.0
C 	59.02829152194733	11.359999999999992	0.0
C 	60.25804759532124	10.649999999999995	0.0
C 	61.487803668695136	11.359999999999996	0.0
C 	62.717559742069035	10.649999999999991	0.0
C 	63.94731581544294	11.359999999999992	0.0
C 	65.17707188881684	10.649999999999991	0.0
C 	66.40682796219075	11.359999999999992	0.0
C 	7.378536440243417	12.779999999999998	0.0
C 	8.60829251361732	13.489999999999998	0.0
C 	9.838048586991222	12.78	0.0
C 	11.067804660365125	13.489999999999997	0.0
C 	12.297560733739028	12.779999999999998	0.0
C 	13.527316807112932	13.489999999999998	0.0
C 	14.757072880486833	12.779999999999998	0.0
C 	15.986828953860737	13.489999999999997	0.0
C 	17.216585027234636	12.779999999999996	0.0
C 	18.446341100608542	13.489999999999997	0.0
C 	19.676097173982445	12.779999999999998	0.0
C 	20.905853247356347	13.489999999999997	0.0
C 	22.13560932073025	12.779999999999996	0.0
C 	23.36536539410415	13.489999999999995	0.0
C 	24.595121467478055	12.779999999999996	0.0
C 	25.824877540851958	13.489999999999997	0.0
C 	27.05463361422586	12.779999999999998	0.0
C 	28.284389687599763	13.489999999999997	0.0
C 	29.514145760973662	12.779999999999996	0.0
C 	30.743901834347568	13.489999999999997	0.0
C 	31.97365790772147	12.779999999999996	0.0
C 	33.20341398109537	13.489999999999997	0.0
C 	34.43317005446928	12.779999999999998	0.0
C 	35.66292612784318	13.489999999999995	0.0
C 	36.89268220121708	12.779999999999994	0.0
C 	38.122438274590984	13.489999999999995	0.0
C 	39.35219434796489	12.779999999999996	0.0
C 	40.581950421338796	13.489999999999997	0.0
C 	41.811706494712695	12.779999999999996	0.0
C 	43.041462568086594	13.489999999999993	0.0
C 	44.2712186414605	12.779999999999994	0.0
C 	45.5009747148344	13.489999999999995	0.0
C 	46.730730788208305	12.779999999999996	0.0
C 	47.96048686158221	13.489999999999997	0.0
C 	49.19024293495611	12.779999999999998	0.0
C 	50.41999900833001	13.489999999999995	0.0
C 	51.649755081703915	12.779999999999996	0.0
C 	52.879511155077815	13.489999999999993	0.0
C 	54.10926722845172	12.779999999999998	0.0
C 	55.33902330182563	13.489999999999998	0.0
C 	56.56877937519952	12.779999999999998	0.0
C 	57.798535448573425	13.489999999999997	0.0
C 	59.02829152194733	12.779999999999994	0.0
C 	60.25804759532123	13.489999999999991	0.0
C 	61.487803668695136	12.779999999999998	0.0
C 	62.71755974206904	13.489999999999998	0.0
C 	63.94731581544294	12.779999999999994	0.0
C 	65.17707188881684	13.489999999999995	0.0
C 	66.40682796219075	12.77999999999999	0.0
C 	67.63658403556465	13.489999999999988	0.0
C 	8.60829251361732	14.909999999999998	0.0
C 	9.838048586991222	15.619999999999996	0.0
C 	11.067804660365125	14.909999999999997	0.0
C 	12.297560733739026	15.619999999999996	0.0
C 	13.527316807112934	14.909999999999998	0.0
C 	14.757072880486831	15.619999999999996	0.0
C 	15.986828953860737	14.909999999999998	0.0
C 	17.21658502723464	15.619999999999997	0.0
C 	18.446341100608542	14.909999999999997	0.0
C 	19.676097173982445	15.619999999999996	0.0
C 	20.905853247356347	14.909999999999997	0.0
C 	22.135609320730246	15.619999999999996	0.0
C 	23.365365394104153	14.909999999999995	0.0
C 	24.595121467478055	15.619999999999996	0.0
C 	25.824877540851958	14.909999999999997	0.0
C 	27.05463361422586	15.619999999999996	0.0
C 	28.284389687599763	14.909999999999997	0.0
C 	29.514145760973665	15.619999999999996	0.0
C 	30.743901834347568	14.909999999999997	0.0
C 	31.973657907721474	15.619999999999997	0.0
C 	33.203413981095366	14.909999999999993	0.0
C 	34.43317005446927	15.619999999999994	0.0
C 	35.662926127843185	14.909999999999998	0.0
C 	36.892682201217085	15.619999999999996	0.0
C 	38.122438274590984	14.909999999999995	0.0
C 	39.35219434796489	15.619999999999996	0.0
C 	40.58195042133879	14.909999999999993	0.0
C 	41.811706494712695	15.619999999999994	0.0
C 	43.0414625680866	14.909999999999998	0.0
C 	44.2712186414605	15.619999999999996	0.0
C 	45.5009747148344	14.909999999999995	0.0
C 	46.730730788208305	15.619999999999996	0.0
C 	47.960486861582204	14.909999999999993	0.0
C 	49.19024293495611	15.619999999999994	0.0
C 	50.41999900833002	14.909999999999998	0.0
C 	51.649755081703915	15.619999999999996	0.0
C 	52.87951115507782	14.909999999999997	0.0
C 	54.10926722845171	15.619999999999994	0.0
C 	55.33902330182562	14.909999999999995	0.0
C 	56.568779375199526	15.619999999999994	0.0
C 	57.798535448573425	14.909999999999991	0.0
C 	59.028291521947324	15.619999999999992	0.0
C 	60.25804759532124	14.909999999999998	0.0
C 	61.487803668695136	15.619999999999996	0.0
C 	62.717559742069035	14.909999999999993	0.0
C 	63.94731581544294	15.619999999999994	0.0
C 	65.17707188881684	14.909999999999993	0.0
C 	66.40682796219075	15.619999999999994	0.0
C 	67.63658403556465	14.909999999999997	0.0
C 	68.86634010893854	15.61999999999999	0.0
C 	9.838048586991222	17.039999999999996	0.0
C 	11.067804660365127	17.749999999999996	0.0
C 	12.297560733739028	17.039999999999996	0.0
C 	13.527316807112932	17.749999999999996	0.0
C 	14.757072880486833	17.039999999999996	0.0
C 	15.986828953860735	17.749999999999996	0.0
C 	17.21658502723464	17.039999999999996	0.0
C 	18.446341100608546	17.749999999999996	0.0
C 	19.676097173982445	17.039999999999996	0.0
C 	20.905853247356347	17.749999999999996	0.0
C 	22.13560932073025	17.039999999999996	0.0
C 	23.365365394104153	17.749999999999996	0.0
C 	24.595121467478055	17.039999999999996	0.0
C 	25.82487754085196	17.749999999999996	0.0
C 	27.05463361422586	17.039999999999996	0.0
C 	28.28438968759977	17.75	0.0
C 	29.514145760973665	17.039999999999996	0.0
C 	30.74390183434757	17.749999999999996	0.0
C 	31.973657907721467	17.039999999999992	0.0
C 	33.20341398109537	17.749999999999993	0.0
C 	34.43317005446927	17.039999999999996	0.0
C 	35.66292612784318	17.749999999999996	0.0
C 	36.892682201217085	17.039999999999996	0.0
C 	38.122438274590984	17.749999999999996	0.0
C 	39.35219434796488	17.039999999999992	0.0
C 	40.58195042133879	17.749999999999993	0.0
C 	41.811706494712695	17.039999999999992	0.0
C 	43.041462568086594	17.749999999999993	0.0
C 	44.2712186414605	17.039999999999996	0.0
C 	45.500974714834406	17.749999999999996	0.0
C 	46.7307307882083	17.039999999999992	0.0
C 	47.960486861582204	17.749999999999993	0.0
C 	49.19024293495611	17.039999999999992	0.0
C 	50.41999900833002	17.749999999999993	0.0
C 	51.649755081703915	17.039999999999996	0.0
C 	52.87951115507782	17.749999999999996	0.0
C 	54.10926722845172	17.039999999999992	0.0
C 	55.33902330182562	17.749999999999993	0.0
C 	56.568779375199526	17.039999999999996	0.0
C 	57.79853544857343	17.749999999999996	0.0
C 	59.028291521947324	17.039999999999992	0.0
C 	60.25804759532123	17.749999999999993	0.0
C 	61.487803668695136	17.039999999999996	0.0
C 	62.71755974206904	17.749999999999996	0.0
C 	63.94731581544294	17.04	0.0
C 	65.17707188881684	17.749999999999993	0.0
C 	66.40682796219075	17.039999999999996	0.0
C 	67.63658403556464	17.74999999999999	0.0
C 	68.86634010893856	17.03999999999999	0.0
C 	70.09609618231246	17.74999999999999	0.0
C 	11.067804660365125	19.169999999999995	0.0
C 	12.297560733739026	19.879999999999995	0.0
C 	13.52731680711293	19.169999999999995	0.0
C 	14.757072880486831	19.879999999999995	0.0
C 	15.986828953860737	19.169999999999998	0.0
C 	17.216585027234636	19.879999999999992	0.0
C 	18.446341100608542	19.169999999999995	0.0
C 	19.676097173982445	19.879999999999995	0.0
C 	20.905853247356347	19.169999999999995	0.0
C 	22.135609320730246	19.879999999999995	0.0
C 	23.365365394104153	19.169999999999995	0.0
C 	24.59512146747805	19.879999999999995	0.0
C 	25.824877540851958	19.169999999999995	0.0
C 	27.05463361422586	19.879999999999995	0.0
C 	28.284389687599763	19.169999999999995	0.0
C 	29.51414576097367	19.879999999999995	0.0
C 	30.743901834347565	19.16999999999999	0.0
C 	31.97365790772147	19.879999999999992	0.0
C 	33.20341398109537	19.169999999999995	0.0
C 	34.43317005446927	19.879999999999992	0.0
C 	35.66292612784318	19.169999999999995	0.0
C 	36.89268220121708	19.879999999999992	0.0
C 	38.122438274590984	19.169999999999995	0.0
C 	39.35219434796488	19.879999999999992	0.0
C 	40.58195042133879	19.16999999999999	0.0
C 	41.81170649471269	19.87999999999999	0.0
C 	43.0414625680866	19.169999999999995	0.0
C 	44.27121864146049	19.879999999999992	0.0
C 	45.5009747148344	19.16999999999999	0.0
C 	46.730730788208305	19.879999999999992	0.0
C 	47.960486861582204	19.169999999999995	0.0
C 	49.1902429349561	19.879999999999992	0.0
C 	50.41999900833002	19.169999999999995	0.0
C 	51.649755081703915	19.879999999999992	0.0
C 	52.879511155077815	19.16999999999999	0.0
C 	54.10926722845172	19.879999999999992	0.0
C 	55.33902330182562	19.16999999999999	0.0
C 	56.56877937519952	19.879999999999992	0.0
C 	57.79853544857343	19.169999999999995	0.0
C 	59.02829152194733	19.879999999999992	0.0
C 	60.25804759532123	19.169999999999995	0.0
C 	61.48780366869513	19.879999999999992	0.0
C 	62.717559742069035	19.16999999999999	0.0
C 	63.94731581544294	19.879999999999992	0.0
C 	65.17707188881684	19.169999999999995	0.0
C 	66.40682796219075	19.87999999999999	0.0
C 	67.63658403556465	19.169999999999995	0.0
C 	68.86634010893854	19.87999999999999	0.0
C 	70.09609618231245	19.16999999999999	0.0
C 	71.32585225568636	19.879999999999992	0.0
C 	12.297560733739028	21.299999999999994	0.0
C 	13.527316807112932	22.009999999999994	0.0
C 	14.757072880486831	21.299999999999994	0.0
C 	15.986828953860735	22.009999999999994	0.0
C 	17.216585027234636	21.299999999999994	0.0
C 	18.44634110060854	22.009999999999994	0.0
C 	19.676097173982445	21.299999999999994	0.0
C 	20.905853247356347	22.009999999999994	0.0
C 	22.13560932073025	21.299999999999994	0.0
C 	23.365365394104153	22.009999999999994	0.0
C 	24.595121467478055	21.299999999999994	0.0
C 	25.824877540851958	22.009999999999994	0.0
C 	27.05463361422586	21.299999999999994	0.0
C 	28.284389687599766	22.009999999999994	0.0
C 	29.514145760973662	21.29999999999999	0.0
C 	30.743901834347568	22.00999999999999	0.0
C 	31.97365790772147	21.299999999999994	0.0
C 	33.20341398109537	22.009999999999994	0.0
C 	34.43317005446928	21.299999999999994	0.0
C 	35.662926127843185	22.009999999999994	0.0
C 	36.89268220121708	21.299999999999994	0.0
C 	38.122438274590984	22.009999999999994	0.0
C 	39.35219434796489	21.299999999999994	0.0
C 	40.58195042133879	22.009999999999994	0.0
C 	41.811706494712695	21.299999999999994	0.0
C 	43.0414625680866	22.009999999999994	0.0
C 	44.2712186414605	21.29999999999999	0.0
C 	45.5009747148344	22.00999999999999	0.0
C 	46.730730788208305	21.299999999999994	0.0
C 	47.96048686158221	22.009999999999994	0.0
C 	49.19024293495611	21.299999999999994	0.0
C 	50.41999900833002	22.009999999999994	0.0
C 	51.649755081703915	21.299999999999994	0.0
C 	52.879511155077815	22.00999999999999	0.0
C 	54.10926722845172	21.299999999999994	0.0
C 	55.33902330182563	22.009999999999994	0.0
C 	56.568779375199526	21.29999999999999	0.0
C 	57.798535448573425	22.00999999999999	0.0
C 	59.02829152194733	21.299999999999994	0.0
C 	60.25804759532124	22.009999999999994	0.0
C 	61.48780366869513	21.29999999999999	0.0
C 	62.717559742069035	22.00999999999999	0.0
C 	63.94731581544294	21.299999999999994	0.0
C 	65.17707188881684	22.009999999999987	0.0
C 	66.40682796219075	21.299999999999994	0.0
C 	67.63658403556465	22.009999999999994	0.0
C 	68.86634010893854	21.29999999999999	0.0
C 	70.09609618231245	22.00999999999999	0.0
C 	71.32585225568636	21.299999999999983	0.0
C 	72.55560832906026	22.00999999999999	0.0
C 	13.527316807112932	23.429999999999996	0.0
C 	14.757072880486836	24.139999999999997	0.0
C 	15.986828953860737	23.429999999999996	0.0
C 	17.216585027234643	24.139999999999997	0.0
C 	18.446341100608542	23.429999999999996	0.0
C 	19.676097173982445	24.139999999999997	0.0
C 	20.90585324735635	23.429999999999996	0.0
C 	22.135609320730254	24.139999999999997	0.0
C 	23.365365394104156	23.429999999999993	0.0
C 	24.595121467478062	24.139999999999997	0.0
C 	25.824877540851958	23.429999999999993	0.0
C 	27.054633614225864	24.139999999999993	0.0
C 	28.284389687599766	23.429999999999996	0.0
C 	29.514145760973673	24.139999999999997	0.0
C 	30.743901834347575	23.429999999999996	0.0
C 	31.973657907721478	24.139999999999997	0.0
C 	33.20341398109537	23.429999999999993	0.0
C 	34.43317005446928	24.139999999999993	0.0
C 	35.66292612784318	23.429999999999993	0.0
C 	36.892682201217085	24.139999999999993	0.0
C 	38.122438274590984	23.429999999999993	0.0
C 	39.35219434796489	24.139999999999993	0.0
C 	40.58195042133879	23.429999999999996	0.0
C 	41.811706494712695	24.139999999999993	0.0
C 	43.041462568086594	23.42999999999999	0.0
C 	44.2712186414605	24.13999999999999	0.0
C 	45.5009747148344	23.429999999999993	0.0
C 	46.730730788208305	24.139999999999993	0.0
C 	47.96048686158221	23.429999999999993	0.0
C 	49.19024293495611	24.139999999999993	0.0
C 	50.41999900833001	23.429999999999993	0.0
C 	51.649755081703915	24.13999999999999	0.0
C 	52.87951115507782	23.429999999999993	0.0
C 	54.10926722845172	24.139999999999993	0.0
C 	55.33902330182563	23.429999999999993	0.0
C 	56.56877937519953	24.139999999999993	0.0
C 	57.798535448573425	23.429999999999993	0.0
C 	59.02829152194733	24.139999999999993	0.0
C 	60.25804759532124	23.429999999999993	0.0
C 	61.487803668695136	24.13999999999999	0.0
C 	62.71755974206904	23.429999999999993	0.0
C 	63.947315815442934	24.139999999999986	0.0
C 	65.17707188881684	23.429999999999993	0.0
C 	66.40682796219075	24.139999999999993	0.0
C 	67.63658403556464	23.42999999999999	0.0
C 	68.86634010893856	24.139999999999997	0.0
C 	70.09609618231245	23.42999999999999	0.0
C 	71.32585225568636	24.139999999999997	0.0
C 	72.55560832906026	23.42999999999999	0.0
C 	73.78536440243417	24.13999999999999	0.0
C 	14.757072880486835	25.559999999999995	0.0
C 	15.986828953860735	26.269999999999996	0.0
C 	17.21658502723464	25.559999999999995	0.0
C 	18.44634110060854	26.269999999999996	0.0
C 	19.676097173982445	25.56	0.0
C 	20.905853247356344	26.269999999999996	0.0
C 	22.13560932073025	25.56	0.0
C 	23.365365394104153	26.269999999999996	0.0
C 	24.595121467478055	25.559999999999995	0.0
C 	25.824877540851958	26.269999999999996	0.0
C 	27.054633614225857	25.559999999999995	0.0
C 	28.28438968759976	26.269999999999996	0.0
C 	29.514145760973665	25.559999999999995	0.0
C 	30.743901834347568	26.269999999999996	0.0
C 	31.973657907721474	25.559999999999995	0.0
C 	33.20341398109538	26.269999999999996	0.0
C 	34.43317005446927	25.55999999999999	0.0
C 	35.66292612784318	26.269999999999992	0.0
C 	36.892682201217085	25.559999999999995	0.0
C 	38.12243827459098	26.269999999999992	0.0
C 	39.35219434796489	25.559999999999995	0.0
C 	40.58195042133879	26.269999999999992	0.0
C 	41.81170649471269	25.55999999999999	0.0
C 	43.041462568086594	26.269999999999992	0.0
C 	44.2712186414605	25.55999999999999	0.0
C 	45.5009747148344	26.26999999999999	0.0
C 	46.730730788208305	25.559999999999995	0.0
C 	47.960486861582204	26.269999999999992	0.0
C 	49.19024293495611	25.55999999999999	0.0
C 	50.41999900833001	26.269999999999992	0.0
C 	51.649755081703915	25.559999999999995	0.0
C 	52.879511155077815	26.269999999999992	0.0
C 	54.10926722845172	25.559999999999995	0.0
C 	55.33902330182562	26.269999999999992	0.0
C 	56.568779375199526	25.55999999999999	0.0
C 	57.79853544857343	26.269999999999992	0.0
C 	59.028291521947324	25.55999999999999	0.0
C 	60.25804759532123	26.269999999999992	0.0
C 	61.487803668695136	25.559999999999995	0.0
C 	62.717559742069035	26.26999999999999	0.0
C 	63.94731581544294	25.55999999999999	0.0
C 	65.17707188881683	26.269999999999985	0.0
C 	66.40682796219075	25.55999999999999	0.0
C 	67.63658403556465	26.269999999999992	0.0
C 	68.86634010893856	25.559999999999995	0.0
C 	70.09609618231246	26.269999999999996	0.0
C 	71.32585225568636	25.559999999999995	0.0
C 	72.55560832906026	26.269999999999996	0.0
C 	73.78536440243415	25.559999999999988	0.0
C 	75.01512047580806	26.26999999999999	0.0
C 	15.986828953860735	27.689999999999994	0.0
C 	17.21658502723464	28.399999999999995	0.0
C 	18.446341100608542	27.689999999999994	0.0
C 	19.676097173982445	28.399999999999995	0.0
C 	20.905853247356344	27.689999999999994	0.0
C 	22.13560932073025	28.399999999999995	0.0
C 	23.365365394104153	27.689999999999994	0.0
C 	24.59512146747806	28.399999999999995	0.0
C 	25.824877540851954	27.689999999999994	0.0
C 	27.054633614225857	28.399999999999995	0.0
C 	28.284389687599763	27.689999999999994	0.0
C 	29.514145760973665	28.399999999999995	0.0
C 	30.74390183434757	27.689999999999994	0.0
C 	31.973657907721474	28.399999999999995	0.0
C 	33.20341398109537	27.68999999999999	0.0
C 	34.43317005446928	28.39999999999999	0.0
C 	35.66292612784318	27.689999999999994	0.0
C 	36.892682201217085	28.399999999999995	0.0
C 	38.122438274590984	27.689999999999994	0.0
C 	39.35219434796489	28.399999999999995	0.0
C 	40.58195042133879	27.689999999999994	0.0
C 	41.811706494712695	28.399999999999995	0.0
C 	43.041462568086594	27.689999999999994	0.0
C 	44.2712186414605	28.399999999999995	0.0
C 	45.500974714834406	27.689999999999994	0.0
C 	46.730730788208305	28.399999999999995	0.0
C 	47.960486861582204	27.68999999999999	0.0
C 	49.19024293495611	28.39999999999999	0.0
C 	50.41999900833002	27.689999999999994	0.0
C 	51.649755081703915	28.399999999999995	0.0
C 	52.87951115507782	27.689999999999994	0.0
C 	54.10926722845173	28.399999999999995	0.0
C 	55.33902330182562	27.68999999999999	0.0
C 	56.568779375199526	28.39999999999999	0.0
C 	57.79853544857343	27.689999999999994	0.0
C 	59.02829152194733	28.39999999999999	0.0
C 	60.25804759532124	27.689999999999994	0.0
C 	61.48780366869513	28.399999999999988	0.0
C 	62.717559742069035	27.689999999999994	0.0
C 	63.94731581544294	28.399999999999995	0.0
C 	65.17707188881684	27.68999999999999	0.0
C 	66.40682796219075	28.39999999999999	0.0
C 	67.63658403556464	27.689999999999987	0.0
C 	68.86634010893856	28.399999999999995	0.0
C 	70.09609618231245	27.689999999999994	0.0
C 	71.32585225568636	28.399999999999995	0.0
C 	72.55560832906026	27.68999999999999	0.0
C 	73.78536440243415	28.39999999999999	0.0
C 	75.01512047580808	27.689999999999994	0.0
C 	76.24487654918197	28.399999999999984	0.0
C 	17.21658502723464	29.819999999999997	0.0
C 	18.446341100608546	30.529999999999998	0.0
C 	19.676097173982445	29.819999999999997	0.0
C 	20.905853247356355	30.529999999999998	0.0
C 	22.13560932073025	29.819999999999993	0.0
C 	23.365365394104156	30.529999999999994	0.0
C 	24.59512146747806	29.819999999999997	0.0
C 	25.82487754085196	30.529999999999998	0.0
C 	27.054633614225867	29.819999999999997	0.0
C 	28.28438968759977	30.529999999999998	0.0
C 	29.514145760973665	29.819999999999997	0.0
C 	30.74390183434757	30.529999999999998	0.0
C 	31.973657907721474	29.819999999999997	0.0
C 	33.20341398109538	30.529999999999998	0.0
C 	34.43317005446928	29.819999999999997	0.0
C 	35.662926127843185	30.529999999999998	0.0
C 	36.892682201217085	29.819999999999993	0.0
C 	38.12243827459099	30.529999999999994	0.0
C 	39.35219434796488	29.819999999999993	0.0
C 	40.58195042133879	30.529999999999994	0.0
C 	41.811706494712695	29.819999999999993	0.0
C 	43.0414625680866	30.529999999999994	0.0
C 	44.2712186414605	29.819999999999993	0.0
C 	45.500974714834406	30.529999999999994	0.0
C 	46.730730788208305	29.81999999999999	0.0
C 	47.960486861582204	30.52999999999999	0.0
C 	49.19024293495611	29.819999999999993	0.0
C 	50.41999900833002	30.529999999999994	0.0
C 	51.649755081703915	29.819999999999993	0.0
C 	52.87951115507782	30.529999999999994	0.0
C 	54.10926722845172	29.819999999999993	0.0
C 	55.33902330182563	30.52999999999999	0.0
C 	56.568779375199526	29.819999999999993	0.0
C 	57.798535448573425	30.52999999999999	0.0
C 	59.02829152194734	29.819999999999993	0.0
C 	60.25804759532124	30.529999999999994	0.0
C 	61.487803668695136	29.819999999999993	0.0
C 	62.71755974206904	30.529999999999994	0.0
C 	63.947315815442934	29.81999999999999	0.0
C 	65.17707188881685	30.529999999999998	0.0
C 	66.40682796219073	29.819999999999986	0.0
C 	67.63658403556465	30.529999999999994	0.0
C 	68.86634010893856	29.819999999999993	0.0
C 	70.09609618231245	30.529999999999994	0.0
C 	71.32585225568637	29.819999999999997	0.0
C 	72.55560832906026	30.52999999999999	0.0
C 	73.78536440243417	29.819999999999997	0.0
C 	75.01512047580806	30.529999999999987	0.0
C 	76.24487654918197	29.81999999999999	0.0
C 	77.47463262255587	30.52999999999999	0.0
C 	18.446341100608542	31.949999999999996	0.0
C 	19.676097173982445	32.65999999999999	0.0
C 	20.905853247356347	31.949999999999992	0.0
C 	22.135609320730254	32.66	0.0
C 	23.365365394104156	31.949999999999996	0.0
C 	24.595121467478055	32.65999999999999	0.0
C 	25.824877540851958	31.949999999999992	0.0
C 	27.05463361422586	32.66	0.0
C 	28.284389687599766	31.949999999999996	0.0
C 	29.51414576097367	32.66	0.0
C 	30.743901834347568	31.949999999999992	0.0
C 	31.97365790772147	32.66	0.0
C 	33.20341398109537	31.949999999999992	0.0
C 	34.43317005446928	32.66	0.0
C 	35.66292612784318	31.949999999999996	0.0
C 	36.892682201217085	32.66	0.0
C 	38.122438274590984	31.949999999999992	0.0
C 	39.35219434796489	32.65999999999999	0.0
C 	40.58195042133879	31.949999999999992	0.0
C 	41.81170649471269	32.65999999999999	0.0
C 	43.0414625680866	31.949999999999996	0.0
C 	44.2712186414605	32.65999999999999	0.0
C 	45.5009747148344	31.949999999999992	0.0
C 	46.730730788208305	32.65999999999999	0.0
C 	47.96048686158221	31.949999999999992	0.0
C 	49.1902429349561	32.65999999999999	0.0
C 	50.41999900833002	31.949999999999992	0.0
C 	51.649755081703915	32.65999999999999	0.0
C 	52.879511155077815	31.949999999999992	0.0
C 	54.10926722845172	32.65999999999999	0.0
C 	55.33902330182563	31.949999999999992	0.0
C 	56.568779375199526	32.65999999999999	0.0
C 	57.79853544857343	31.949999999999992	0.0
C 	59.028291521947324	32.65999999999999	0.0
C 	60.25804759532124	31.949999999999992	0.0
C 	61.487803668695136	32.65999999999999	0.0
C 	62.717559742069035	31.94999999999999	0.0
C 	63.94731581544294	32.65999999999999	0.0
C 	65.17707188881685	31.949999999999992	0.0
C 	66.40682796219076	32.66	0.0
C 	67.63658403556465	31.949999999999992	0.0
C 	68.86634010893856	32.65999999999999	0.0
C 	70.09609618231245	31.94999999999999	0.0
C 	71.32585225568636	32.65999999999999	0.0
C 	72.55560832906026	31.949999999999996	0.0
C 	73.78536440243415	32.65999999999999	0.0
C 	75.01512047580806	31.949999999999992	0.0
C 	76.24487654918195	32.65999999999998	0.0
C 	77.47463262255587	31.949999999999985	0.0
C 	78.70438869592978	32.65999999999999	0.0
C 	19.676097173982445	34.07999999999999	0.0
C 	20.90585324735635	34.78999999999999	0.0
C 	22.135609320730254	34.07999999999999	0.0
C 	23.365365394104156	34.78999999999999	0.0
C 	24.595121467478055	34.07999999999999	0.0
C 	25.824877540851958	34.78999999999999	0.0
C 	27.054633614225864	34.07999999999999	0.0
C 	28.284389687599766	34.78999999999999	0.0
C 	29.514145760973665	34.07999999999999	0.0
C 	30.743901834347568	34.78999999999999	0.0
C 	31.97365790772147	34.07999999999999	0.0
C 	33.20341398109537	34.78999999999999	0.0
C 	34.43317005446928	34.07999999999999	0.0
C 	35.662926127843185	34.78999999999999	0.0
C 	36.89268220121708	34.07999999999999	0.0
C 	38.122438274590984	34.78999999999999	0.0
C 	39.35219434796489	34.07999999999999	0.0
C 	40.581950421338796	34.78999999999999	0.0
C 	41.811706494712695	34.07999999999999	0.0
C 	43.0414625680866	34.78999999999999	0.0
C 	44.2712186414605	34.07999999999999	0.0
C 	45.5009747148344	34.78999999999999	0.0
C 	46.730730788208305	34.07999999999999	0.0
C 	47.96048686158221	34.78999999999999	0.0
C 	49.19024293495611	34.07999999999999	0.0
C 	50.41999900833002	34.78999999999999	0.0
C 	51.649755081703915	34.07999999999999	0.0
C 	52.87951115507782	34.78999999999999	0.0
C 	54.10926722845172	34.07999999999999	0.0
C 	55.33902330182562	34.78999999999999	0.0
C 	56.56877937519953	34.07999999999999	0.0
C 	57.79853544857343	34.78999999999999	0.0
C 	59.02829152194733	34.07999999999999	0.0
C 	60.25804759532124	34.78999999999999	0.0
C 	61.487803668695136	34.07999999999999	0.0
C 	62.71755974206905	34.79	0.0
C 	63.947315815442934	34.079999999999984	0.0
C 	65.17707188881685	34.78999999999999	0.0
C 	66.40682796219075	34.07999999999999	0.0
C 	67.63658403556465	34.78999999999999	0.0
C 	68.86634010893854	34.07999999999999	0.0
C 	70.09609618231245	34.78999999999999	0.0
C 	71.32585225568636	34.07999999999999	0.0
C 	72.55560832906025	34.789999999999985	0.0
C 	73.78536440243417	34.07999999999999	0.0
C 	75.01512047580808	34.78999999999999	0.0
C 	76.24487654918197	34.07999999999999	0.0
C 	77.47463262255587	34.78999999999999	0.0
C 	78.70438869592977	34.079999999999984	0.0
C 	79.93414476930369	34.78999999999999	0.0
C 	20.90585324735635	36.209999999999994	0.0
C 	22.135609320730254	36.919999999999995	0.0
C 	23.36536539410416	36.209999999999994	0.0
C 	24.595121467478062	36.919999999999995	0.0
C 	25.82487754085196	36.209999999999994	0.0
C 	27.054633614225864	36.919999999999995	0.0
C 	28.284389687599766	36.209999999999994	0.0
C 	29.514145760973673	36.919999999999995	0.0
C 	30.743901834347575	36.209999999999994	0.0
C 	31.973657907721478	36.919999999999995	0.0
C 	33.20341398109537	36.209999999999994	0.0
C 	34.43317005446928	36.919999999999995	0.0
C 	35.662926127843185	36.209999999999994	0.0
C 	36.89268220121709	36.919999999999995	0.0
C 	38.12243827459099	36.209999999999994	0.0
C 	39.3521943479649	36.919999999999995	0.0
C 	40.581950421338796	36.209999999999994	0.0
C 	41.811706494712695	36.919999999999995	0.0
C 	43.041462568086594	36.209999999999994	0.0
C 	44.2712186414605	36.919999999999995	0.0
C 	45.500974714834406	36.209999999999994	0.0
C 	46.730730788208305	36.919999999999995	0.0
C 	47.96048686158221	36.209999999999994	0.0
C 	49.19024293495612	36.919999999999995	0.0
C 	50.41999900833002	36.20999999999999	0.0
C 	51.649755081703915	36.91999999999999	0.0
C 	52.87951115507782	36.209999999999994	0.0
C 	54.10926722845172	36.91999999999999	0.0
C 	55.33902330182563	36.209999999999994	0.0
C 	56.56877937519953	36.919999999999995	0.0
C 	57.79853544857343	36.20999999999999	0.0
C 	59.02829152194733	36.91999999999999	0.0
C 	60.25804759532123	36.20999999999999	0.0
C 	61.48780366869515	36.919999999999995	0.0
C 	62.71755974206904	36.209999999999994	0.0
C 	63.94731581544295	36.919999999999995	0.0
C 	65.17707188881684	36.209999999999994	0.0
C 	66.40682796219075	36.919999999999995	0.0
C 	67.63658403556467	36.209999999999994	0.0
C 	68.86634010893856	36.91999999999999	0.0
C 	70.09609618231246	36.209999999999994	0.0
C 	71.32585225568636	36.91999999999999	0.0
C 	72.55560832906026	36.209999999999994	0.0
C 	73.78536440243417	36.919999999999995	0.0
C 	75.01512047580806	36.20999999999999	0.0
C 	76.24487654918198	36.919999999999995	0.0
C 	77.47463262255586	36.20999999999999	0.0
C 	78.70438869592978	36.919999999999995	0.0
C 	79.93414476930369	36.20999999999999	0.0
C 	81.16390084267759	36.91999999999999	0.0
C 	22.13560932073025	38.33999999999999	0.0
C 	23.365365394104153	39.04999999999999	0.0
C 	24.59512146747806	38.33999999999999	0.0
C 	25.82487754085196	39.04999999999999	0.0
C 	27.05463361422586	38.33999999999999	0.0
C 	28.284389687599763	39.04999999999999	0.0
C 	29.514145760973665	38.33999999999999	0.0
C 	30.74390183434757	39.04999999999999	0.0
C 	31.973657907721474	38.339999999999996	0.0
C 	33.20341398109538	39.04999999999999	0.0
C 	34.43317005446927	38.33999999999999	0.0
C 	35.66292612784318	39.04999999999999	0.0
C 	36.892682201217085	38.33999999999999	0.0
C 	38.12243827459099	39.04999999999999	0.0
C 	39.35219434796489	38.33999999999999	0.0
C 	40.581950421338796	39.04999999999999	0.0
C 	41.811706494712695	38.33999999999999	0.0
C 	43.0414625680866	39.04999999999999	0.0
C 	44.27121864146049	38.33999999999999	0.0
C 	45.5009747148344	39.04999999999999	0.0
C 	46.730730788208305	38.33999999999999	0.0
C 	47.960486861582204	39.04999999999999	0.0
C 	49.19024293495611	38.33999999999999	0.0
C 	50.41999900833002	39.04999999999999	0.0
C 	51.649755081703915	38.33999999999999	0.0
C 	52.879511155077815	39.04999999999999	0.0
C 	54.10926722845173	38.33999999999999	0.0
C 	55.33902330182562	39.04999999999998	0.0
C 	56.568779375199526	38.33999999999999	0.0
C 	57.79853544857343	39.04999999999999	0.0
C 	59.02829152194733	38.33999999999999	0.0
C 	60.25804759532123	39.04999999999999	0.0
C 	61.48780366869513	38.33999999999998	0.0
C 	62.71755974206905	39.04999999999999	0.0
C 	63.94731581544294	38.33999999999999	0.0
C 	65.17707188881685	39.04999999999999	0.0
C 	66.40682796219075	38.33999999999999	0.0
C 	67.63658403556465	39.04999999999999	0.0
C 	68.86634010893856	38.33999999999999	0.0
C 	70.09609618231245	39.04999999999998	0.0
C 	71.32585225568636	38.33999999999999	0.0
C 	72.55560832906025	39.04999999999998	0.0
C 	73.78536440243415	38.33999999999999	0.0
C 	75.01512047580806	39.04999999999999	0.0
C 	76.24487654918197	38.33999999999999	0.0
C 	77.47463262255587	39.05	0.0
C 	78.70438869592977	38.33999999999998	0.0
C 	79.93414476930369	39.04999999999999	0.0
C 	81.16390084267758	38.33999999999998	0.0
C 	82.39365691605148	39.04999999999998	0.0
C 	23.365365394104156	40.46999999999999	0.0
C 	24.59512146747806	41.17999999999999	0.0
C 	25.82487754085196	40.46999999999999	0.0
C 	27.054633614225867	41.17999999999999	0.0
C 	28.284389687599763	40.46999999999999	0.0
C 	29.51414576097367	41.17999999999999	0.0
C 	30.74390183434757	40.46999999999999	0.0
C 	31.973657907721474	41.17999999999999	0.0
C 	33.20341398109537	40.46999999999999	0.0
C 	34.43317005446928	41.17999999999999	0.0
C 	35.66292612784318	40.46999999999999	0.0
C 	36.892682201217085	41.17999999999999	0.0
C 	38.12243827459099	40.46999999999999	0.0
C 	39.3521943479649	41.17999999999999	0.0
C 	40.58195042133879	40.46999999999999	0.0
C 	41.811706494712695	41.17999999999999	0.0
C 	43.0414625680866	40.46999999999999	0.0
C 	44.2712186414605	41.17999999999999	0.0
C 	45.500974714834406	40.46999999999999	0.0
C 	46.73073078820831	41.17999999999999	0.0
C 	47.960486861582204	40.46999999999999	0.0
C 	49.19024293495611	41.17999999999999	0.0
C 	50.41999900833002	40.46999999999999	0.0
C 	51.649755081703915	41.179999999999986	0.0
C 	52.87951115507782	40.46999999999999	0.0
C 	54.10926722845173	41.17999999999999	0.0
C 	55.33902330182563	40.46999999999999	0.0
C 	56.568779375199526	41.17999999999999	0.0
C 	57.798535448573425	40.469999999999985	0.0
C 	59.028291521947345	41.17999999999999	0.0
C 	60.25804759532124	40.46999999999999	0.0
C 	61.48780366869514	41.17999999999999	0.0
C 	62.71755974206904	40.46999999999999	0.0
C 	63.94731581544295	41.17999999999999	0.0
C 	65.17707188881685	40.46999999999999	0.0
C 	66.40682796219075	41.179999999999986	0.0
C 	67.63658403556465	40.46999999999999	0.0
C 	68.86634010893854	41.179999999999986	0.0
C 	70.09609618231246	40.46999999999999	0.0
C 	71.32585225568636	41.17999999999999	0.0
C 	72.55560832906026	40.469999999999985	0.0
C 	73.78536440243417	41.179999999999986	0.0
C 	75.01512047580806	40.469999999999985	0.0
C 	76.24487654918198	41.17999999999999	0.0
C 	77.47463262255587	40.46999999999999	0.0
C 	78.70438869592978	41.17999999999999	0.0
C 	79.93414476930367	40.469999999999985	0.0
C 	81.16390084267758	41.179999999999986	0.0
C 	82.3936569160515	40.46999999999999	0.0
C 	83.62341298942539	41.179999999999986	0.0
C 	24.595121467478055	42.59999999999999	0.0
C 	25.82487754085196	43.30999999999999	0.0
C 	27.05463361422586	42.59999999999999	0.0
C 	28.284389687599766	43.30999999999999	0.0
C 	29.514145760973662	42.59999999999999	0.0
C 	30.743901834347568	43.30999999999999	0.0
C 	31.97365790772147	42.59999999999999	0.0
C 	33.20341398109537	43.30999999999999	0.0
C 	34.43317005446927	42.59999999999999	0.0
C 	35.66292612784318	43.30999999999999	0.0
C 	36.89268220121708	42.59999999999999	0.0
C 	38.122438274590984	43.30999999999999	0.0
C 	39.35219434796489	42.59999999999999	0.0
C 	40.581950421338796	43.30999999999999	0.0
C 	41.81170649471269	42.59999999999999	0.0
C 	43.041462568086594	43.30999999999999	0.0
C 	44.2712186414605	42.59999999999999	0.0
C 	45.5009747148344	43.30999999999999	0.0
C 	46.730730788208305	42.59999999999999	0.0
C 	47.96048686158221	43.30999999999999	0.0
C 	49.19024293495611	42.59999999999999	0.0
C 	50.41999900833001	43.30999999999999	0.0
C 	51.64975508170392	42.599999999999994	0.0
C 	52.879511155077815	43.30999999999999	0.0
C 	54.10926722845172	42.59999999999999	0.0
C 	55.33902330182563	43.30999999999999	0.0
C 	56.568779375199526	42.59999999999999	0.0
C 	57.798535448573425	43.30999999999999	0.0
C 	59.028291521947324	42.59999999999998	0.0
C 	60.258047595321244	43.30999999999999	0.0
C 	61.487803668695136	42.59999999999999	0.0
C 	62.71755974206904	43.30999999999999	0.0
C 	63.94731581544294	42.59999999999999	0.0
C 	65.17707188881684	43.30999999999999	0.0
C 	66.40682796219076	42.599999999999994	0.0
C 	67.63658403556465	43.30999999999999	0.0
C 	68.86634010893856	42.59999999999999	0.0
C 	70.09609618231245	43.30999999999998	0.0
C 	71.32585225568636	42.59999999999999	0.0
C 	72.55560832906026	43.30999999999999	0.0
C 	73.78536440243415	42.59999999999999	0.0
C 	75.01512047580806	43.30999999999999	0.0
C 	76.24487654918197	42.59999999999998	0.0
C 	77.47463262255587	43.30999999999999	0.0
C 	78.70438869592978	42.59999999999999	0.0
C 	79.93414476930367	43.30999999999999	0.0
C 	81.16390084267758	42.59999999999999	0.0
C 	82.39365691605148	43.30999999999999	0.0
C 	83.62341298942539	42.59999999999999	0.0
C 	84.85316906279928	43.30999999999998	0.0
C 	25.82487754085196	44.72999999999999	0.0
C 	27.054633614225864	45.43999999999999	0.0
C 	28.284389687599766	44.72999999999999	0.0
C 	29.514145760973673	45.43999999999999	0.0
C 	30.743901834347568	44.72999999999999	0.0
C 	31.97365790772147	45.43999999999999	0.0
C 	33.20341398109537	44.72999999999999	0.0
C 	34.43317005446928	45.43999999999999	0.0
C 	35.662926127843185	44.72999999999999	0.0
C 	36.892682201217085	45.43999999999999	0.0
C 	38.122438274590984	44.72999999999999	0.0
C 	39.35219434796489	45.43999999999999	0.0
C 	40.581950421338796	44.72999999999999	0.0
C 	41.811706494712695	45.43999999999999	0.0
C 	43.0414625680866	44.72999999999999	0.0
C 	44.27121864146051	45.43999999999999	0.0
C 	45.500974714834406	44.72999999999999	0.0
C 	46.730730788208305	45.43999999999999	0.0
C 	47.960486861582204	44.72999999999999	0.0
C 	49.19024293495611	45.43999999999998	0.0
C 	50.41999900833002	44.72999999999999	0.0
C 	51.64975508170391	45.43999999999998	0.0
C 	52.87951115507782	44.72999999999999	0.0
C 	54.10926722845172	45.43999999999999	0.0
C 	55.33902330182562	44.72999999999998	0.0
C 	56.568779375199526	45.43999999999998	0.0
C 	57.798535448573425	44.72999999999998	0.0
C 	59.02829152194734	45.43999999999999	0.0
C 	60.25804759532124	44.72999999999999	0.0
C 	61.48780366869514	45.43999999999999	0.0
C 	62.717559742069035	44.72999999999998	0.0
C 	63.94731581544294	45.43999999999998	0.0
C 	65.17707188881685	44.72999999999999	0.0
C 	66.40682796219075	45.43999999999998	0.0
C 	67.63658403556465	44.72999999999999	0.0
C 	68.86634010893856	45.43999999999999	0.0
C 	70.09609618231245	44.72999999999999	0.0
C 	71.32585225568636	45.43999999999998	0.0
C 	72.55560832906026	44.72999999999998	0.0
C 	73.78536440243417	45.43999999999999	0.0
C 	75.01512047580806	44.72999999999998	0.0
C 	76.24487654918198	45.43999999999999	0.0
C 	77.47463262255587	44.72999999999999	0.0
C 	78.70438869592978	45.43999999999999	0.0
C 	79.93414476930369	44.72999999999999	0.0
C 	81.16390084267758	45.43999999999998	0.0
C 	82.39365691605148	44.72999999999999	0.0
C 	83.62341298942538	45.43999999999998	0.0
C 	84.8531690627993	44.72999999999998	0.0
C 	86.08292513617319	45.43999999999998	0.0
C 	27.054633614225864	46.85999999999999	0.0
C 	28.28438968759977	47.56999999999999	0.0
C 	29.514145760973673	46.85999999999999	0.0
C 	30.74390183434758	47.56999999999999	0.0
C 	31.973657907721474	46.85999999999999	0.0
C 	33.20341398109538	47.56999999999999	0.0
C 	34.43317005446928	46.85999999999999	0.0
C 	35.662926127843185	47.56999999999999	0.0
C 	36.892682201217085	46.85999999999999	0.0
C 	38.122438274590984	47.56999999999999	0.0
C 	39.35219434796489	46.85999999999999	0.0
C 	40.581950421338796	47.56999999999999	0.0
C 	41.8117064947127	46.85999999999999	0.0
C 	43.0414625680866	47.56999999999999	0.0
C 	44.2712186414605	46.85999999999999	0.0
C 	45.500974714834406	47.56999999999999	0.0
C 	46.73073078820831	46.859999999999985	0.0
C 	47.960486861582204	47.569999999999986	0.0
C 	49.19024293495612	46.85999999999999	0.0
C 	50.41999900833002	47.56999999999999	0.0
C 	51.649755081703915	46.859999999999985	0.0
C 	52.87951115507782	47.569999999999986	0.0
C 	54.10926722845172	46.859999999999985	0.0
C 	55.339023301825634	47.56999999999999	0.0
C 	56.56877937519953	46.85999999999999	0.0
C 	57.79853544857344	47.56999999999999	0.0
C 	59.02829152194733	46.859999999999985	0.0
C 	60.25804759532124	47.569999999999986	0.0
C 	61.48780366869515	46.85999999999999	0.0
C 	62.71755974206904	47.569999999999986	0.0
C 	63.94731581544295	46.85999999999999	0.0
C 	65.17707188881685	47.56999999999999	0.0
C 	66.40682796219075	46.859999999999985	0.0
C 	67.63658403556465	47.569999999999986	0.0
C 	68.86634010893856	46.859999999999985	0.0
C 	70.09609618231246	47.56999999999999	0.0
C 	71.32585225568636	46.859999999999985	0.0
C 	72.55560832906028	47.56999999999999	0.0
C 	73.78536440243417	46.859999999999985	0.0
C 	75.01512047580808	47.569999999999986	0.0
C 	76.24487654918197	46.859999999999985	0.0
C 	77.47463262255587	47.569999999999986	0.0
C 	78.70438869592978	46.85999999999999	0.0
C 	79.93414476930367	47.569999999999986	0.0
C 	81.16390084267758	46.85999999999999	0.0
C 	82.39365691605148	47.56999999999999	0.0
C 	83.62341298942539	46.859999999999985	0.0
C 	84.8531690627993	47.569999999999986	0.0
C 	86.08292513617319	46.85999999999998	0.0
C 	87.31268120954711	47.569999999999986	0.0
C 	28.284389687599763	48.98999999999999	0.0
C 	29.51414576097367	49.69999999999999	0.0
C 	30.74390183434757	48.98999999999999	0.0
C 	31.973657907721478	49.69999999999999	0.0
C 	33.20341398109537	48.98999999999999	0.0
C 	34.43317005446928	49.69999999999999	0.0
C 	35.66292612784318	48.98999999999999	0.0
C 	36.892682201217085	49.69999999999999	0.0
C 	38.122438274590984	48.98999999999999	0.0
C 	39.35219434796488	49.69999999999999	0.0
C 	40.58195042133879	48.98999999999999	0.0
C 	41.811706494712695	49.69999999999999	0.0
C 	43.041462568086594	48.98999999999999	0.0
C 	44.2712186414605	49.69999999999999	0.0
C 	45.5009747148344	48.98999999999999	0.0
C 	46.730730788208305	49.69999999999998	0.0
C 	47.96048686158221	48.98999999999999	0.0
C 	49.1902429349561	49.69999999999998	0.0
C 	50.41999900833002	48.98999999999999	0.0
C 	51.64975508170392	49.69999999999999	0.0
C 	52.879511155077815	48.98999999999999	0.0
C 	54.10926722845172	49.69999999999999	0.0
C 	55.33902330182562	48.98999999999998	0.0
C 	56.56877937519953	49.69999999999999	0.0
C 	57.79853544857343	48.98999999999999	0.0
C 	59.02829152194734	49.69999999999999	0.0
C 	60.25804759532124	48.98999999999999	0.0
C 	61.487803668695136	49.69999999999999	0.0
C 	62.71755974206905	48.98999999999999	0.0
C 	63.94731581544294	49.69999999999998	0.0
C 	65.17707188881685	48.98999999999999	0.0
C 	66.40682796219075	49.69999999999999	0.0
C 	67.63658403556465	48.98999999999999	0.0
C 	68.86634010893856	49.69999999999999	0.0
C 	70.09609618231245	48.98999999999998	0.0
C 	71.32585225568637	49.69999999999999	0.0
C 	72.55560832906025	48.98999999999998	0.0
C 	73.78536440243417	49.69999999999999	0.0
C 	75.01512047580806	48.98999999999999	0.0
C 	76.24487654918197	49.69999999999999	0.0
C 	77.47463262255587	48.98999999999998	0.0
C 	78.70438869592978	49.69999999999998	0.0
C 	79.93414476930369	48.98999999999999	0.0
C 	81.16390084267758	49.69999999999998	0.0
C 	82.39365691605148	48.98999999999999	0.0
C 	83.62341298942539	49.69999999999999	0.0
C 	84.85316906279928	48.98999999999998	0.0
C 	86.08292513617319	49.69999999999998	0.0
C 	87.3126812095471	48.98999999999998	0.0
C 	88.542437282921	49.69999999999999	0.0
C 	29.51414576097367	51.11999999999999	0.0
C 	30.74390183434757	51.82999999999999	0.0
C 	31.973657907721474	51.11999999999999	0.0
C 	33.20341398109538	51.82999999999999	0.0
C 	34.43317005446928	51.11999999999999	0.0
C 	35.66292612784318	51.82999999999999	0.0
C 	36.892682201217085	51.11999999999999	0.0
C 	38.12243827459099	51.82999999999999	0.0
C 	39.35219434796489	51.12	0.0
C 	40.581950421338796	51.83	0.0
C 	41.811706494712695	51.11999999999999	0.0
C 	43.041462568086594	51.82999999999999	0.0
C 	44.2712186414605	51.12	0.0
C 	45.5009747148344	51.82999999999999	0.0
C 	46.73073078820831	51.11999999999999	0.0
C 	47.96048686158221	51.82999999999999	0.0
C 	49.19024293495611	51.11999999999999	0.0
C 	50.41999900833002	51.82999999999999	0.0
C 	51.649755081703915	51.11999999999998	0.0
C 	52.879511155077815	51.829999999999984	0.0
C 	54.10926722845171	51.11999999999999	0.0
C 	55.33902330182563	51.83	0.0
C 	56.568779375199526	51.11999999999999	0.0
C 	57.79853544857343	51.82999999999999	0.0
C 	59.02829152194733	51.11999999999999	0.0
C 	60.25804759532124	51.82999999999999	0.0
C 	61.48780366869514	51.11999999999999	0.0
C 	62.717559742069035	51.829999999999984	0.0
C 	63.94731581544295	51.11999999999999	0.0
C 	65.17707188881685	51.82999999999999	0.0
C 	66.40682796219075	51.11999999999999	0.0
C 	67.63658403556465	51.82999999999999	0.0
C 	68.86634010893854	51.11999999999998	0.0
C 	70.09609618231246	51.82999999999999	0.0
C 	71.32585225568636	51.11999999999999	0.0
C 	72.55560832906026	51.82999999999999	0.0
C 	73.78536440243417	51.11999999999999	0.0
C 	75.01512047580806	51.82999999999999	0.0
C 	76.24487654918198	51.11999999999999	0.0
C 	77.47463262255587	51.829999999999984	0.0
C 	78.70438869592978	51.11999999999999	0.0
C 	79.93414476930367	51.829999999999984	0.0
C 	81.16390084267758	51.11999999999999	0.0
C 	82.39365691605148	51.82999999999999	0.0
C 	83.62341298942538	51.11999999999998	0.0
C 	84.8531690627993	51.82999999999999	0.0
C 	86.08292513617319	51.11999999999998	0.0
C 	87.3126812095471	51.82999999999999	0.0
C 	88.542437282921	51.11999999999998	0.0
C 	89.7721933562949	51.829999999999984	0.0
C 	52.87951115507782	-0.7100000000000041	2.15
C 	54.10926722845172	-3.3132370457766086e-15	2.15
C 	54.10926722845172	1.4199999999999984	2.15
C 	55.33902330182562	2.129999999999992	2.15
C 	55.33902330182562	3.5499999999999936	2.15
C 	56.568779375199526	4.2599999999999945	2.15
C 	56.568779375199526	5.679999999999996	2.15
C 	57.79853544857343	6.389999999999997	2.15
C 	57.79853544857343	7.809999999999999	2.15
C 	59.02829152194734	8.519999999999992	2.15
C 	59.02829152194734	9.939999999999994	2.15
C 	60.25804759532123	10.649999999999995	2.15
C 	60.25804759532123	12.069999999999997	2.15
C 	61.487803668695136	12.779999999999998	2.15
C 	61.487803668695136	14.2	2.15
C 	62.71755974206904	14.909999999999993	2.15
C 	62.71755974206904	16.329999999999995	2.15
C 	63.94731581544295	17.039999999999996	2.15
C 	63.94731581544295	18.459999999999997	2.15
C 	65.17707188881684	19.169999999999998	2.15
C 	65.17707188881684	20.59	2.15
C 	66.40682796219075	21.299999999999994	2.15
C 	66.40682796219075	22.719999999999995	2.15
C 	67.63658403556465	23.42999999999999	2.15
C 	67.63658403556465	24.84999999999999	2.15
C 	68.86634010893856	25.56	2.15
C 	68.86634010893856	26.98	2.15
C 	70.09609618231246	27.689999999999994	2.15
C 	70.09609618231246	29.109999999999996	2.15
C 	71.32585225568636	29.81999999999999	2.15
C 	71.32585225568636	31.23999999999999	2.15
C 	72.55560832906026	31.95	2.15
C 	72.55560832906026	33.37	2.15
C 	73.78536440243417	34.07999999999999	2.15
C 	73.78536440243417	35.49999999999999	2.15
C 	75.01512047580808	36.20999999999999	2.15
C 	75.01512047580808	37.62999999999999	2.15
C 	50.41999900833001	-0.710000000000004	2.15
C 	51.649755081703915	-3.162635361877672e-15	2.15
C 	51.649755081703915	1.4199999999999986	2.15
C 	52.87951115507782	2.1299999999999994	2.15
C 	52.87951115507782	3.550000000000001	2.15
C 	54.10926722845172	4.2599999999999945	2.15
C 	54.10926722845172	5.679999999999996	2.15
C 	55.33902330182563	6.389999999999997	2.15
C 	55.33902330182563	7.809999999999999	2.15
C 	56.568779375199526	8.52	2.15
C 	56.568779375199526	9.940000000000001	2.15
C 	57.79853544857343	10.649999999999995	2.15
C 	57.79853544857343	12.069999999999997	2.15
C 	59.02829152194733	12.779999999999998	2.15
C 	59.02829152194733	14.2	2.15
C 	60.25804759532124	14.91	2.15
C 	60.25804759532124	16.330000000000002	2.15
C 	61.487803668695136	17.039999999999996	2.15
C 	61.487803668695136	18.459999999999997	2.15
C 	62.71755974206904	19.169999999999998	2.15
C 	62.71755974206904	20.59	2.15
C 	63.94731581544294	21.3	2.15
C 	63.94731581544294	22.720000000000002	2.15
C 	65.17707188881684	23.429999999999996	2.15
C 	65.17707188881684	24.849999999999998	2.15
C 	66.40682796219076	25.55999999999999	2.15
C 	66.40682796219076	26.979999999999993	2.15
C 	67.63658403556465	27.69	2.15
C 	67.63658403556465	29.110000000000003	2.15
C 	68.86634010893856	29.819999999999997	2.15
C 	68.86634010893856	31.24	2.15
C 	70.09609618231246	31.949999999999992	2.15
C 	70.09609618231246	33.36999999999999	2.15
C 	71.32585225568636	34.08	2.15
C 	71.32585225568636	35.5	2.15
C 	72.55560832906026	36.209999999999994	2.15
C 	72.55560832906026	37.629999999999995	2.15
C 	73.78536440243417	38.33999999999999	2.15
C 	73.78536440243417	39.75999999999999	2.15
C 	47.96048686158221	-0.7099999999999966	2.15
C 	49.19024293495611	-3.012033677978735e-15	2.15
C 	49.19024293495611	1.4199999999999986	2.15
C 	50.41999900833001	2.1299999999999994	2.15
C 	50.41999900833001	3.550000000000001	2.15
C 	51.649755081703915	4.260000000000002	2.15
C 	51.649755081703915	5.680000000000003	2.15
C 	52.87951115507782	6.389999999999997	2.15
C 	52.87951115507782	7.809999999999999	2.15
C 	54.10926722845173	8.52	2.15
C 	54.10926722845173	9.940000000000001	2.15
C 	55.33902330182563	10.650000000000002	2.15
C 	55.33902330182563	12.070000000000004	2.15
C 	56.568779375199526	12.779999999999998	2.15
C 	56.568779375199526	14.2	2.15
C 	57.79853544857343	14.91	2.15
C 	57.79853544857343	16.330000000000002	2.15
C 	59.02829152194734	17.040000000000003	2.15
C 	59.02829152194734	18.460000000000004	2.15
C 	60.25804759532123	19.169999999999998	2.15
C 	60.25804759532123	20.59	2.15
C 	61.487803668695136	21.3	2.15
C 	61.487803668695136	22.720000000000002	2.15
C 	62.71755974206904	23.430000000000003	2.15
C 	62.71755974206904	24.850000000000005	2.15
C 	63.94731581544295	25.56	2.15
C 	63.94731581544295	26.98	2.15
C 	65.17707188881685	27.689999999999994	2.15
C 	65.17707188881685	29.109999999999996	2.15
C 	66.40682796219075	29.820000000000004	2.15
C 	66.40682796219075	31.240000000000006	2.15
C 	67.63658403556465	31.95	2.15
C 	67.63658403556465	33.37	2.15
C 	68.86634010893856	34.07999999999999	2.15
C 	68.86634010893856	35.49999999999999	2.15
C 	70.09609618231246	36.21	2.15
C 	70.09609618231246	37.63	2.15
C 	71.32585225568636	38.339999999999996	2.15
C 	71.32585225568636	39.76	2.15
C 	72.55560832906026	40.46999999999999	2.15
C 	72.55560832906026	41.88999999999999	2.15
C 	45.5009747148344	-0.7100000000000036	2.15
C 	46.730730788208305	-2.8614319940797986e-15	2.15
C 	46.730730788208305	1.4199999999999988	2.15
C 	47.96048686158221	2.1299999999999923	2.15
C 	47.96048686158221	3.549999999999994	2.15
C 	49.19024293495611	4.259999999999995	2.15
C 	49.19024293495611	5.679999999999997	2.15
C 	50.41999900833001	6.389999999999998	2.15
C 	50.41999900833001	7.81	2.15
C 	51.649755081703915	8.519999999999992	2.15
C 	51.649755081703915	9.939999999999994	2.15
C 	52.87951115507782	10.649999999999995	2.15
C 	52.87951115507782	12.069999999999997	2.15
C 	54.10926722845173	12.779999999999998	2.15
C 	54.10926722845173	14.2	2.15
C 	55.33902330182563	14.909999999999993	2.15
C 	55.33902330182563	16.329999999999995	2.15
C 	56.568779375199526	17.039999999999996	2.15
C 	56.568779375199526	18.459999999999997	2.15
C 	57.79853544857343	19.169999999999998	2.15
C 	57.79853544857343	20.59	2.15
C 	59.02829152194733	21.299999999999994	2.15
C 	59.02829152194733	22.719999999999995	2.15
C 	60.25804759532124	23.429999999999996	2.15
C 	60.25804759532124	24.849999999999998	2.15
C 	61.487803668695136	25.56	2.15
C 	61.487803668695136	26.98	2.15
C 	62.71755974206904	27.689999999999994	2.15
C 	62.71755974206904	29.109999999999996	2.15
C 	63.94731581544295	29.81999999999999	2.15
C 	63.94731581544295	31.23999999999999	2.15
C 	65.17707188881684	31.95	2.15
C 	65.17707188881684	33.37	2.15
C 	66.40682796219076	34.07999999999999	2.15
C 	66.40682796219076	35.49999999999999	2.15
C 	67.63658403556465	36.20999999999999	2.15
C 	67.63658403556465	37.62999999999999	2.15
C 	68.86634010893856	38.339999999999996	2.15
C 	68.86634010893856	39.76	2.15
C 	70.09609618231246	40.46999999999999	2.15
C 	70.09609618231246	41.88999999999999	2.15
C 	71.32585225568636	42.59999999999999	2.15
C 	71.32585225568636	44.01999999999999	2.15
C 	43.0414625680866	-0.7099999999999964	2.15
C 	44.2712186414605	-2.710830310180862e-15	2.15
C 	44.2712186414605	1.419999999999999	2.15
C 	45.5009747148344	2.13	2.15
C 	45.5009747148344	3.5500000000000016	2.15
C 	46.730730788208305	4.259999999999995	2.15
C 	46.730730788208305	5.679999999999997	2.15
C 	47.96048686158221	6.389999999999998	2.15
C 	47.96048686158221	7.81	2.15
C 	49.19024293495611	8.52	2.15
C 	49.19024293495611	9.940000000000001	2.15
C 	50.41999900833001	10.649999999999995	2.15
C 	50.41999900833001	12.069999999999997	2.15
C 	51.649755081703915	12.779999999999998	2.15
C 	51.649755081703915	14.2	2.15
C 	52.87951115507782	14.91	2.15
C 	52.87951115507782	16.330000000000002	2.15
C 	54.10926722845173	17.039999999999996	2.15
C 	54.10926722845173	18.459999999999997	2.15
C 	55.33902330182562	19.169999999999998	2.15
C 	55.33902330182562	20.59	2.15
C 	56.568779375199526	21.3	2.15
C 	56.568779375199526	22.720000000000002	2.15
C 	57.79853544857343	23.429999999999996	2.15
C 	57.79853544857343	24.849999999999998	2.15
C 	59.02829152194734	25.56	2.15
C 	59.02829152194734	26.98	2.15
C 	60.25804759532123	27.69	2.15
C 	60.25804759532123	29.110000000000003	2.15
C 	61.487803668695136	29.819999999999997	2.15
C 	61.487803668695136	31.24	2.15
C 	62.71755974206904	31.949999999999992	2.15
C 	62.71755974206904	33.36999999999999	2.15
C 	63.94731581544295	34.08	2.15
C 	63.94731581544295	35.5	2.15
C 	65.17707188881685	36.209999999999994	2.15
C 	65.17707188881685	37.629999999999995	2.15
C 	66.40682796219075	38.33999999999999	2.15
C 	66.40682796219075	39.75999999999999	2.15
C 	67.63658403556465	40.47	2.15
C 	67.63658403556465	41.89	2.15
C 	68.86634010893856	42.599999999999994	2.15
C 	68.86634010893856	44.019999999999996	2.15
C 	70.09609618231246	44.72999999999999	2.15
C 	70.09609618231246	46.14999999999999	2.15
C 	40.58195042133879	-0.7100000000000033	2.15
C 	41.811706494712695	-2.560228626281925e-15	2.15
C 	41.811706494712695	1.419999999999999	2.15
C 	43.0414625680866	2.129999999999993	2.15
C 	43.0414625680866	3.5499999999999945	2.15
C 	44.2712186414605	4.259999999999995	2.15
C 	44.2712186414605	5.679999999999997	2.15
C 	45.5009747148344	6.389999999999991	2.15
C 	45.5009747148344	7.8099999999999925	2.15
C 	46.730730788208305	8.519999999999992	2.15
C 	46.730730788208305	9.939999999999994	2.15
C 	47.96048686158221	10.649999999999995	2.15
C 	47.96048686158221	12.069999999999997	2.15
C 	49.19024293495611	12.77999999999999	2.15
C 	49.19024293495611	14.199999999999992	2.15
C 	50.41999900833002	14.909999999999993	2.15
C 	50.41999900833002	16.329999999999995	2.15
C 	51.649755081703915	17.039999999999996	2.15
C 	51.649755081703915	18.459999999999997	2.15
C 	52.87951115507782	19.16999999999999	2.15
C 	52.87951115507782	20.589999999999993	2.15
C 	54.10926722845172	21.299999999999994	2.15
C 	54.10926722845172	22.719999999999995	2.15
C 	55.33902330182563	23.429999999999996	2.15
C 	55.33902330182563	24.849999999999998	2.15
C 	56.568779375199526	25.55999999999999	2.15
C 	56.568779375199526	26.979999999999993	2.15
C 	57.79853544857343	27.689999999999994	2.15
C 	57.79853544857343	29.109999999999996	2.15
C 	59.02829152194733	29.819999999999997	2.15
C 	59.02829152194733	31.24	2.15
C 	60.25804759532124	31.949999999999992	2.15
C 	60.25804759532124	33.36999999999999	2.15
C 	61.48780366869514	34.079999999999984	2.15
C 	61.48780366869514	35.499999999999986	2.15
C 	62.71755974206904	36.209999999999994	2.15
C 	62.71755974206904	37.629999999999995	2.15
C 	63.94731581544295	38.33999999999999	2.15
C 	63.94731581544295	39.75999999999999	2.15
C 	65.17707188881684	40.469999999999985	2.15
C 	65.17707188881684	41.889999999999986	2.15
C 	66.40682796219076	42.599999999999994	2.15
C 	66.40682796219076	44.019999999999996	2.15
C 	67.63658403556465	44.72999999999999	2.15
C 	67.63658403556465	46.14999999999999	2.15
C 	68.86634010893856	46.859999999999985	2.15
C 	38.12243827459099	-0.7099999999999996	2.15
C 	39.35219434796489	-2.4096269423829885e-15	2.15
C 	39.35219434796489	1.4199999999999993	2.15
C 	40.58195042133879	2.13	2.15
C 	40.58195042133879	3.5500000000000016	2.15
C 	41.811706494712695	4.259999999999995	2.15
C 	41.811706494712695	5.679999999999997	2.15
C 	43.0414625680866	6.389999999999998	2.15
C 	43.0414625680866	7.81	2.15
C 	44.2712186414605	8.519999999999992	2.15
C 	44.2712186414605	9.939999999999994	2.15
C 	45.5009747148344	10.649999999999995	2.15
C 	45.5009747148344	12.069999999999997	2.15
C 	46.730730788208305	12.779999999999998	2.15
C 	46.730730788208305	14.2	2.15
C 	47.96048686158221	14.909999999999993	2.15
C 	47.96048686158221	16.329999999999995	2.15
C 	49.19024293495612	17.039999999999996	2.15
C 	49.19024293495612	18.459999999999997	2.15
C 	50.41999900833002	19.169999999999998	2.15
C 	50.41999900833002	20.59	2.15
C 	51.649755081703915	21.299999999999994	2.15
C 	51.649755081703915	22.719999999999995	2.15
C 	52.87951115507782	23.429999999999996	2.15
C 	52.87951115507782	24.849999999999998	2.15
C 	54.10926722845173	25.56	2.15
C 	54.10926722845173	26.98	2.15
C 	55.33902330182562	27.689999999999994	2.15
C 	55.33902330182562	29.109999999999996	2.15
C 	56.568779375199526	29.819999999999997	2.15
C 	56.568779375199526	31.24	2.15
C 	57.79853544857343	31.95	2.15
C 	57.79853544857343	33.370000000000005	2.15
C 	59.02829152194734	34.07999999999999	2.15
C 	59.02829152194734	35.49999999999999	2.15
C 	60.258047595321244	36.20999999999999	2.15
C 	60.258047595321244	37.62999999999999	2.15
C 	61.487803668695136	38.339999999999996	2.15
C 	61.487803668695136	39.76	2.15
C 	62.71755974206904	40.46999999999999	2.15
C 	62.71755974206904	41.88999999999999	2.15
C 	63.94731581544295	42.59999999999999	2.15
C 	63.94731581544295	44.01999999999999	2.15
C 	65.17707188881685	44.73	2.15
C 	65.17707188881685	46.15	2.15
C 	66.40682796219075	46.85999999999999	2.15
C 	35.66292612784318	-0.7100000000000031	2.15
C 	36.892682201217085	-2.2590252584840515e-15	2.15
C 	36.892682201217085	1.419999999999996	2.15
C 	38.12243827459099	2.129999999999997	2.15
C 	38.12243827459099	3.549999999999995	2.15
C 	39.35219434796489	4.259999999999999	2.15
C 	39.35219434796489	5.679999999999997	2.15
C 	40.58195042133879	6.389999999999994	2.15
C 	40.58195042133879	7.8099999999999925	2.15
C 	41.811706494712695	8.519999999999998	2.15
C 	41.811706494712695	9.939999999999996	2.15
C 	43.0414625680866	10.649999999999993	2.15
C 	43.0414625680866	12.069999999999991	2.15
C 	44.2712186414605	12.779999999999994	2.15
C 	44.2712186414605	14.199999999999992	2.15
C 	45.5009747148344	14.909999999999997	2.15
C 	45.5009747148344	16.329999999999995	2.15
C 	46.730730788208305	17.039999999999992	2.15
C 	46.730730788208305	18.45999999999999	2.15
C 	47.96048686158221	19.169999999999995	2.15
C 	47.96048686158221	20.589999999999993	2.15
C 	49.19024293495612	21.299999999999997	2.15
C 	49.19024293495612	22.719999999999995	2.15
C 	50.41999900833002	23.429999999999993	2.15
C 	50.41999900833002	24.84999999999999	2.15
C 	51.649755081703915	25.559999999999995	2.15
C 	51.649755081703915	26.979999999999993	2.15
C 	52.87951115507782	27.689999999999998	2.15
C 	52.87951115507782	29.109999999999996	2.15
C 	54.10926722845172	29.819999999999993	2.15
C 	54.10926722845172	31.23999999999999	2.15
C 	55.33902330182563	31.949999999999996	2.15
C 	55.33902330182563	33.37	2.15
C 	56.568779375199526	34.08	2.15
C 	56.568779375199526	35.5	2.15
C 	57.79853544857343	36.209999999999994	2.15
C 	57.79853544857343	37.629999999999995	2.15
C 	59.02829152194734	38.33999999999998	2.15
C 	59.02829152194734	39.759999999999984	2.15
C 	60.25804759532124	40.46999999999999	2.15
C 	60.25804759532124	41.88999999999999	2.15
C 	61.48780366869514	42.59999999999999	2.15
C 	61.48780366869514	44.01999999999999	2.15
C 	62.71755974206904	44.72999999999998	2.15
C 	62.71755974206904	46.149999999999984	2.15
C 	63.94731581544295	46.85999999999999	2.15
C 	33.20341398109538	-0.7100000000000029	2.15
C 	34.43317005446928	-2.108423574585115e-15	2.15
C 	34.43317005446928	1.4199999999999997	2.15
C 	35.66292612784318	2.129999999999997	2.15
C 	35.66292612784318	3.5499999999999985	2.15
C 	36.892682201217085	4.259999999999995	2.15
C 	36.892682201217085	5.679999999999997	2.15
C 	38.12243827459099	6.389999999999998	2.15
C 	38.12243827459099	7.81	2.15
C 	39.35219434796489	8.519999999999994	2.15
C 	39.35219434796489	9.939999999999996	2.15
C 	40.58195042133879	10.649999999999997	2.15
C 	40.58195042133879	12.069999999999999	2.15
C 	41.811706494712695	12.779999999999992	2.15
C 	41.811706494712695	14.199999999999994	2.15
C 	43.0414625680866	14.909999999999995	2.15
C 	43.0414625680866	16.329999999999995	2.15
C 	44.2712186414605	17.039999999999996	2.15
C 	44.2712186414605	18.459999999999997	2.15
C 	45.5009747148344	19.16999999999999	2.15
C 	45.5009747148344	20.589999999999993	2.15
C 	46.730730788208305	21.299999999999994	2.15
C 	46.730730788208305	22.719999999999995	2.15
C 	47.96048686158221	23.429999999999996	2.15
C 	47.96048686158221	24.849999999999998	2.15
C 	49.19024293495612	25.55999999999999	2.15
C 	49.19024293495612	26.979999999999993	2.15
C 	50.41999900833001	27.689999999999994	2.15
C 	50.41999900833001	29.109999999999996	2.15
C 	51.649755081703915	29.819999999999997	2.15
C 	51.649755081703915	31.24	2.15
C 	52.87951115507782	31.949999999999992	2.15
C 	52.87951115507782	33.37	2.15
C 	54.10926722845173	34.08	2.15
C 	54.10926722845173	35.5	2.15
C 	55.33902330182562	36.21	2.15
C 	55.33902330182562	37.63	2.15
C 	56.568779375199526	38.339999999999996	2.15
C 	56.568779375199526	39.76	2.15
C 	57.79853544857343	40.46999999999999	2.15
C 	57.79853544857343	41.88999999999999	2.15
C 	59.02829152194734	42.599999999999994	2.15
C 	59.02829152194734	44.019999999999996	2.15
C 	60.258047595321244	44.72999999999999	2.15
C 	60.258047595321244	46.14999999999999	2.15
C 	61.487803668695136	46.859999999999985	2.15
C 	30.74390183434757	-0.7099999999999992	2.15
C 	31.973657907721474	-1.957821890686178e-15	2.15
C 	31.973657907721474	1.4199999999999997	2.15
C 	33.20341398109538	2.1300000000000003	2.15
C 	33.20341398109538	3.550000000000002	2.15
C 	34.43317005446928	4.26	2.15
C 	34.43317005446928	5.6800000000000015	2.15
C 	35.66292612784318	6.389999999999999	2.15
C 	35.66292612784318	7.8100000000000005	2.15
C 	36.892682201217085	8.520000000000001	2.15
C 	36.892682201217085	9.940000000000003	2.15
C 	38.12243827459099	10.649999999999997	2.15
C 	38.12243827459099	12.069999999999999	2.15
C 	39.35219434796489	12.78	2.15
C 	39.35219434796489	14.200000000000001	2.15
C 	40.58195042133879	14.909999999999995	2.15
C 	40.58195042133879	16.329999999999995	2.15
C 	41.811706494712695	17.039999999999996	2.15
C 	41.811706494712695	18.459999999999997	2.15
C 	43.0414625680866	19.169999999999998	2.15
C 	43.0414625680866	20.59	2.15
C 	44.2712186414605	21.299999999999994	2.15
C 	44.2712186414605	22.719999999999995	2.15
C 	45.500974714834406	23.429999999999996	2.15
C 	45.500974714834406	24.849999999999998	2.15
C 	46.730730788208305	25.56	2.15
C 	46.730730788208305	26.98	2.15
C 	47.96048686158221	27.689999999999994	2.15
C 	47.96048686158221	29.109999999999996	2.15
C 	49.19024293495611	29.819999999999997	2.15
C 	49.19024293495611	31.24	2.15
C 	50.41999900833002	31.95	2.15
C 	50.41999900833002	33.370000000000005	2.15
C 	51.649755081703915	34.08	2.15
C 	51.649755081703915	35.5	2.15
C 	52.87951115507782	36.21	2.15
C 	52.87951115507782	37.63	2.15
C 	54.10926722845172	38.34	2.15
C 	54.10926722845172	39.760000000000005	2.15
C 	55.33902330182563	40.47	2.15
C 	55.33902330182563	41.89	2.15
C 	56.56877937519953	42.599999999999994	2.15
C 	56.56877937519953	44.019999999999996	2.15
C 	57.79853544857343	44.730000000000004	2.15
C 	57.79853544857343	46.150000000000006	2.15
C 	59.02829152194734	46.85999999999999	2.15
C 	28.284389687599763	-0.7100000000000026	2.15
C 	29.51414576097367	-1.8072202067872415e-15	2.15
C 	29.51414576097367	1.4199999999999964	2.15
C 	30.74390183434757	2.1299999999999972	2.15
C 	30.74390183434757	3.5499999999999954	2.15
C 	31.973657907721474	4.26	2.15
C 	31.973657907721474	5.679999999999998	2.15
C 	33.20341398109538	6.389999999999999	2.15
C 	33.20341398109538	7.809999999999997	2.15
C 	34.43317005446928	8.519999999999998	2.15
C 	34.43317005446928	9.939999999999996	2.15
C 	35.66292612784318	10.65	2.15
C 	35.66292612784318	12.069999999999999	2.15
C 	36.892682201217085	12.779999999999996	2.15
C 	36.892682201217085	14.199999999999994	2.15
C 	38.12243827459099	14.909999999999998	2.15
C 	38.12243827459099	16.329999999999995	2.15
C 	39.35219434796489	17.039999999999992	2.15
C 	39.35219434796489	18.45999999999999	2.15
C 	40.58195042133879	19.169999999999995	2.15
C 	40.58195042133879	20.589999999999993	2.15
C 	41.811706494712695	21.299999999999997	2.15
C 	41.811706494712695	22.719999999999995	2.15
C 	43.0414625680866	23.429999999999993	2.15
C 	43.0414625680866	24.84999999999999	2.15
C 	44.27121864146051	25.559999999999995	2.15
C 	44.27121864146051	26.979999999999993	2.15
C 	45.500974714834406	27.689999999999998	2.15
C 	45.500974714834406	29.109999999999996	2.15
C 	46.730730788208305	29.819999999999993	2.15
C 	46.730730788208305	31.23999999999999	2.15
C 	47.96048686158221	31.949999999999996	2.15
C 	47.96048686158221	33.37	2.15
C 	49.19024293495612	34.08	2.15
C 	49.19024293495612	35.5	2.15
C 	50.41999900833001	36.209999999999994	2.15
C 	50.41999900833001	37.629999999999995	2.15
C 	51.649755081703915	38.34	2.15
C 	51.649755081703915	39.76	2.15
C 	52.87951115507782	40.47	2.15
C 	52.87951115507782	41.89	2.15
C 	54.10926722845173	42.599999999999994	2.15
C 	54.10926722845173	44.019999999999996	2.15
C 	55.339023301825634	44.72999999999999	2.15
C 	55.339023301825634	46.14999999999999	2.15
C 	56.568779375199526	46.86	2.15
C 	25.824877540851958	-0.7100000000000024	2.15
C 	27.05463361422586	-1.6566185228883043e-15	2.15
C 	27.05463361422586	1.4200000000000002	2.15
C 	28.284389687599763	2.1299999999999972	2.15
C 	28.284389687599763	3.549999999999999	2.15
C 	29.51414576097367	4.259999999999996	2.15
C 	29.51414576097367	5.679999999999998	2.15
C 	30.743901834347568	6.389999999999999	2.15
C 	30.743901834347568	7.8100000000000005	2.15
C 	31.973657907721474	8.519999999999998	2.15
C 	31.973657907721474	9.94	2.15
C 	33.20341398109537	10.649999999999997	2.15
C 	33.20341398109537	12.069999999999999	2.15
C 	34.43317005446928	12.78	2.15
C 	34.43317005446928	14.200000000000001	2.15
C 	35.66292612784318	14.909999999999995	2.15
C 	35.66292612784318	16.329999999999995	2.15
C 	36.892682201217085	17.039999999999996	2.15
C 	36.892682201217085	18.459999999999997	2.15
C 	38.122438274590984	19.16999999999999	2.15
C 	38.122438274590984	20.589999999999993	2.15
C 	39.35219434796489	21.299999999999994	2.15
C 	39.35219434796489	22.719999999999995	2.15
C 	40.58195042133879	23.429999999999996	2.15
C 	40.58195042133879	24.849999999999998	2.15
C 	41.811706494712695	25.55999999999999	2.15
C 	41.811706494712695	26.979999999999993	2.15
C 	43.0414625680866	27.689999999999994	2.15
C 	43.0414625680866	29.109999999999996	2.15
C 	44.2712186414605	29.819999999999997	2.15
C 	44.2712186414605	31.24	2.15
C 	45.500974714834406	31.949999999999992	2.15
C 	45.500974714834406	33.37	2.15
C 	46.730730788208305	34.08	2.15
C 	46.730730788208305	35.5	2.15
C 	47.96048686158221	36.21	2.15
C 	47.96048686158221	37.63	2.15
C 	49.19024293495611	38.339999999999996	2.15
C 	49.19024293495611	39.76	2.15
C 	50.41999900833002	40.47	2.15
C 	50.41999900833002	41.89	2.15
C 	51.649755081703915	42.6	2.15
C 	51.649755081703915	44.02	2.15
C 	52.87951115507782	44.73	2.15
C 	52.87951115507782	46.15	2.15
C 	54.10926722845173	46.85999999999999	2.15
C 	23.365365394104153	-0.7099999999999987	2.15
C 	24.595121467478055	-1.5060168389893676e-15	2.15
C 	24.595121467478055	1.4200000000000002	2.15
C 	25.824877540851958	2.130000000000001	2.15
C 	25.824877540851958	3.5500000000000025	2.15
C 	27.054633614225864	4.26	2.15
C 	27.054633614225864	5.6800000000000015	2.15
C 	28.284389687599763	6.389999999999999	2.15
C 	28.284389687599763	7.8100000000000005	2.15
C 	29.51414576097367	8.520000000000001	2.15
C 	29.51414576097367	9.940000000000003	2.15
C 	30.743901834347568	10.65	2.15
C 	30.743901834347568	12.070000000000002	2.15
C 	31.973657907721474	12.78	2.15
C 	31.973657907721474	14.200000000000001	2.15
C 	33.20341398109537	14.910000000000002	2.15
C 	33.20341398109537	16.330000000000002	2.15
C 	34.43317005446928	17.039999999999996	2.15
C 	34.43317005446928	18.459999999999997	2.15
C 	35.66292612784318	19.169999999999998	2.15
C 	35.66292612784318	20.59	2.15
C 	36.892682201217085	21.299999999999994	2.15
C 	36.892682201217085	22.719999999999995	2.15
C 	38.122438274590984	23.429999999999996	2.15
C 	38.122438274590984	24.849999999999998	2.15
C 	39.35219434796489	25.56	2.15
C 	39.35219434796489	26.98	2.15
C 	40.58195042133879	27.689999999999994	2.15
C 	40.58195042133879	29.109999999999996	2.15
C 	41.811706494712695	29.819999999999997	2.15
C 	41.811706494712695	31.24	2.15
C 	43.0414625680866	31.95	2.15
C 	43.0414625680866	33.370000000000005	2.15
C 	44.2712186414605	34.08	2.15
C 	44.2712186414605	35.5	2.15
C 	45.5009747148344	36.21	2.15
C 	45.5009747148344	37.63	2.15
C 	46.730730788208305	38.34	2.15
C 	46.730730788208305	39.760000000000005	2.15
C 	47.960486861582204	40.47	2.15
C 	47.960486861582204	41.89	2.15
C 	49.19024293495611	42.6	2.15
C 	49.19024293495611	44.02	2.15
C 	50.41999900833001	44.730000000000004	2.15
C 	50.41999900833001	46.150000000000006	2.15
C 	51.649755081703915	46.86	2.15
C 	20.905853247356347	-0.7100000000000022	2.15
C 	22.13560932073025	-1.355415155090431e-15	2.15
C 	22.13560932073025	1.4199999999999968	2.15
C 	23.365365394104153	2.1299999999999977	2.15
C 	23.365365394104153	3.549999999999996	2.15
C 	24.595121467478055	4.26	2.15
C 	24.595121467478055	5.679999999999998	2.15
C 	25.824877540851958	6.389999999999999	2.15
C 	25.824877540851958	7.809999999999997	2.15
C 	27.054633614225864	8.519999999999998	2.15
C 	27.054633614225864	9.939999999999996	2.15
C 	28.284389687599763	10.65	2.15
C 	28.284389687599763	12.069999999999999	2.15
C 	29.51414576097367	12.78	2.15
C 	29.51414576097367	14.199999999999998	2.15
C 	30.743901834347568	14.909999999999998	2.15
C 	30.743901834347568	16.329999999999995	2.15
C 	31.973657907721474	17.04	2.15
C 	31.973657907721474	18.459999999999997	2.15
C 	33.20341398109537	19.169999999999995	2.15
C 	33.20341398109537	20.589999999999993	2.15
C 	34.43317005446928	21.299999999999997	2.15
C 	34.43317005446928	22.719999999999995	2.15
C 	35.66292612784318	23.429999999999993	2.15
C 	35.66292612784318	24.84999999999999	2.15
C 	36.892682201217085	25.559999999999995	2.15
C 	36.892682201217085	26.979999999999993	2.15
C 	38.122438274590984	27.689999999999998	2.15
C 	38.122438274590984	29.109999999999996	2.15
C 	39.35219434796489	29.819999999999993	2.15
C 	39.35219434796489	31.23999999999999	2.15
C 	40.581950421338796	31.949999999999996	2.15
C 	40.581950421338796	33.37	2.15
C 	41.811706494712695	34.08	2.15
C 	41.811706494712695	35.5	2.15
C 	43.0414625680866	36.209999999999994	2.15
C 	43.0414625680866	37.629999999999995	2.15
C 	44.2712186414605	38.34	2.15
C 	44.2712186414605	39.76	2.15
C 	45.500974714834406	40.47	2.15
C 	45.500974714834406	41.89	2.15
C 	46.730730788208305	42.599999999999994	2.15
C 	46.730730788208305	44.019999999999996	2.15
C 	47.96048686158221	44.730000000000004	2.15
C 	47.96048686158221	46.15	2.15
C 	49.19024293495611	46.86	2.15
C 	18.446341100608542	-0.7100000000000002	2.15
C 	19.676097173982445	-1.2048134711914942e-15	2.15
C 	19.676097173982445	1.4199999999999988	2.15
C 	20.905853247356347	2.1299999999999977	2.15
C 	20.905853247356347	3.5499999999999976	2.15
C 	22.13560932073025	4.259999999999996	2.15
C 	22.13560932073025	5.679999999999996	2.15
C 	23.365365394104153	6.389999999999999	2.15
C 	23.365365394104153	7.809999999999999	2.15
C 	24.59512146747806	8.519999999999998	2.15
C 	24.59512146747806	9.939999999999998	2.15
C 	25.824877540851958	10.649999999999997	2.15
C 	25.824877540851958	12.069999999999997	2.15
C 	27.054633614225864	12.78	2.15
C 	27.054633614225864	14.2	2.15
C 	28.284389687599763	14.909999999999998	2.15
C 	28.284389687599763	16.33	2.15
C 	29.51414576097367	17.039999999999996	2.15
C 	29.51414576097367	18.459999999999997	2.15
C 	30.743901834347568	19.169999999999998	2.15
C 	30.743901834347568	20.59	2.15
C 	31.973657907721474	21.299999999999994	2.15
C 	31.973657907721474	22.719999999999995	2.15
C 	33.20341398109537	23.429999999999996	2.15
C 	33.20341398109537	24.849999999999998	2.15
C 	34.43317005446928	25.55999999999999	2.15
C 	34.43317005446928	26.979999999999993	2.15
C 	35.66292612784318	27.689999999999994	2.15
C 	35.66292612784318	29.109999999999996	2.15
C 	36.892682201217085	29.819999999999997	2.15
C 	36.892682201217085	31.24	2.15
C 	38.122438274590984	31.949999999999992	2.15
C 	38.122438274590984	33.37	2.15
C 	39.35219434796489	34.08	2.15
C 	39.35219434796489	35.5	2.15
C 	40.581950421338796	36.21	2.15
C 	40.581950421338796	37.63	2.15
C 	41.811706494712695	38.339999999999996	2.15
C 	41.811706494712695	39.76	2.15
C 	43.041462568086594	40.47	2.15
C 	43.041462568086594	41.89	2.15
C 	44.2712186414605	42.6	2.15
C 	44.2712186414605	44.02	2.15
C 	45.5009747148344	44.73	2.15
C 	45.5009747148344	46.15	2.15
C 	46.730730788208305	46.86	2.15
C 	15.986828953860737	-0.7100000000000019	2.15
C 	17.21658502723464	-1.0542117872925575e-15	2.15
C 	17.21658502723464	1.4199999999999988	2.15
C 	18.446341100608542	2.1299999999999977	2.15
C 	18.446341100608542	3.5499999999999976	2.15
C 	19.676097173982445	4.259999999999997	2.15
C 	19.676097173982445	5.679999999999997	2.15
C 	20.905853247356347	6.389999999999996	2.15
C 	20.905853247356347	7.809999999999996	2.15
C 	22.13560932073025	8.519999999999998	2.15
C 	22.13560932073025	9.939999999999998	2.15
C 	23.365365394104153	10.649999999999997	2.15
C 	23.365365394104153	12.069999999999997	2.15
C 	24.59512146747806	12.779999999999996	2.15
C 	24.59512146747806	14.199999999999996	2.15
C 	25.824877540851958	14.909999999999998	2.15
C 	25.824877540851958	16.33	2.15
C 	27.054633614225864	17.04	2.15
C 	27.054633614225864	18.46	2.15
C 	28.284389687599763	19.169999999999998	2.15
C 	28.284389687599763	20.589999999999996	2.15
C 	29.51414576097367	21.299999999999997	2.15
C 	29.51414576097367	22.719999999999995	2.15
C 	30.743901834347568	23.429999999999993	2.15
C 	30.743901834347568	24.84999999999999	2.15
C 	31.973657907721474	25.559999999999995	2.15
C 	31.973657907721474	26.979999999999993	2.15
C 	33.20341398109537	27.68999999999999	2.15
C 	33.20341398109537	29.10999999999999	2.15
C 	34.43317005446928	29.819999999999993	2.15
C 	34.43317005446928	31.23999999999999	2.15
C 	35.66292612784318	31.949999999999996	2.15
C 	35.66292612784318	33.37	2.15
C 	36.892682201217085	34.08	2.15
C 	36.892682201217085	35.49999999999999	2.15
C 	38.12243827459099	36.209999999999994	2.15
C 	38.12243827459099	37.629999999999995	2.15
C 	39.35219434796489	38.34	2.15
C 	39.35219434796489	39.76	2.15
C 	40.581950421338796	40.47	2.15
C 	40.581950421338796	41.88999999999999	2.15
C 	41.811706494712695	42.599999999999994	2.15
C 	41.811706494712695	44.019999999999996	2.15
C 	43.0414625680866	44.730000000000004	2.15
C 	43.0414625680866	46.15	2.15
C 	44.2712186414605	46.86	2.15
C 	13.527316807112932	-0.7100000000000016	2.15
C 	14.757072880486835	-9.036101033936207e-16	2.15
C 	14.757072880486835	1.419999999999999	2.15
C 	15.986828953860737	2.13	2.15
C 	15.986828953860737	3.55	2.15
C 	17.21658502723464	4.259999999999999	2.15
C 	17.21658502723464	5.679999999999999	2.15
C 	18.446341100608542	6.389999999999998	2.15
C 	18.446341100608542	7.809999999999998	2.15
C 	19.676097173982445	8.519999999999996	2.15
C 	19.676097173982445	9.939999999999996	2.15
C 	20.905853247356347	10.649999999999999	2.15
C 	20.905853247356347	12.069999999999999	2.15
C 	22.135609320730254	12.779999999999998	2.15
C 	22.135609320730254	14.199999999999998	2.15
C 	23.365365394104153	14.909999999999997	2.15
C 	23.365365394104153	16.33	2.15
C 	24.59512146747806	17.04	2.15
C 	24.59512146747806	18.46	2.15
C 	25.824877540851958	19.17	2.15
C 	25.824877540851958	20.59	2.15
C 	27.054633614225864	21.299999999999997	2.15
C 	27.054633614225864	22.72	2.15
C 	28.284389687599763	23.43	2.15
C 	28.284389687599763	24.85	2.15
C 	29.51414576097367	25.55999999999999	2.15
C 	29.51414576097367	26.979999999999993	2.15
C 	30.743901834347568	27.689999999999994	2.15
C 	30.74390183434757	29.109999999999996	2.15
C 	31.973657907721478	29.81999999999999	2.15
C 	31.973657907721478	31.23999999999999	2.15
C 	33.20341398109537	31.949999999999992	2.15
C 	33.20341398109537	33.37	2.15
C 	34.43317005446928	34.08	2.15
C 	34.43317005446928	35.5	2.15
C 	35.66292612784318	36.209999999999994	2.15
C 	35.66292612784318	37.629999999999995	2.15
C 	36.892682201217085	38.339999999999996	2.15
C 	36.892682201217085	39.76	2.15
C 	38.12243827459099	40.47	2.15
C 	38.12243827459099	41.89	2.15
C 	39.35219434796489	42.599999999999994	2.15
C 	39.35219434796489	44.019999999999996	2.15
C 	40.58195042133879	44.73	2.15
C 	40.58195042133879	46.15	2.15
C 	41.811706494712695	46.86	2.15
C 	11.067804660365125	-0.7099999999999997	2.15
C 	12.297560733739028	-7.530084194946838e-16	2.15
C 	12.297560733739028	1.4199999999999993	2.15
C 	13.527316807112932	2.13	2.15
C 	13.527316807112932	3.55	2.15
C 	14.757072880486835	4.260000000000001	2.15
C 	14.757072880486835	5.680000000000001	2.15
C 	15.986828953860737	6.39	2.15
C 	15.986828953860737	7.81	2.15
C 	17.21658502723464	8.519999999999998	2.15
C 	17.21658502723464	9.939999999999998	2.15
C 	18.446341100608542	10.649999999999997	2.15
C 	18.446341100608542	12.069999999999997	2.15
C 	19.676097173982445	12.78	2.15
C 	19.676097173982445	14.2	2.15
C 	20.905853247356347	14.909999999999998	2.15
C 	20.905853247356347	16.33	2.15
C 	22.13560932073025	17.04	2.15
C 	22.13560932073025	18.46	2.15
C 	23.365365394104153	19.17	2.15
C 	23.365365394104153	20.590000000000003	2.15
C 	24.595121467478055	21.3	2.15
C 	24.595121467478055	22.72	2.15
C 	25.824877540851958	23.43	2.15
C 	25.824877540851958	24.85	2.15
C 	27.05463361422586	25.560000000000002	2.15
C 	27.05463361422586	26.980000000000004	2.15
C 	28.284389687599763	27.689999999999998	2.15
C 	28.284389687599766	29.11	2.15
C 	29.51414576097367	29.819999999999997	2.15
C 	29.51414576097367	31.24	2.15
C 	30.74390183434757	31.949999999999992	2.15
C 	30.74390183434757	33.37	2.15
C 	31.973657907721474	34.08	2.15
C 	31.973657907721474	35.5	2.15
C 	33.20341398109537	36.21	2.15
C 	33.20341398109537	37.63	2.15
C 	34.43317005446928	38.339999999999996	2.15
C 	34.43317005446928	39.76	2.15
C 	35.662926127843185	40.47	2.15
C 	35.662926127843185	41.89	2.15
C 	36.892682201217085	42.6	2.15
C 	36.892682201217085	44.02	2.15
C 	38.12243827459099	44.73	2.15
C 	38.12243827459099	46.15	2.15
C 	39.35219434796489	46.86	2.15
C 	8.60829251361732	-0.7100000000000005	2.15
C 	9.838048586991222	-6.024067355957471e-16	2.15
C 	9.838048586991222	1.4199999999999993	2.15
C 	11.067804660365125	2.129999999999998	2.15
C 	11.067804660365125	3.549999999999998	2.15
C 	12.29756073373903	4.259999999999999	2.15
C 	12.29756073373903	5.679999999999999	2.15
C 	13.527316807112932	6.39	2.15
C 	13.527316807112932	7.81	2.15
C 	14.757072880486835	8.519999999999998	2.15
C 	14.757072880486835	9.939999999999998	2.15
C 	15.986828953860737	10.649999999999997	2.15
C 	15.986828953860737	12.069999999999997	2.15
C 	17.21658502723464	12.779999999999996	2.15
C 	17.21658502723464	14.199999999999996	2.15
C 	18.446341100608542	14.909999999999998	2.15
C 	18.446341100608542	16.33	2.15
C 	19.676097173982445	17.04	2.15
C 	19.676097173982445	18.46	2.15
C 	20.905853247356347	19.169999999999998	2.15
C 	20.905853247356347	20.589999999999996	2.15
C 	22.13560932073025	21.3	2.15
C 	22.13560932073025	22.72	2.15
C 	23.365365394104153	23.43	2.15
C 	23.365365394104153	24.85	2.15
C 	24.595121467478055	25.56	2.15
C 	24.595121467478055	26.979999999999997	2.15
C 	25.824877540851958	27.69	2.15
C 	25.82487754085196	29.11	2.15
C 	27.054633614225864	29.819999999999997	2.15
C 	27.054633614225864	31.239999999999995	2.15
C 	28.284389687599766	31.95	2.15
C 	28.284389687599766	33.37	2.15
C 	29.51414576097367	34.08	2.15
C 	29.51414576097367	35.49999999999999	2.15
C 	30.74390183434757	36.209999999999994	2.15
C 	30.74390183434757	37.629999999999995	2.15
C 	31.973657907721474	38.34	2.15
C 	31.973657907721474	39.76	2.15
C 	33.20341398109537	40.47	2.15
C 	33.20341398109537	41.88999999999999	2.15
C 	34.43317005446928	42.599999999999994	2.15
C 	34.43317005446928	44.019999999999996	2.15
C 	35.662926127843185	44.730000000000004	2.15
C 	35.662926127843185	46.15	2.15
C 	36.892682201217085	46.86	2.15
C 	6.148780366869515	-0.7100000000000003	2.15
C 	7.378536440243417	-4.518050516968104e-16	2.15
C 	7.378536440243417	1.4199999999999995	2.15
C 	8.60829251361732	2.1299999999999994	2.15
C 	8.60829251361732	3.5499999999999994	2.15
C 	9.838048586991222	4.259999999999998	2.15
C 	9.838048586991222	5.679999999999998	2.15
C 	11.067804660365127	6.389999999999999	2.15
C 	11.067804660365127	7.809999999999999	2.15
C 	12.29756073373903	8.52	2.15
C 	12.29756073373903	9.940000000000001	2.15
C 	13.527316807112932	10.649999999999999	2.15
C 	13.527316807112932	12.07	2.15
C 	14.757072880486835	12.779999999999996	2.15
C 	14.757072880486835	14.199999999999998	2.15
C 	15.986828953860739	14.909999999999995	2.15
C 	15.986828953860739	16.33	2.15
C 	17.21658502723464	17.04	2.15
C 	17.21658502723464	18.46	2.15
C 	18.446341100608542	19.169999999999998	2.15
C 	18.446341100608542	20.59	2.15
C 	19.676097173982445	21.299999999999997	2.15
C 	19.676097173982445	22.72	2.15
C 	20.905853247356347	23.43	2.15
C 	20.905853247356347	24.85	2.15
C 	22.13560932073025	25.56	2.15
C 	22.13560932073025	26.98	2.15
C 	23.365365394104153	27.689999999999998	2.15
C 	23.365365394104156	29.11	2.15
C 	24.59512146747806	29.82	2.15
C 	24.59512146747806	31.240000000000002	2.15
C 	25.82487754085196	31.949999999999996	2.15
C 	25.82487754085196	33.37	2.15
C 	27.054633614225864	34.08	2.15
C 	27.054633614225864	35.5	2.15
C 	28.284389687599766	36.209999999999994	2.15
C 	28.284389687599766	37.629999999999995	2.15
C 	29.51414576097367	38.339999999999996	2.15
C 	29.51414576097367	39.76	2.15
C 	30.74390183434757	40.47	2.15
C 	30.74390183434757	41.89	2.15
C 	31.973657907721474	42.599999999999994	2.15
C 	31.973657907721474	44.019999999999996	2.15
C 	33.20341398109538	44.73	2.15
C 	33.20341398109538	46.15	2.15
C 	34.43317005446928	46.86	2.15
C 	3.6892682201217086	-0.7100000000000002	2.15
C 	4.919024293495611	-3.0120336779787356e-16	2.15
C 	4.919024293495611	1.4199999999999997	2.15
C 	6.148780366869515	2.1299999999999994	2.15
C 	6.148780366869515	3.5499999999999994	2.15
C 	7.378536440243417	4.259999999999999	2.15
C 	7.378536440243417	5.679999999999999	2.15
C 	8.60829251361732	6.389999999999998	2.15
C 	8.60829251361732	7.809999999999998	2.15
C 	9.838048586991222	8.52	2.15
C 	9.838048586991222	9.94	2.15
C 	11.067804660365125	10.65	2.15
C 	11.067804660365125	12.07	2.15
C 	12.297560733739028	12.78	2.15
C 	12.297560733739028	14.2	2.15
C 	13.527316807112932	14.909999999999998	2.15
C 	13.527316807112932	16.33	2.15
C 	14.757072880486835	17.04	2.15
C 	14.757072880486835	18.459999999999997	2.15
C 	15.986828953860737	19.17	2.15
C 	15.986828953860737	20.59	2.15
C 	17.21658502723464	21.299999999999997	2.15
C 	17.21658502723464	22.72	2.15
C 	18.446341100608542	23.43	2.15
C 	18.446341100608542	24.849999999999998	2.15
C 	19.676097173982445	25.560000000000002	2.15
C 	19.676097173982445	26.98	2.15
C 	20.905853247356347	27.689999999999998	2.15
C 	20.90585324735635	29.11	2.15
C 	22.135609320730254	29.82	2.15
C 	22.135609320730254	31.24	2.15
C 	23.365365394104156	31.950000000000003	2.15
C 	23.365365394104156	33.370000000000005	2.15
C 	24.59512146747806	34.08	2.15
C 	24.59512146747806	35.5	2.15
C 	25.82487754085196	36.21	2.15
C 	25.82487754085196	37.629999999999995	2.15
C 	27.054633614225864	38.339999999999996	2.15
C 	27.054633614225864	39.75999999999999	2.15
C 	28.284389687599766	40.47	2.15
C 	28.284389687599766	41.89	2.15
C 	29.51414576097367	42.6	2.15
C 	29.51414576097367	44.019999999999996	2.15
C 	30.74390183434757	44.73	2.15
C 	30.74390183434757	46.14999999999999	2.15
C 	31.973657907721478	46.86	2.15
C 	2.4595121467478056	-1.5060168389893678e-16	2.15
C 	2.4595121467478056	1.4199999999999997	2.15
C 	3.6892682201217086	2.1299999999999994	2.15
C 	3.6892682201217086	3.5499999999999994	2.15
C 	4.919024293495611	4.26	2.15
C 	4.919024293495611	5.68	2.15
C 	6.148780366869514	6.39	2.15
C 	6.148780366869515	7.81	2.15
C 	7.378536440243417	8.52	2.15
C 	7.378536440243417	9.939999999999998	2.15
C 	8.60829251361732	10.649999999999999	2.15
C 	8.60829251361732	12.07	2.15
C 	9.838048586991222	12.780000000000001	2.15
C 	9.838048586991222	14.2	2.15
C 	11.067804660365127	14.91	2.15
C 	11.067804660365127	16.33	2.15
C 	12.29756073373903	17.04	2.15
C 	12.29756073373903	18.459999999999997	2.15
C 	13.527316807112932	19.169999999999998	2.15
C 	13.527316807112932	20.589999999999996	2.15
C 	14.757072880486835	21.3	2.15
C 	14.757072880486835	22.72	2.15
C 	15.986828953860739	23.43	2.15
C 	15.986828953860739	24.849999999999998	2.15
C 	17.21658502723464	25.56	2.15
C 	17.21658502723464	26.979999999999997	2.15
C 	18.446341100608542	27.69	2.15
C 	18.446341100608546	29.11	2.15
C 	19.67609717398245	29.82	2.15
C 	19.67609717398245	31.24	2.15
C 	20.90585324735635	31.95	2.15
C 	20.90585324735635	33.37	2.15
C 	22.135609320730254	34.08	2.15
C 	22.135609320730254	35.5	2.15
C 	23.365365394104156	36.209999999999994	2.15
C 	23.365365394104156	37.629999999999995	2.15
C 	24.59512146747806	38.339999999999996	2.15
C 	24.59512146747806	39.76	2.15
C 	25.82487754085196	40.46999999999999	2.15
C 	25.82487754085196	41.88999999999999	2.15
C 	27.054633614225864	42.599999999999994	2.15
C 	27.054633614225864	44.019999999999996	2.15
C 	28.284389687599766	44.73	2.15
C 	28.284389687599766	46.15	2.15
C 	29.51414576097367	46.85999999999999	2.15
H 	52.87951115507782	-1.8000000000000043	2.15
H 	55.053234918576756	-0.5450000000000029	2.15
H 	56.282990991950655	1.5849999999999838	2.15
H 	57.51274706532456	3.714999999999995	2.15
H 	58.74250313869847	5.844999999999997	2.15
H 	59.97225921207237	7.974999999999989	2.15
H 	61.202015285446265	10.104999999999992	2.15
H 	62.43177135882017	12.234999999999998	2.15
H 	63.66152743219408	14.36499999999999	2.15
H 	64.89128350556798	16.494999999999997	2.15
H 	66.12103957894188	18.624999999999993	2.15
H 	67.35079565231578	20.754999999999995	2.15
H 	68.58055172568969	22.88499999999998	2.15
H 	69.81030779906361	25.015000000000008	2.15
H 	71.0400638724375	27.144999999999985	2.15
H 	72.26981994581139	29.27499999999998	2.15
H 	73.49957601918531	31.405000000000012	2.15
H 	74.7293320925592	33.53499999999998	2.15
H 	75.95908816593311	35.664999999999985	2.15
H 	75.95908816593312	38.174999999999976	2.15
H 	50.41999900833001	-1.800000000000004	2.15
H 	74.7293320925592	40.305	2.15
H 	47.96048686158221	-1.7999999999999967	2.15
H 	73.4995760191853	42.434999999999995	2.15
H 	45.5009747148344	-1.8000000000000038	2.15
H 	72.26981994581139	44.56499999999999	2.15
H 	43.0414625680866	-1.7999999999999965	2.15
H 	71.0400638724375	46.695	2.15
H 	40.58195042133879	-1.8000000000000034	2.15
H 	68.86634010893856	47.94999999999999	2.15
H 	38.12243827459099	-1.7999999999999998	2.15
H 	66.40682796219072	47.949999999999996	2.15
H 	35.66292612784318	-1.8000000000000032	2.15
H 	63.94731581544295	47.949999999999996	2.15
H 	33.20341398109538	-1.800000000000003	2.15
H 	61.48780366869512	47.94999999999999	2.15
H 	30.74390183434757	-1.7999999999999994	2.15
H 	59.02829152194734	47.949999999999996	2.15
H 	28.284389687599763	-1.8000000000000027	2.15
H 	56.56877937519951	47.95	2.15
H 	25.824877540851958	-1.8000000000000025	2.15
H 	54.10926722845173	47.949999999999996	2.15
H 	23.365365394104153	-1.799999999999999	2.15
H 	51.649755081703915	47.95	2.15
H 	20.905853247356347	-1.8000000000000023	2.15
H 	49.19024293495611	47.95	2.15
H 	18.446341100608542	-1.8000000000000003	2.15
H 	46.730730788208305	47.95	2.15
H 	15.986828953860737	-1.800000000000002	2.15
H 	44.2712186414605	47.95	2.15
H 	13.527316807112932	-1.8000000000000016	2.15
H 	41.811706494712695	47.95	2.15
H 	11.067804660365125	-1.7999999999999998	2.15
H 	39.35219434796489	47.95	2.15
H 	8.60829251361732	-1.8000000000000007	2.15
H 	36.892682201217085	47.95	2.15
H 	6.148780366869515	-1.8000000000000003	2.15
H 	34.433170054469265	47.95	2.15
H 	3.6892682201217086	-1.8000000000000003	2.15
H 	31.973657907721485	47.95	2.15
H 	1.5155444566227672	-0.5449999999999999	2.15
H 	1.5155444566227674	1.9649999999999999	2.15
H 	2.7453005299966704	4.095	2.15
H 	3.9750566033705734	6.2250000000000005	2.15
H 	5.204812676744476	8.354999999999999	2.15
H 	6.434568750118379	10.484999999999996	2.15
H 	7.664324823492282	12.615	2.15
H 	8.894080896866184	14.744999999999997	2.15
H 	10.123836970240088	16.874999999999996	2.15
H 	11.35359304361399	19.005	2.15
H 	12.583349116987891	21.134999999999994	2.15
H 	13.813105190361794	23.264999999999993	2.15
H 	15.0428612637357	25.395	2.15
H 	16.2726173371096	27.524999999999995	2.15
H 	17.502373410483507	29.654999999999998	2.15
H 	18.73212948385741	31.784999999999997	2.15
H 	19.961885557231312	33.91499999999999	2.15
H 	21.19164163060522	36.045	2.15
H 	22.42139770397912	38.175000000000004	2.15
H 	23.651153777353024	40.305	2.15
H 	24.880909850726923	42.43499999999999	2.15
H 	26.11066592410083	44.565	2.15
H 	27.34042199747473	46.69500000000001	2.15
H 	29.51414576097367	47.949999999999996	2.15
