2336

C 	0.0	0.0	0.0
C 	1.2297560733739028	0.7099999999999999	0.0
C 	2.4595121467478056	-2.3647750424515833e-16	0.0
C 	3.689268220121708	0.7099999999999995	0.0
C 	4.919024293495611	-4.729550084903167e-16	0.0
C 	6.148780366869514	0.7099999999999993	0.0
C 	7.378536440243416	-7.09432512735475e-16	0.0
C 	8.60829251361732	0.7099999999999991	0.0
C 	9.838048586991222	-9.459100169806333e-16	0.0
C 	11.067804660365125	0.7099999999999989	0.0
C 	12.297560733739026	-1.1823875212257916e-15	0.0
C 	13.527316807112928	0.7099999999999986	0.0
C 	14.757072880486833	-1.41886502547095e-15	0.0
C 	15.986828953860735	0.7099999999999984	0.0
C 	17.21658502723464	-7.671641100159832e-16	0.0
C 	18.44634110060854	0.7099999999999982	0.0
C 	19.676097173982445	-1.8918200339612667e-15	0.0
C 	20.905853247356347	0.7099999999999989	0.0
C 	22.135609320730246	-2.128297538206425e-15	0.0
C 	23.36536539410415	0.7099999999999967	0.0
C 	24.59512146747805	-2.364775042451583e-15	0.0
C 	25.824877540851954	0.7099999999999983	0.0
C 	27.05463361422586	-8.248957072964913e-16	0.0
C 	28.284389687599763	0.7099999999999999	0.0
C 	29.514145760973665	-2.8377300509419e-15	0.0
C 	30.743901834347565	0.7099999999999961	0.0
C 	31.97365790772147	-3.0742075551870582e-15	0.0
C 	33.20341398109537	0.7099999999999976	0.0
C 	34.43317005446928	-1.5343282200319664e-15	0.0
C 	35.66292612784318	0.7099999999999992	0.0
C 	36.892682201217085	-1.7708057242771246e-15	0.0
C 	38.122438274590984	0.7099999999999972	0.0
C 	39.35219434796489	-3.783640067922533e-15	0.0
C 	40.58195042133879	0.7099999999999969	0.0
C 	41.811706494712695	-4.67403893367191e-16	0.0
C 	43.0414625680866	0.7100000000000002	0.0
C 	44.27121864146049	-4.25659507641285e-15	0.0
C 	45.5009747148344	0.7099999999999964	0.0
C 	46.730730788208305	-9.403589018575075e-16	0.0
C 	47.96048686158221	0.7099999999999997	0.0
C 	49.1902429349561	-4.729550084903166e-15	0.0
C 	50.41999900833001	0.709999999999996	0.0
C 	51.64975508170391	-1.413313910347824e-15	0.0
C 	52.879511155077815	0.7099999999999993	0.0
C 	54.10926722845172	-1.6497914145929826e-15	0.0
C 	55.33902330182562	0.7099999999999991	0.0
C 	56.56877937519952	-5.438982597638641e-15	0.0
C 	57.798535448573425	0.7099999999999953	0.0
C 	59.02829152194733	-5.6754601018838e-15	0.0
C 	60.25804759532124	0.709999999999995	0.0
C 	1.2297560733739028	2.1299999999999994	0.0
C 	2.4595121467478056	2.8399999999999994	0.0
C 	3.689268220121708	2.1299999999999994	0.0
C 	4.919024293495611	2.8399999999999994	0.0
C 	6.148780366869514	2.129999999999999	0.0
C 	7.378536440243416	2.839999999999999	0.0
C 	8.60829251361732	2.1299999999999986	0.0
C 	9.838048586991222	2.8399999999999985	0.0
C 	11.067804660365123	2.129999999999998	0.0
C 	12.297560733739028	2.839999999999999	0.0
C 	13.527316807112928	2.1299999999999977	0.0
C 	14.757072880486833	2.839999999999998	0.0
C 	15.986828953860735	2.129999999999998	0.0
C 	17.216585027234636	2.839999999999997	0.0
C 	18.446341100608542	2.129999999999998	0.0
C 	19.676097173982445	2.8399999999999985	0.0
C 	20.905853247356344	2.1299999999999977	0.0
C 	22.13560932073025	2.8399999999999985	0.0
C 	23.36536539410415	2.129999999999997	0.0
C 	24.595121467478055	2.839999999999997	0.0
C 	25.824877540851954	2.1299999999999963	0.0
C 	27.05463361422586	2.839999999999997	0.0
C 	28.284389687599763	2.129999999999998	0.0
C 	29.514145760973665	2.8399999999999985	0.0
C 	30.743901834347568	2.129999999999996	0.0
C 	31.97365790772147	2.8399999999999967	0.0
C 	33.20341398109537	2.129999999999996	0.0
C 	34.43317005446928	2.8399999999999963	0.0
C 	35.66292612784318	2.1299999999999972	0.0
C 	36.89268220121708	2.8399999999999963	0.0
C 	38.122438274590984	2.129999999999997	0.0
C 	39.35219434796489	2.8399999999999976	0.0
C 	40.58195042133879	2.1299999999999986	0.0
C 	41.81170649471269	2.839999999999996	0.0
C 	43.0414625680866	2.129999999999998	0.0
C 	44.2712186414605	2.8399999999999954	0.0
C 	45.5009747148344	2.129999999999998	0.0
C 	46.7307307882083	2.8399999999999954	0.0
C 	47.96048686158221	2.1299999999999977	0.0
C 	49.19024293495611	2.839999999999995	0.0
C 	50.41999900833001	2.1299999999999977	0.0
C 	51.64975508170391	2.8399999999999945	0.0
C 	52.879511155077815	2.1299999999999972	0.0
C 	54.10926722845171	2.8399999999999945	0.0
C 	55.33902330182563	2.130000000000001	0.0
C 	56.56877937519952	2.8399999999999976	0.0
C 	57.798535448573425	2.129999999999997	0.0
C 	59.028291521947324	2.839999999999994	0.0
C 	60.25804759532124	2.129999999999997	0.0
C 	61.487803668695136	2.8399999999999936	0.0
C 	2.4595121467478056	4.259999999999999	0.0
C 	3.689268220121708	4.969999999999999	0.0
C 	4.919024293495611	4.259999999999999	0.0
C 	6.148780366869514	4.969999999999999	0.0
C 	7.378536440243416	4.259999999999999	0.0
C 	8.60829251361732	4.969999999999999	0.0
C 	9.83804858699122	4.259999999999998	0.0
C 	11.067804660365125	4.969999999999999	0.0
C 	12.297560733739028	4.259999999999998	0.0
C 	13.52731680711293	4.969999999999998	0.0
C 	14.757072880486831	4.259999999999998	0.0
C 	15.986828953860735	4.969999999999998	0.0
C 	17.21658502723464	4.259999999999997	0.0
C 	18.446341100608542	4.969999999999998	0.0
C 	19.676097173982445	4.259999999999999	0.0
C 	20.905853247356347	4.969999999999997	0.0
C 	22.135609320730246	4.259999999999996	0.0
C 	23.365365394104153	4.969999999999997	0.0
C 	24.595121467478055	4.259999999999998	0.0
C 	25.824877540851958	4.969999999999997	0.0
C 	27.054633614225857	4.259999999999995	0.0
C 	28.28438968759976	4.969999999999996	0.0
C 	29.514145760973665	4.259999999999997	0.0
C 	30.743901834347568	4.969999999999997	0.0
C 	31.97365790772147	4.259999999999996	0.0
C 	33.20341398109537	4.969999999999995	0.0
C 	34.43317005446927	4.2599999999999945	0.0
C 	35.66292612784318	4.969999999999995	0.0
C 	36.892682201217085	4.259999999999996	0.0
C 	38.122438274590984	4.969999999999997	0.0
C 	39.35219434796489	4.259999999999997	0.0
C 	40.58195042133879	4.969999999999994	0.0
C 	41.81170649471269	4.259999999999995	0.0
C 	43.041462568086594	4.969999999999996	0.0
C 	44.2712186414605	4.259999999999997	0.0
C 	45.500974714834406	4.969999999999998	0.0
C 	46.7307307882083	4.259999999999994	0.0
C 	47.960486861582204	4.9699999999999935	0.0
C 	49.19024293495611	4.259999999999996	0.0
C 	50.41999900833001	4.969999999999997	0.0
C 	51.64975508170391	4.259999999999993	0.0
C 	52.879511155077815	4.9699999999999935	0.0
C 	54.10926722845171	4.259999999999996	0.0
C 	55.33902330182562	4.969999999999997	0.0
C 	56.568779375199526	4.259999999999996	0.0
C 	57.798535448573425	4.969999999999996	0.0
C 	59.028291521947324	4.259999999999995	0.0
C 	60.25804759532123	4.969999999999996	0.0
C 	61.487803668695136	4.259999999999992	0.0
C 	62.717559742069035	4.969999999999993	0.0
C 	3.6892682201217086	6.389999999999999	0.0
C 	4.919024293495611	7.099999999999999	0.0
C 	6.148780366869514	6.389999999999999	0.0
C 	7.378536440243416	7.099999999999999	0.0
C 	8.608292513617318	6.389999999999998	0.0
C 	9.838048586991222	7.099999999999999	0.0
C 	11.067804660365125	6.389999999999998	0.0
C 	12.297560733739028	7.099999999999998	0.0
C 	13.52731680711293	6.389999999999999	0.0
C 	14.757072880486833	7.099999999999998	0.0
C 	15.986828953860735	6.389999999999998	0.0
C 	17.216585027234636	7.099999999999997	0.0
C 	18.44634110060854	6.389999999999997	0.0
C 	19.676097173982445	7.099999999999998	0.0
C 	20.905853247356347	6.389999999999998	0.0
C 	22.13560932073025	7.099999999999997	0.0
C 	23.365365394104153	6.389999999999998	0.0
C 	24.59512146747805	7.099999999999997	0.0
C 	25.824877540851958	6.389999999999998	0.0
C 	27.054633614225857	7.099999999999997	0.0
C 	28.28438968759976	6.389999999999999	0.0
C 	29.514145760973662	7.099999999999997	0.0
C 	30.743901834347568	6.389999999999999	0.0
C 	31.97365790772147	7.099999999999998	0.0
C 	33.20341398109537	6.389999999999995	0.0
C 	34.43317005446928	7.099999999999994	0.0
C 	35.66292612784318	6.389999999999995	0.0
C 	36.892682201217085	7.099999999999996	0.0
C 	38.122438274590984	6.389999999999996	0.0
C 	39.35219434796489	7.099999999999997	0.0
C 	40.58195042133879	6.389999999999994	0.0
C 	41.811706494712695	7.099999999999995	0.0
C 	43.041462568086594	6.389999999999996	0.0
C 	44.2712186414605	7.099999999999997	0.0
C 	45.500974714834406	6.389999999999998	0.0
C 	46.730730788208305	7.099999999999998	0.0
C 	47.960486861582204	6.389999999999995	0.0
C 	49.19024293495611	7.099999999999996	0.0
C 	50.41999900833001	6.389999999999995	0.0
C 	51.649755081703915	7.099999999999996	0.0
C 	52.879511155077815	6.389999999999995	0.0
C 	54.10926722845172	7.099999999999996	0.0
C 	55.33902330182562	6.389999999999995	0.0
C 	56.568779375199526	7.099999999999995	0.0
C 	57.79853544857343	6.389999999999998	0.0
C 	59.02829152194733	7.099999999999999	0.0
C 	60.25804759532123	6.389999999999994	0.0
C 	61.487803668695136	7.099999999999995	0.0
C 	62.71755974206904	6.389999999999994	0.0
C 	63.94731581544294	7.099999999999995	0.0
C 	4.919024293495611	8.519999999999998	0.0
C 	6.148780366869514	9.229999999999999	0.0
C 	7.378536440243416	8.519999999999998	0.0
C 	8.60829251361732	9.229999999999999	0.0
C 	9.838048586991222	8.519999999999998	0.0
C 	11.067804660365125	9.229999999999999	0.0
C 	12.297560733739028	8.519999999999998	0.0
C 	13.52731680711293	9.229999999999997	0.0
C 	14.757072880486833	8.519999999999998	0.0
C 	15.986828953860737	9.229999999999999	0.0
C 	17.216585027234636	8.519999999999998	0.0
C 	18.44634110060854	9.229999999999997	0.0
C 	19.67609717398244	8.519999999999996	0.0
C 	20.905853247356347	9.229999999999997	0.0
C 	22.13560932073025	8.519999999999998	0.0
C 	23.365365394104153	9.229999999999999	0.0
C 	24.595121467478055	8.519999999999996	0.0
C 	25.824877540851954	9.229999999999995	0.0
C 	27.05463361422586	8.519999999999996	0.0
C 	28.284389687599763	9.229999999999997	0.0
C 	29.514145760973662	8.519999999999996	0.0
C 	30.743901834347565	9.229999999999995	0.0
C 	31.97365790772147	8.52	0.0
C 	33.20341398109537	9.229999999999997	0.0
C 	34.43317005446928	8.519999999999994	0.0
C 	35.66292612784318	9.229999999999995	0.0
C 	36.89268220121708	8.519999999999992	0.0
C 	38.122438274590984	9.229999999999993	0.0
C 	39.35219434796489	8.519999999999998	0.0
C 	40.58195042133879	9.229999999999995	0.0
C 	41.811706494712695	8.519999999999994	0.0
C 	43.0414625680866	9.229999999999995	0.0
C 	44.27121864146049	8.519999999999992	0.0
C 	45.5009747148344	9.229999999999993	0.0
C 	46.730730788208305	8.519999999999998	0.0
C 	47.960486861582204	9.229999999999995	0.0
C 	49.19024293495611	8.519999999999996	0.0
C 	50.41999900833001	9.229999999999993	0.0
C 	51.64975508170391	8.519999999999994	0.0
C 	52.879511155077815	9.229999999999995	0.0
C 	54.10926722845171	8.51999999999999	0.0
C 	55.33902330182562	9.229999999999992	0.0
C 	56.568779375199526	8.519999999999998	0.0
C 	57.798535448573425	9.229999999999995	0.0
C 	59.02829152194733	8.519999999999994	0.0
C 	60.25804759532123	9.229999999999993	0.0
C 	61.48780366869513	8.519999999999992	0.0
C 	62.717559742069035	9.229999999999993	0.0
C 	63.94731581544294	8.519999999999992	0.0
C 	65.17707188881684	9.22999999999999	0.0
C 	6.148780366869514	10.649999999999997	0.0
C 	7.378536440243416	11.359999999999998	0.0
C 	8.608292513617318	10.649999999999997	0.0
C 	9.838048586991222	11.359999999999998	0.0
C 	11.067804660365125	10.649999999999997	0.0
C 	12.297560733739028	11.359999999999996	0.0
C 	13.52731680711293	10.649999999999997	0.0
C 	14.757072880486831	11.359999999999996	0.0
C 	15.986828953860735	10.649999999999997	0.0
C 	17.216585027234636	11.359999999999996	0.0
C 	18.44634110060854	10.649999999999997	0.0
C 	19.676097173982445	11.359999999999998	0.0
C 	20.905853247356347	10.649999999999997	0.0
C 	22.13560932073025	11.359999999999996	0.0
C 	23.365365394104153	10.649999999999997	0.0
C 	24.595121467478055	11.359999999999996	0.0
C 	25.824877540851958	10.649999999999997	0.0
C 	27.05463361422586	11.359999999999996	0.0
C 	28.284389687599763	10.649999999999995	0.0
C 	29.514145760973662	11.359999999999994	0.0
C 	30.743901834347565	10.649999999999995	0.0
C 	31.97365790772147	11.359999999999996	0.0
C 	33.20341398109537	10.649999999999997	0.0
C 	34.43317005446928	11.359999999999998	0.0
C 	35.66292612784318	10.649999999999991	0.0
C 	36.89268220121708	11.359999999999992	0.0
C 	38.122438274590984	10.649999999999993	0.0
C 	39.35219434796489	11.359999999999994	0.0
C 	40.58195042133879	10.649999999999993	0.0
C 	41.811706494712695	11.359999999999994	0.0
C 	43.041462568086594	10.649999999999991	0.0
C 	44.2712186414605	11.359999999999992	0.0
C 	45.5009747148344	10.649999999999993	0.0
C 	46.730730788208305	11.359999999999994	0.0
C 	47.960486861582204	10.649999999999995	0.0
C 	49.19024293495611	11.359999999999996	0.0
C 	50.41999900833001	10.649999999999993	0.0
C 	51.649755081703915	11.359999999999994	0.0
C 	52.879511155077815	10.649999999999995	0.0
C 	54.10926722845172	11.359999999999996	0.0
C 	55.33902330182562	10.649999999999993	0.0
C 	56.568779375199526	11.359999999999994	0.0
C 	57.798535448573425	10.649999999999993	0.0
C 	59.02829152194733	11.359999999999992	0.0
C 	60.25804759532124	10.649999999999995	0.0
C 	61.487803668695136	11.359999999999996	0.0
C 	62.717559742069035	10.649999999999991	0.0
C 	63.94731581544294	11.359999999999992	0.0
C 	65.17707188881684	10.649999999999991	0.0
C 	66.40682796219075	11.359999999999992	0.0
C 	7.378536440243417	12.779999999999998	0.0
C 	8.60829251361732	13.489999999999998	0.0
C 	9.838048586991222	12.78	0.0
C 	11.067804660365125	13.489999999999997	0.0
C 	12.297560733739028	12.779999999999998	0.0
C 	13.527316807112932	13.489999999999998	0.0
C 	14.757072880486833	12.779999999999998	0.0
C 	15.986828953860737	13.489999999999997	0.0
C 	17.216585027234636	12.779999999999996	0.0
C 	18.446341100608542	13.489999999999997	0.0
C 	19.676097173982445	12.779999999999998	0.0
C 	20.905853247356347	13.489999999999997	0.0
C 	22.13560932073025	12.779999999999996	0.0
C 	23.36536539410415	13.489999999999995	0.0
C 	24.595121467478055	12.779999999999996	0.0
C 	25.824877540851958	13.489999999999997	0.0
C 	27.05463361422586	12.779999999999998	0.0
C 	28.284389687599763	13.489999999999997	0.0
C 	29.514145760973662	12.779999999999996	0.0
C 	30.743901834347568	13.489999999999997	0.0
C 	31.97365790772147	12.779999999999996	0.0
C 	33.20341398109537	13.489999999999997	0.0
C 	34.43317005446928	12.779999999999998	0.0
C 	35.66292612784318	13.489999999999995	0.0
C 	36.89268220121708	12.779999999999994	0.0
C 	38.122438274590984	13.489999999999995	0.0
C 	39.35219434796489	12.779999999999996	0.0
C 	40.581950421338796	13.489999999999997	0.0
C 	41.811706494712695	12.779999999999996	0.0
C 	43.041462568086594	13.489999999999993	0.0
C 	44.2712186414605	12.779999999999994	0.0
C 	45.5009747148344	13.489999999999995	0.0
C 	46.730730788208305	12.779999999999996	0.0
C 	47.96048686158221	13.489999999999997	0.0
C 	49.19024293495611	12.779999999999998	0.0
C 	50.41999900833001	13.489999999999995	0.0
C 	51.649755081703915	12.779999999999996	0.0
C 	52.879511155077815	13.489999999999993	0.0
C 	54.10926722845172	12.779999999999998	0.0
C 	55.33902330182563	13.489999999999998	0.0
C 	56.56877937519952	12.779999999999998	0.0
C 	57.798535448573425	13.489999999999997	0.0
C 	59.02829152194733	12.779999999999994	0.0
C 	60.25804759532123	13.489999999999991	0.0
C 	61.487803668695136	12.779999999999998	0.0
C 	62.71755974206904	13.489999999999998	0.0
C 	63.94731581544294	12.779999999999994	0.0
C 	65.17707188881684	13.489999999999995	0.0
C 	66.40682796219075	12.77999999999999	0.0
C 	67.63658403556465	13.489999999999988	0.0
C 	8.60829251361732	14.909999999999998	0.0
C 	9.838048586991222	15.619999999999996	0.0
C 	11.067804660365125	14.909999999999997	0.0
C 	12.297560733739026	15.619999999999996	0.0
C 	13.527316807112934	14.909999999999998	0.0
C 	14.757072880486831	15.619999999999996	0.0
C 	15.986828953860737	14.909999999999998	0.0
C 	17.21658502723464	15.619999999999997	0.0
C 	18.446341100608542	14.909999999999997	0.0
C 	19.676097173982445	15.619999999999996	0.0
C 	20.905853247356347	14.909999999999997	0.0
C 	22.135609320730246	15.619999999999996	0.0
C 	23.365365394104153	14.909999999999995	0.0
C 	24.595121467478055	15.619999999999996	0.0
C 	25.824877540851958	14.909999999999997	0.0
C 	27.05463361422586	15.619999999999996	0.0
C 	28.284389687599763	14.909999999999997	0.0
C 	29.514145760973665	15.619999999999996	0.0
C 	30.743901834347568	14.909999999999997	0.0
C 	31.973657907721474	15.619999999999997	0.0
C 	33.203413981095366	14.909999999999993	0.0
C 	34.43317005446927	15.619999999999994	0.0
C 	35.662926127843185	14.909999999999998	0.0
C 	36.892682201217085	15.619999999999996	0.0
C 	38.122438274590984	14.909999999999995	0.0
C 	39.35219434796489	15.619999999999996	0.0
C 	40.58195042133879	14.909999999999993	0.0
C 	41.811706494712695	15.619999999999994	0.0
C 	43.0414625680866	14.909999999999998	0.0
C 	44.2712186414605	15.619999999999996	0.0
C 	45.5009747148344	14.909999999999995	0.0
C 	46.730730788208305	15.619999999999996	0.0
C 	47.960486861582204	14.909999999999993	0.0
C 	49.19024293495611	15.619999999999994	0.0
C 	50.41999900833002	14.909999999999998	0.0
C 	51.649755081703915	15.619999999999996	0.0
C 	52.87951115507782	14.909999999999997	0.0
C 	54.10926722845171	15.619999999999994	0.0
C 	55.33902330182562	14.909999999999995	0.0
C 	56.568779375199526	15.619999999999994	0.0
C 	57.798535448573425	14.909999999999991	0.0
C 	59.028291521947324	15.619999999999992	0.0
C 	60.25804759532124	14.909999999999998	0.0
C 	61.487803668695136	15.619999999999996	0.0
C 	62.717559742069035	14.909999999999993	0.0
C 	63.94731581544294	15.619999999999994	0.0
C 	65.17707188881684	14.909999999999993	0.0
C 	66.40682796219075	15.619999999999994	0.0
C 	67.63658403556465	14.909999999999997	0.0
C 	68.86634010893854	15.61999999999999	0.0
C 	9.838048586991222	17.039999999999996	0.0
C 	11.067804660365127	17.749999999999996	0.0
C 	12.297560733739028	17.039999999999996	0.0
C 	13.527316807112932	17.749999999999996	0.0
C 	14.757072880486833	17.039999999999996	0.0
C 	15.986828953860735	17.749999999999996	0.0
C 	17.21658502723464	17.039999999999996	0.0
C 	18.446341100608546	17.749999999999996	0.0
C 	19.676097173982445	17.039999999999996	0.0
C 	20.905853247356347	17.749999999999996	0.0
C 	22.13560932073025	17.039999999999996	0.0
C 	23.365365394104153	17.749999999999996	0.0
C 	24.595121467478055	17.039999999999996	0.0
C 	25.82487754085196	17.749999999999996	0.0
C 	27.05463361422586	17.039999999999996	0.0
C 	28.28438968759977	17.75	0.0
C 	29.514145760973665	17.039999999999996	0.0
C 	30.74390183434757	17.749999999999996	0.0
C 	31.973657907721467	17.039999999999992	0.0
C 	33.20341398109537	17.749999999999993	0.0
C 	34.43317005446927	17.039999999999996	0.0
C 	35.66292612784318	17.749999999999996	0.0
C 	36.892682201217085	17.039999999999996	0.0
C 	38.122438274590984	17.749999999999996	0.0
C 	39.35219434796488	17.039999999999992	0.0
C 	40.58195042133879	17.749999999999993	0.0
C 	41.811706494712695	17.039999999999992	0.0
C 	43.041462568086594	17.749999999999993	0.0
C 	44.2712186414605	17.039999999999996	0.0
C 	45.500974714834406	17.749999999999996	0.0
C 	46.7307307882083	17.039999999999992	0.0
C 	47.960486861582204	17.749999999999993	0.0
C 	49.19024293495611	17.039999999999992	0.0
C 	50.41999900833002	17.749999999999993	0.0
C 	51.649755081703915	17.039999999999996	0.0
C 	52.87951115507782	17.749999999999996	0.0
C 	54.10926722845172	17.039999999999992	0.0
C 	55.33902330182562	17.749999999999993	0.0
C 	56.568779375199526	17.039999999999996	0.0
C 	57.79853544857343	17.749999999999996	0.0
C 	59.028291521947324	17.039999999999992	0.0
C 	60.25804759532123	17.749999999999993	0.0
C 	61.487803668695136	17.039999999999996	0.0
C 	62.71755974206904	17.749999999999996	0.0
C 	63.94731581544294	17.04	0.0
C 	65.17707188881684	17.749999999999993	0.0
C 	66.40682796219075	17.039999999999996	0.0
C 	67.63658403556464	17.74999999999999	0.0
C 	68.86634010893856	17.03999999999999	0.0
C 	70.09609618231246	17.74999999999999	0.0
C 	11.067804660365125	19.169999999999995	0.0
C 	12.297560733739026	19.879999999999995	0.0
C 	13.52731680711293	19.169999999999995	0.0
C 	14.757072880486831	19.879999999999995	0.0
C 	15.986828953860737	19.169999999999998	0.0
C 	17.216585027234636	19.879999999999992	0.0
C 	18.446341100608542	19.169999999999995	0.0
C 	19.676097173982445	19.879999999999995	0.0
C 	20.905853247356347	19.169999999999995	0.0
C 	22.135609320730246	19.879999999999995	0.0
C 	23.365365394104153	19.169999999999995	0.0
C 	24.59512146747805	19.879999999999995	0.0
C 	25.824877540851958	19.169999999999995	0.0
C 	27.05463361422586	19.879999999999995	0.0
C 	28.284389687599763	19.169999999999995	0.0
C 	29.51414576097367	19.879999999999995	0.0
C 	30.743901834347565	19.16999999999999	0.0
C 	31.97365790772147	19.879999999999992	0.0
C 	33.20341398109537	19.169999999999995	0.0
C 	34.43317005446927	19.879999999999992	0.0
C 	35.66292612784318	19.169999999999995	0.0
C 	36.89268220121708	19.879999999999992	0.0
C 	38.122438274590984	19.169999999999995	0.0
C 	39.35219434796488	19.879999999999992	0.0
C 	40.58195042133879	19.16999999999999	0.0
C 	41.81170649471269	19.87999999999999	0.0
C 	43.0414625680866	19.169999999999995	0.0
C 	44.27121864146049	19.879999999999992	0.0
C 	45.5009747148344	19.16999999999999	0.0
C 	46.730730788208305	19.879999999999992	0.0
C 	47.960486861582204	19.169999999999995	0.0
C 	49.1902429349561	19.879999999999992	0.0
C 	50.41999900833002	19.169999999999995	0.0
C 	51.649755081703915	19.879999999999992	0.0
C 	52.879511155077815	19.16999999999999	0.0
C 	54.10926722845172	19.879999999999992	0.0
C 	55.33902330182562	19.16999999999999	0.0
C 	56.56877937519952	19.879999999999992	0.0
C 	57.79853544857343	19.169999999999995	0.0
C 	59.02829152194733	19.879999999999992	0.0
C 	60.25804759532123	19.169999999999995	0.0
C 	61.48780366869513	19.879999999999992	0.0
C 	62.717559742069035	19.16999999999999	0.0
C 	63.94731581544294	19.879999999999992	0.0
C 	65.17707188881684	19.169999999999995	0.0
C 	66.40682796219075	19.87999999999999	0.0
C 	67.63658403556465	19.169999999999995	0.0
C 	68.86634010893854	19.87999999999999	0.0
C 	70.09609618231245	19.16999999999999	0.0
C 	71.32585225568636	19.879999999999992	0.0
C 	12.297560733739028	21.299999999999994	0.0
C 	13.527316807112932	22.009999999999994	0.0
C 	14.757072880486831	21.299999999999994	0.0
C 	15.986828953860735	22.009999999999994	0.0
C 	17.216585027234636	21.299999999999994	0.0
C 	18.44634110060854	22.009999999999994	0.0
C 	19.676097173982445	21.299999999999994	0.0
C 	20.905853247356347	22.009999999999994	0.0
C 	22.13560932073025	21.299999999999994	0.0
C 	23.365365394104153	22.009999999999994	0.0
C 	24.595121467478055	21.299999999999994	0.0
C 	25.824877540851958	22.009999999999994	0.0
C 	27.05463361422586	21.299999999999994	0.0
C 	28.284389687599766	22.009999999999994	0.0
C 	29.514145760973662	21.29999999999999	0.0
C 	30.743901834347568	22.00999999999999	0.0
C 	31.97365790772147	21.299999999999994	0.0
C 	33.20341398109537	22.009999999999994	0.0
C 	34.43317005446928	21.299999999999994	0.0
C 	35.662926127843185	22.009999999999994	0.0
C 	36.89268220121708	21.299999999999994	0.0
C 	38.122438274590984	22.009999999999994	0.0
C 	39.35219434796489	21.299999999999994	0.0
C 	40.58195042133879	22.009999999999994	0.0
C 	41.811706494712695	21.299999999999994	0.0
C 	43.0414625680866	22.009999999999994	0.0
C 	44.2712186414605	21.29999999999999	0.0
C 	45.5009747148344	22.00999999999999	0.0
C 	46.730730788208305	21.299999999999994	0.0
C 	47.96048686158221	22.009999999999994	0.0
C 	49.19024293495611	21.299999999999994	0.0
C 	50.41999900833002	22.009999999999994	0.0
C 	51.649755081703915	21.299999999999994	0.0
C 	52.879511155077815	22.00999999999999	0.0
C 	54.10926722845172	21.299999999999994	0.0
C 	55.33902330182563	22.009999999999994	0.0
C 	56.568779375199526	21.29999999999999	0.0
C 	57.798535448573425	22.00999999999999	0.0
C 	59.02829152194733	21.299999999999994	0.0
C 	60.25804759532124	22.009999999999994	0.0
C 	61.48780366869513	21.29999999999999	0.0
C 	62.717559742069035	22.00999999999999	0.0
C 	63.94731581544294	21.299999999999994	0.0
C 	65.17707188881684	22.009999999999987	0.0
C 	66.40682796219075	21.299999999999994	0.0
C 	67.63658403556465	22.009999999999994	0.0
C 	68.86634010893854	21.29999999999999	0.0
C 	70.09609618231245	22.00999999999999	0.0
C 	71.32585225568636	21.299999999999983	0.0
C 	72.55560832906026	22.00999999999999	0.0
C 	13.527316807112932	23.429999999999996	0.0
C 	14.757072880486836	24.139999999999997	0.0
C 	15.986828953860737	23.429999999999996	0.0
C 	17.216585027234643	24.139999999999997	0.0
C 	18.446341100608542	23.429999999999996	0.0
C 	19.676097173982445	24.139999999999997	0.0
C 	20.90585324735635	23.429999999999996	0.0
C 	22.135609320730254	24.139999999999997	0.0
C 	23.365365394104156	23.429999999999993	0.0
C 	24.595121467478062	24.139999999999997	0.0
C 	25.824877540851958	23.429999999999993	0.0
C 	27.054633614225864	24.139999999999993	0.0
C 	28.284389687599766	23.429999999999996	0.0
C 	29.514145760973673	24.139999999999997	0.0
C 	30.743901834347575	23.429999999999996	0.0
C 	31.973657907721478	24.139999999999997	0.0
C 	33.20341398109537	23.429999999999993	0.0
C 	34.43317005446928	24.139999999999993	0.0
C 	35.66292612784318	23.429999999999993	0.0
C 	36.892682201217085	24.139999999999993	0.0
C 	38.122438274590984	23.429999999999993	0.0
C 	39.35219434796489	24.139999999999993	0.0
C 	40.58195042133879	23.429999999999996	0.0
C 	41.811706494712695	24.139999999999993	0.0
C 	43.041462568086594	23.42999999999999	0.0
C 	44.2712186414605	24.13999999999999	0.0
C 	45.5009747148344	23.429999999999993	0.0
C 	46.730730788208305	24.139999999999993	0.0
C 	47.96048686158221	23.429999999999993	0.0
C 	49.19024293495611	24.139999999999993	0.0
C 	50.41999900833001	23.429999999999993	0.0
C 	51.649755081703915	24.13999999999999	0.0
C 	52.87951115507782	23.429999999999993	0.0
C 	54.10926722845172	24.139999999999993	0.0
C 	55.33902330182563	23.429999999999993	0.0
C 	56.56877937519953	24.139999999999993	0.0
C 	57.798535448573425	23.429999999999993	0.0
C 	59.02829152194733	24.139999999999993	0.0
C 	60.25804759532124	23.429999999999993	0.0
C 	61.487803668695136	24.13999999999999	0.0
C 	62.71755974206904	23.429999999999993	0.0
C 	63.947315815442934	24.139999999999986	0.0
C 	65.17707188881684	23.429999999999993	0.0
C 	66.40682796219075	24.139999999999993	0.0
C 	67.63658403556464	23.42999999999999	0.0
C 	68.86634010893856	24.139999999999997	0.0
C 	70.09609618231245	23.42999999999999	0.0
C 	71.32585225568636	24.139999999999997	0.0
C 	72.55560832906026	23.42999999999999	0.0
C 	73.78536440243417	24.13999999999999	0.0
C 	14.757072880486835	25.559999999999995	0.0
C 	15.986828953860735	26.269999999999996	0.0
C 	17.21658502723464	25.559999999999995	0.0
C 	18.44634110060854	26.269999999999996	0.0
C 	19.676097173982445	25.56	0.0
C 	20.905853247356344	26.269999999999996	0.0
C 	22.13560932073025	25.56	0.0
C 	23.365365394104153	26.269999999999996	0.0
C 	24.595121467478055	25.559999999999995	0.0
C 	25.824877540851958	26.269999999999996	0.0
C 	27.054633614225857	25.559999999999995	0.0
C 	28.28438968759976	26.269999999999996	0.0
C 	29.514145760973665	25.559999999999995	0.0
C 	30.743901834347568	26.269999999999996	0.0
C 	31.973657907721474	25.559999999999995	0.0
C 	33.20341398109538	26.269999999999996	0.0
C 	34.43317005446927	25.55999999999999	0.0
C 	35.66292612784318	26.269999999999992	0.0
C 	36.892682201217085	25.559999999999995	0.0
C 	38.12243827459098	26.269999999999992	0.0
C 	39.35219434796489	25.559999999999995	0.0
C 	40.58195042133879	26.269999999999992	0.0
C 	41.81170649471269	25.55999999999999	0.0
C 	43.041462568086594	26.269999999999992	0.0
C 	44.2712186414605	25.55999999999999	0.0
C 	45.5009747148344	26.26999999999999	0.0
C 	46.730730788208305	25.559999999999995	0.0
C 	47.960486861582204	26.269999999999992	0.0
C 	49.19024293495611	25.55999999999999	0.0
C 	50.41999900833001	26.269999999999992	0.0
C 	51.649755081703915	25.559999999999995	0.0
C 	52.879511155077815	26.269999999999992	0.0
C 	54.10926722845172	25.559999999999995	0.0
C 	55.33902330182562	26.269999999999992	0.0
C 	56.568779375199526	25.55999999999999	0.0
C 	57.79853544857343	26.269999999999992	0.0
C 	59.028291521947324	25.55999999999999	0.0
C 	60.25804759532123	26.269999999999992	0.0
C 	61.487803668695136	25.559999999999995	0.0
C 	62.717559742069035	26.26999999999999	0.0
C 	63.94731581544294	25.55999999999999	0.0
C 	65.17707188881683	26.269999999999985	0.0
C 	66.40682796219075	25.55999999999999	0.0
C 	67.63658403556465	26.269999999999992	0.0
C 	68.86634010893856	25.559999999999995	0.0
C 	70.09609618231246	26.269999999999996	0.0
C 	71.32585225568636	25.559999999999995	0.0
C 	72.55560832906026	26.269999999999996	0.0
C 	73.78536440243415	25.559999999999988	0.0
C 	75.01512047580806	26.26999999999999	0.0
C 	15.986828953860735	27.689999999999994	0.0
C 	17.21658502723464	28.399999999999995	0.0
C 	18.446341100608542	27.689999999999994	0.0
C 	19.676097173982445	28.399999999999995	0.0
C 	20.905853247356344	27.689999999999994	0.0
C 	22.13560932073025	28.399999999999995	0.0
C 	23.365365394104153	27.689999999999994	0.0
C 	24.59512146747806	28.399999999999995	0.0
C 	25.824877540851954	27.689999999999994	0.0
C 	27.054633614225857	28.399999999999995	0.0
C 	28.284389687599763	27.689999999999994	0.0
C 	29.514145760973665	28.399999999999995	0.0
C 	30.74390183434757	27.689999999999994	0.0
C 	31.973657907721474	28.399999999999995	0.0
C 	33.20341398109537	27.68999999999999	0.0
C 	34.43317005446928	28.39999999999999	0.0
C 	35.66292612784318	27.689999999999994	0.0
C 	36.892682201217085	28.399999999999995	0.0
C 	38.122438274590984	27.689999999999994	0.0
C 	39.35219434796489	28.399999999999995	0.0
C 	40.58195042133879	27.689999999999994	0.0
C 	41.811706494712695	28.399999999999995	0.0
C 	43.041462568086594	27.689999999999994	0.0
C 	44.2712186414605	28.399999999999995	0.0
C 	45.500974714834406	27.689999999999994	0.0
C 	46.730730788208305	28.399999999999995	0.0
C 	47.960486861582204	27.68999999999999	0.0
C 	49.19024293495611	28.39999999999999	0.0
C 	50.41999900833002	27.689999999999994	0.0
C 	51.649755081703915	28.399999999999995	0.0
C 	52.87951115507782	27.689999999999994	0.0
C 	54.10926722845173	28.399999999999995	0.0
C 	55.33902330182562	27.68999999999999	0.0
C 	56.568779375199526	28.39999999999999	0.0
C 	57.79853544857343	27.689999999999994	0.0
C 	59.02829152194733	28.39999999999999	0.0
C 	60.25804759532124	27.689999999999994	0.0
C 	61.48780366869513	28.399999999999988	0.0
C 	62.717559742069035	27.689999999999994	0.0
C 	63.94731581544294	28.399999999999995	0.0
C 	65.17707188881684	27.68999999999999	0.0
C 	66.40682796219075	28.39999999999999	0.0
C 	67.63658403556464	27.689999999999987	0.0
C 	68.86634010893856	28.399999999999995	0.0
C 	70.09609618231245	27.689999999999994	0.0
C 	71.32585225568636	28.399999999999995	0.0
C 	72.55560832906026	27.68999999999999	0.0
C 	73.78536440243415	28.39999999999999	0.0
C 	75.01512047580808	27.689999999999994	0.0
C 	76.24487654918197	28.399999999999984	0.0
C 	17.21658502723464	29.819999999999997	0.0
C 	18.446341100608546	30.529999999999998	0.0
C 	19.676097173982445	29.819999999999997	0.0
C 	20.905853247356355	30.529999999999998	0.0
C 	22.13560932073025	29.819999999999993	0.0
C 	23.365365394104156	30.529999999999994	0.0
C 	24.59512146747806	29.819999999999997	0.0
C 	25.82487754085196	30.529999999999998	0.0
C 	27.054633614225867	29.819999999999997	0.0
C 	28.28438968759977	30.529999999999998	0.0
C 	29.514145760973665	29.819999999999997	0.0
C 	30.74390183434757	30.529999999999998	0.0
C 	31.973657907721474	29.819999999999997	0.0
C 	33.20341398109538	30.529999999999998	0.0
C 	34.43317005446928	29.819999999999997	0.0
C 	35.662926127843185	30.529999999999998	0.0
C 	36.892682201217085	29.819999999999993	0.0
C 	38.12243827459099	30.529999999999994	0.0
C 	39.35219434796488	29.819999999999993	0.0
C 	40.58195042133879	30.529999999999994	0.0
C 	41.811706494712695	29.819999999999993	0.0
C 	43.0414625680866	30.529999999999994	0.0
C 	44.2712186414605	29.819999999999993	0.0
C 	45.500974714834406	30.529999999999994	0.0
C 	46.730730788208305	29.81999999999999	0.0
C 	47.960486861582204	30.52999999999999	0.0
C 	49.19024293495611	29.819999999999993	0.0
C 	50.41999900833002	30.529999999999994	0.0
C 	51.649755081703915	29.819999999999993	0.0
C 	52.87951115507782	30.529999999999994	0.0
C 	54.10926722845172	29.819999999999993	0.0
C 	55.33902330182563	30.52999999999999	0.0
C 	56.568779375199526	29.819999999999993	0.0
C 	57.798535448573425	30.52999999999999	0.0
C 	59.02829152194734	29.819999999999993	0.0
C 	60.25804759532124	30.529999999999994	0.0
C 	61.487803668695136	29.819999999999993	0.0
C 	62.71755974206904	30.529999999999994	0.0
C 	63.947315815442934	29.81999999999999	0.0
C 	65.17707188881685	30.529999999999998	0.0
C 	66.40682796219073	29.819999999999986	0.0
C 	67.63658403556465	30.529999999999994	0.0
C 	68.86634010893856	29.819999999999993	0.0
C 	70.09609618231245	30.529999999999994	0.0
C 	71.32585225568637	29.819999999999997	0.0
C 	72.55560832906026	30.52999999999999	0.0
C 	73.78536440243417	29.819999999999997	0.0
C 	75.01512047580806	30.529999999999987	0.0
C 	76.24487654918197	29.81999999999999	0.0
C 	77.47463262255587	30.52999999999999	0.0
C 	18.446341100608542	31.949999999999996	0.0
C 	19.676097173982445	32.65999999999999	0.0
C 	20.905853247356347	31.949999999999992	0.0
C 	22.135609320730254	32.66	0.0
C 	23.365365394104156	31.949999999999996	0.0
C 	24.595121467478055	32.65999999999999	0.0
C 	25.824877540851958	31.949999999999992	0.0
C 	27.05463361422586	32.66	0.0
C 	28.284389687599766	31.949999999999996	0.0
C 	29.51414576097367	32.66	0.0
C 	30.743901834347568	31.949999999999992	0.0
C 	31.97365790772147	32.66	0.0
C 	33.20341398109537	31.949999999999992	0.0
C 	34.43317005446928	32.66	0.0
C 	35.66292612784318	31.949999999999996	0.0
C 	36.892682201217085	32.66	0.0
C 	38.122438274590984	31.949999999999992	0.0
C 	39.35219434796489	32.65999999999999	0.0
C 	40.58195042133879	31.949999999999992	0.0
C 	41.81170649471269	32.65999999999999	0.0
C 	43.0414625680866	31.949999999999996	0.0
C 	44.2712186414605	32.65999999999999	0.0
C 	45.5009747148344	31.949999999999992	0.0
C 	46.730730788208305	32.65999999999999	0.0
C 	47.96048686158221	31.949999999999992	0.0
C 	49.1902429349561	32.65999999999999	0.0
C 	50.41999900833002	31.949999999999992	0.0
C 	51.649755081703915	32.65999999999999	0.0
C 	52.879511155077815	31.949999999999992	0.0
C 	54.10926722845172	32.65999999999999	0.0
C 	55.33902330182563	31.949999999999992	0.0
C 	56.568779375199526	32.65999999999999	0.0
C 	57.79853544857343	31.949999999999992	0.0
C 	59.028291521947324	32.65999999999999	0.0
C 	60.25804759532124	31.949999999999992	0.0
C 	61.487803668695136	32.65999999999999	0.0
C 	62.717559742069035	31.94999999999999	0.0
C 	63.94731581544294	32.65999999999999	0.0
C 	65.17707188881685	31.949999999999992	0.0
C 	66.40682796219076	32.66	0.0
C 	67.63658403556465	31.949999999999992	0.0
C 	68.86634010893856	32.65999999999999	0.0
C 	70.09609618231245	31.94999999999999	0.0
C 	71.32585225568636	32.65999999999999	0.0
C 	72.55560832906026	31.949999999999996	0.0
C 	73.78536440243415	32.65999999999999	0.0
C 	75.01512047580806	31.949999999999992	0.0
C 	76.24487654918195	32.65999999999998	0.0
C 	77.47463262255587	31.949999999999985	0.0
C 	78.70438869592978	32.65999999999999	0.0
C 	19.676097173982445	34.07999999999999	0.0
C 	20.90585324735635	34.78999999999999	0.0
C 	22.135609320730254	34.07999999999999	0.0
C 	23.365365394104156	34.78999999999999	0.0
C 	24.595121467478055	34.07999999999999	0.0
C 	25.824877540851958	34.78999999999999	0.0
C 	27.054633614225864	34.07999999999999	0.0
C 	28.284389687599766	34.78999999999999	0.0
C 	29.514145760973665	34.07999999999999	0.0
C 	30.743901834347568	34.78999999999999	0.0
C 	31.97365790772147	34.07999999999999	0.0
C 	33.20341398109537	34.78999999999999	0.0
C 	34.43317005446928	34.07999999999999	0.0
C 	35.662926127843185	34.78999999999999	0.0
C 	36.89268220121708	34.07999999999999	0.0
C 	38.122438274590984	34.78999999999999	0.0
C 	39.35219434796489	34.07999999999999	0.0
C 	40.581950421338796	34.78999999999999	0.0
C 	41.811706494712695	34.07999999999999	0.0
C 	43.0414625680866	34.78999999999999	0.0
C 	44.2712186414605	34.07999999999999	0.0
C 	45.5009747148344	34.78999999999999	0.0
C 	46.730730788208305	34.07999999999999	0.0
C 	47.96048686158221	34.78999999999999	0.0
C 	49.19024293495611	34.07999999999999	0.0
C 	50.41999900833002	34.78999999999999	0.0
C 	51.649755081703915	34.07999999999999	0.0
C 	52.87951115507782	34.78999999999999	0.0
C 	54.10926722845172	34.07999999999999	0.0
C 	55.33902330182562	34.78999999999999	0.0
C 	56.56877937519953	34.07999999999999	0.0
C 	57.79853544857343	34.78999999999999	0.0
C 	59.02829152194733	34.07999999999999	0.0
C 	60.25804759532124	34.78999999999999	0.0
C 	61.487803668695136	34.07999999999999	0.0
C 	62.71755974206905	34.79	0.0
C 	63.947315815442934	34.079999999999984	0.0
C 	65.17707188881685	34.78999999999999	0.0
C 	66.40682796219075	34.07999999999999	0.0
C 	67.63658403556465	34.78999999999999	0.0
C 	68.86634010893854	34.07999999999999	0.0
C 	70.09609618231245	34.78999999999999	0.0
C 	71.32585225568636	34.07999999999999	0.0
C 	72.55560832906025	34.789999999999985	0.0
C 	73.78536440243417	34.07999999999999	0.0
C 	75.01512047580808	34.78999999999999	0.0
C 	76.24487654918197	34.07999999999999	0.0
C 	77.47463262255587	34.78999999999999	0.0
C 	78.70438869592977	34.079999999999984	0.0
C 	79.93414476930369	34.78999999999999	0.0
C 	20.90585324735635	36.209999999999994	0.0
C 	22.135609320730254	36.919999999999995	0.0
C 	23.36536539410416	36.209999999999994	0.0
C 	24.595121467478062	36.919999999999995	0.0
C 	25.82487754085196	36.209999999999994	0.0
C 	27.054633614225864	36.919999999999995	0.0
C 	28.284389687599766	36.209999999999994	0.0
C 	29.514145760973673	36.919999999999995	0.0
C 	30.743901834347575	36.209999999999994	0.0
C 	31.973657907721478	36.919999999999995	0.0
C 	33.20341398109537	36.209999999999994	0.0
C 	34.43317005446928	36.919999999999995	0.0
C 	35.662926127843185	36.209999999999994	0.0
C 	36.89268220121709	36.919999999999995	0.0
C 	38.12243827459099	36.209999999999994	0.0
C 	39.3521943479649	36.919999999999995	0.0
C 	40.581950421338796	36.209999999999994	0.0
C 	41.811706494712695	36.919999999999995	0.0
C 	43.041462568086594	36.209999999999994	0.0
C 	44.2712186414605	36.919999999999995	0.0
C 	45.500974714834406	36.209999999999994	0.0
C 	46.730730788208305	36.919999999999995	0.0
C 	47.96048686158221	36.209999999999994	0.0
C 	49.19024293495612	36.919999999999995	0.0
C 	50.41999900833002	36.20999999999999	0.0
C 	51.649755081703915	36.91999999999999	0.0
C 	52.87951115507782	36.209999999999994	0.0
C 	54.10926722845172	36.91999999999999	0.0
C 	55.33902330182563	36.209999999999994	0.0
C 	56.56877937519953	36.919999999999995	0.0
C 	57.79853544857343	36.20999999999999	0.0
C 	59.02829152194733	36.91999999999999	0.0
C 	60.25804759532123	36.20999999999999	0.0
C 	61.48780366869515	36.919999999999995	0.0
C 	62.71755974206904	36.209999999999994	0.0
C 	63.94731581544295	36.919999999999995	0.0
C 	65.17707188881684	36.209999999999994	0.0
C 	66.40682796219075	36.919999999999995	0.0
C 	67.63658403556467	36.209999999999994	0.0
C 	68.86634010893856	36.91999999999999	0.0
C 	70.09609618231246	36.209999999999994	0.0
C 	71.32585225568636	36.91999999999999	0.0
C 	72.55560832906026	36.209999999999994	0.0
C 	73.78536440243417	36.919999999999995	0.0
C 	75.01512047580806	36.20999999999999	0.0
C 	76.24487654918198	36.919999999999995	0.0
C 	77.47463262255586	36.20999999999999	0.0
C 	78.70438869592978	36.919999999999995	0.0
C 	79.93414476930369	36.20999999999999	0.0
C 	81.16390084267759	36.91999999999999	0.0
C 	22.13560932073025	38.33999999999999	0.0
C 	23.365365394104153	39.04999999999999	0.0
C 	24.59512146747806	38.33999999999999	0.0
C 	25.82487754085196	39.04999999999999	0.0
C 	27.05463361422586	38.33999999999999	0.0
C 	28.284389687599763	39.04999999999999	0.0
C 	29.514145760973665	38.33999999999999	0.0
C 	30.74390183434757	39.04999999999999	0.0
C 	31.973657907721474	38.339999999999996	0.0
C 	33.20341398109538	39.04999999999999	0.0
C 	34.43317005446927	38.33999999999999	0.0
C 	35.66292612784318	39.04999999999999	0.0
C 	36.892682201217085	38.33999999999999	0.0
C 	38.12243827459099	39.04999999999999	0.0
C 	39.35219434796489	38.33999999999999	0.0
C 	40.581950421338796	39.04999999999999	0.0
C 	41.811706494712695	38.33999999999999	0.0
C 	43.0414625680866	39.04999999999999	0.0
C 	44.27121864146049	38.33999999999999	0.0
C 	45.5009747148344	39.04999999999999	0.0
C 	46.730730788208305	38.33999999999999	0.0
C 	47.960486861582204	39.04999999999999	0.0
C 	49.19024293495611	38.33999999999999	0.0
C 	50.41999900833002	39.04999999999999	0.0
C 	51.649755081703915	38.33999999999999	0.0
C 	52.879511155077815	39.04999999999999	0.0
C 	54.10926722845173	38.33999999999999	0.0
C 	55.33902330182562	39.04999999999998	0.0
C 	56.568779375199526	38.33999999999999	0.0
C 	57.79853544857343	39.04999999999999	0.0
C 	59.02829152194733	38.33999999999999	0.0
C 	60.25804759532123	39.04999999999999	0.0
C 	61.48780366869513	38.33999999999998	0.0
C 	62.71755974206905	39.04999999999999	0.0
C 	63.94731581544294	38.33999999999999	0.0
C 	65.17707188881685	39.04999999999999	0.0
C 	66.40682796219075	38.33999999999999	0.0
C 	67.63658403556465	39.04999999999999	0.0
C 	68.86634010893856	38.33999999999999	0.0
C 	70.09609618231245	39.04999999999998	0.0
C 	71.32585225568636	38.33999999999999	0.0
C 	72.55560832906025	39.04999999999998	0.0
C 	73.78536440243415	38.33999999999999	0.0
C 	75.01512047580806	39.04999999999999	0.0
C 	76.24487654918197	38.33999999999999	0.0
C 	77.47463262255587	39.05	0.0
C 	78.70438869592977	38.33999999999998	0.0
C 	79.93414476930369	39.04999999999999	0.0
C 	81.16390084267758	38.33999999999998	0.0
C 	82.39365691605148	39.04999999999998	0.0
C 	23.365365394104156	40.46999999999999	0.0
C 	24.59512146747806	41.17999999999999	0.0
C 	25.82487754085196	40.46999999999999	0.0
C 	27.054633614225867	41.17999999999999	0.0
C 	28.284389687599763	40.46999999999999	0.0
C 	29.51414576097367	41.17999999999999	0.0
C 	30.74390183434757	40.46999999999999	0.0
C 	31.973657907721474	41.17999999999999	0.0
C 	33.20341398109537	40.46999999999999	0.0
C 	34.43317005446928	41.17999999999999	0.0
C 	35.66292612784318	40.46999999999999	0.0
C 	36.892682201217085	41.17999999999999	0.0
C 	38.12243827459099	40.46999999999999	0.0
C 	39.3521943479649	41.17999999999999	0.0
C 	40.58195042133879	40.46999999999999	0.0
C 	41.811706494712695	41.17999999999999	0.0
C 	43.0414625680866	40.46999999999999	0.0
C 	44.2712186414605	41.17999999999999	0.0
C 	45.500974714834406	40.46999999999999	0.0
C 	46.73073078820831	41.17999999999999	0.0
C 	47.960486861582204	40.46999999999999	0.0
C 	49.19024293495611	41.17999999999999	0.0
C 	50.41999900833002	40.46999999999999	0.0
C 	51.649755081703915	41.179999999999986	0.0
C 	52.87951115507782	40.46999999999999	0.0
C 	54.10926722845173	41.17999999999999	0.0
C 	55.33902330182563	40.46999999999999	0.0
C 	56.568779375199526	41.17999999999999	0.0
C 	57.798535448573425	40.469999999999985	0.0
C 	59.028291521947345	41.17999999999999	0.0
C 	60.25804759532124	40.46999999999999	0.0
C 	61.48780366869514	41.17999999999999	0.0
C 	62.71755974206904	40.46999999999999	0.0
C 	63.94731581544295	41.17999999999999	0.0
C 	65.17707188881685	40.46999999999999	0.0
C 	66.40682796219075	41.179999999999986	0.0
C 	67.63658403556465	40.46999999999999	0.0
C 	68.86634010893854	41.179999999999986	0.0
C 	70.09609618231246	40.46999999999999	0.0
C 	71.32585225568636	41.17999999999999	0.0
C 	72.55560832906026	40.469999999999985	0.0
C 	73.78536440243417	41.179999999999986	0.0
C 	75.01512047580806	40.469999999999985	0.0
C 	76.24487654918198	41.17999999999999	0.0
C 	77.47463262255587	40.46999999999999	0.0
C 	78.70438869592978	41.17999999999999	0.0
C 	79.93414476930367	40.469999999999985	0.0
C 	81.16390084267758	41.179999999999986	0.0
C 	82.3936569160515	40.46999999999999	0.0
C 	83.62341298942539	41.179999999999986	0.0
C 	24.595121467478055	42.59999999999999	0.0
C 	25.82487754085196	43.30999999999999	0.0
C 	27.05463361422586	42.59999999999999	0.0
C 	28.284389687599766	43.30999999999999	0.0
C 	29.514145760973662	42.59999999999999	0.0
C 	30.743901834347568	43.30999999999999	0.0
C 	31.97365790772147	42.59999999999999	0.0
C 	33.20341398109537	43.30999999999999	0.0
C 	34.43317005446927	42.59999999999999	0.0
C 	35.66292612784318	43.30999999999999	0.0
C 	36.89268220121708	42.59999999999999	0.0
C 	38.122438274590984	43.30999999999999	0.0
C 	39.35219434796489	42.59999999999999	0.0
C 	40.581950421338796	43.30999999999999	0.0
C 	41.81170649471269	42.59999999999999	0.0
C 	43.041462568086594	43.30999999999999	0.0
C 	44.2712186414605	42.59999999999999	0.0
C 	45.5009747148344	43.30999999999999	0.0
C 	46.730730788208305	42.59999999999999	0.0
C 	47.96048686158221	43.30999999999999	0.0
C 	49.19024293495611	42.59999999999999	0.0
C 	50.41999900833001	43.30999999999999	0.0
C 	51.64975508170392	42.599999999999994	0.0
C 	52.879511155077815	43.30999999999999	0.0
C 	54.10926722845172	42.59999999999999	0.0
C 	55.33902330182563	43.30999999999999	0.0
C 	56.568779375199526	42.59999999999999	0.0
C 	57.798535448573425	43.30999999999999	0.0
C 	59.028291521947324	42.59999999999998	0.0
C 	60.258047595321244	43.30999999999999	0.0
C 	61.487803668695136	42.59999999999999	0.0
C 	62.71755974206904	43.30999999999999	0.0
C 	63.94731581544294	42.59999999999999	0.0
C 	65.17707188881684	43.30999999999999	0.0
C 	66.40682796219076	42.599999999999994	0.0
C 	67.63658403556465	43.30999999999999	0.0
C 	68.86634010893856	42.59999999999999	0.0
C 	70.09609618231245	43.30999999999998	0.0
C 	71.32585225568636	42.59999999999999	0.0
C 	72.55560832906026	43.30999999999999	0.0
C 	73.78536440243415	42.59999999999999	0.0
C 	75.01512047580806	43.30999999999999	0.0
C 	76.24487654918197	42.59999999999998	0.0
C 	77.47463262255587	43.30999999999999	0.0
C 	78.70438869592978	42.59999999999999	0.0
C 	79.93414476930367	43.30999999999999	0.0
C 	81.16390084267758	42.59999999999999	0.0
C 	82.39365691605148	43.30999999999999	0.0
C 	83.62341298942539	42.59999999999999	0.0
C 	84.85316906279928	43.30999999999998	0.0
C 	25.82487754085196	44.72999999999999	0.0
C 	27.054633614225864	45.43999999999999	0.0
C 	28.284389687599766	44.72999999999999	0.0
C 	29.514145760973673	45.43999999999999	0.0
C 	30.743901834347568	44.72999999999999	0.0
C 	31.97365790772147	45.43999999999999	0.0
C 	33.20341398109537	44.72999999999999	0.0
C 	34.43317005446928	45.43999999999999	0.0
C 	35.662926127843185	44.72999999999999	0.0
C 	36.892682201217085	45.43999999999999	0.0
C 	38.122438274590984	44.72999999999999	0.0
C 	39.35219434796489	45.43999999999999	0.0
C 	40.581950421338796	44.72999999999999	0.0
C 	41.811706494712695	45.43999999999999	0.0
C 	43.0414625680866	44.72999999999999	0.0
C 	44.27121864146051	45.43999999999999	0.0
C 	45.500974714834406	44.72999999999999	0.0
C 	46.730730788208305	45.43999999999999	0.0
C 	47.960486861582204	44.72999999999999	0.0
C 	49.19024293495611	45.43999999999998	0.0
C 	50.41999900833002	44.72999999999999	0.0
C 	51.64975508170391	45.43999999999998	0.0
C 	52.87951115507782	44.72999999999999	0.0
C 	54.10926722845172	45.43999999999999	0.0
C 	55.33902330182562	44.72999999999998	0.0
C 	56.568779375199526	45.43999999999998	0.0
C 	57.798535448573425	44.72999999999998	0.0
C 	59.02829152194734	45.43999999999999	0.0
C 	60.25804759532124	44.72999999999999	0.0
C 	61.48780366869514	45.43999999999999	0.0
C 	62.717559742069035	44.72999999999998	0.0
C 	63.94731581544294	45.43999999999998	0.0
C 	65.17707188881685	44.72999999999999	0.0
C 	66.40682796219075	45.43999999999998	0.0
C 	67.63658403556465	44.72999999999999	0.0
C 	68.86634010893856	45.43999999999999	0.0
C 	70.09609618231245	44.72999999999999	0.0
C 	71.32585225568636	45.43999999999998	0.0
C 	72.55560832906026	44.72999999999998	0.0
C 	73.78536440243417	45.43999999999999	0.0
C 	75.01512047580806	44.72999999999998	0.0
C 	76.24487654918198	45.43999999999999	0.0
C 	77.47463262255587	44.72999999999999	0.0
C 	78.70438869592978	45.43999999999999	0.0
C 	79.93414476930369	44.72999999999999	0.0
C 	81.16390084267758	45.43999999999998	0.0
C 	82.39365691605148	44.72999999999999	0.0
C 	83.62341298942538	45.43999999999998	0.0
C 	84.8531690627993	44.72999999999998	0.0
C 	86.08292513617319	45.43999999999998	0.0
C 	27.054633614225864	46.85999999999999	0.0
C 	28.28438968759977	47.56999999999999	0.0
C 	29.514145760973673	46.85999999999999	0.0
C 	30.74390183434758	47.56999999999999	0.0
C 	31.973657907721474	46.85999999999999	0.0
C 	33.20341398109538	47.56999999999999	0.0
C 	34.43317005446928	46.85999999999999	0.0
C 	35.662926127843185	47.56999999999999	0.0
C 	36.892682201217085	46.85999999999999	0.0
C 	38.122438274590984	47.56999999999999	0.0
C 	39.35219434796489	46.85999999999999	0.0
C 	40.581950421338796	47.56999999999999	0.0
C 	41.8117064947127	46.85999999999999	0.0
C 	43.0414625680866	47.56999999999999	0.0
C 	44.2712186414605	46.85999999999999	0.0
C 	45.500974714834406	47.56999999999999	0.0
C 	46.73073078820831	46.859999999999985	0.0
C 	47.960486861582204	47.569999999999986	0.0
C 	49.19024293495612	46.85999999999999	0.0
C 	50.41999900833002	47.56999999999999	0.0
C 	51.649755081703915	46.859999999999985	0.0
C 	52.87951115507782	47.569999999999986	0.0
C 	54.10926722845172	46.859999999999985	0.0
C 	55.339023301825634	47.56999999999999	0.0
C 	56.56877937519953	46.85999999999999	0.0
C 	57.79853544857344	47.56999999999999	0.0
C 	59.02829152194733	46.859999999999985	0.0
C 	60.25804759532124	47.569999999999986	0.0
C 	61.48780366869515	46.85999999999999	0.0
C 	62.71755974206904	47.569999999999986	0.0
C 	63.94731581544295	46.85999999999999	0.0
C 	65.17707188881685	47.56999999999999	0.0
C 	66.40682796219075	46.859999999999985	0.0
C 	67.63658403556465	47.569999999999986	0.0
C 	68.86634010893856	46.859999999999985	0.0
C 	70.09609618231246	47.56999999999999	0.0
C 	71.32585225568636	46.859999999999985	0.0
C 	72.55560832906028	47.56999999999999	0.0
C 	73.78536440243417	46.859999999999985	0.0
C 	75.01512047580808	47.569999999999986	0.0
C 	76.24487654918197	46.859999999999985	0.0
C 	77.47463262255587	47.569999999999986	0.0
C 	78.70438869592978	46.85999999999999	0.0
C 	79.93414476930367	47.569999999999986	0.0
C 	81.16390084267758	46.85999999999999	0.0
C 	82.39365691605148	47.56999999999999	0.0
C 	83.62341298942539	46.859999999999985	0.0
C 	84.8531690627993	47.569999999999986	0.0
C 	86.08292513617319	46.85999999999998	0.0
C 	87.31268120954711	47.569999999999986	0.0
C 	28.284389687599763	48.98999999999999	0.0
C 	29.51414576097367	49.69999999999999	0.0
C 	30.74390183434757	48.98999999999999	0.0
C 	31.973657907721478	49.69999999999999	0.0
C 	33.20341398109537	48.98999999999999	0.0
C 	34.43317005446928	49.69999999999999	0.0
C 	35.66292612784318	48.98999999999999	0.0
C 	36.892682201217085	49.69999999999999	0.0
C 	38.122438274590984	48.98999999999999	0.0
C 	39.35219434796488	49.69999999999999	0.0
C 	40.58195042133879	48.98999999999999	0.0
C 	41.811706494712695	49.69999999999999	0.0
C 	43.041462568086594	48.98999999999999	0.0
C 	44.2712186414605	49.69999999999999	0.0
C 	45.5009747148344	48.98999999999999	0.0
C 	46.730730788208305	49.69999999999998	0.0
C 	47.96048686158221	48.98999999999999	0.0
C 	49.1902429349561	49.69999999999998	0.0
C 	50.41999900833002	48.98999999999999	0.0
C 	51.64975508170392	49.69999999999999	0.0
C 	52.879511155077815	48.98999999999999	0.0
C 	54.10926722845172	49.69999999999999	0.0
C 	55.33902330182562	48.98999999999998	0.0
C 	56.56877937519953	49.69999999999999	0.0
C 	57.79853544857343	48.98999999999999	0.0
C 	59.02829152194734	49.69999999999999	0.0
C 	60.25804759532124	48.98999999999999	0.0
C 	61.487803668695136	49.69999999999999	0.0
C 	62.71755974206905	48.98999999999999	0.0
C 	63.94731581544294	49.69999999999998	0.0
C 	65.17707188881685	48.98999999999999	0.0
C 	66.40682796219075	49.69999999999999	0.0
C 	67.63658403556465	48.98999999999999	0.0
C 	68.86634010893856	49.69999999999999	0.0
C 	70.09609618231245	48.98999999999998	0.0
C 	71.32585225568637	49.69999999999999	0.0
C 	72.55560832906025	48.98999999999998	0.0
C 	73.78536440243417	49.69999999999999	0.0
C 	75.01512047580806	48.98999999999999	0.0
C 	76.24487654918197	49.69999999999999	0.0
C 	77.47463262255587	48.98999999999998	0.0
C 	78.70438869592978	49.69999999999998	0.0
C 	79.93414476930369	48.98999999999999	0.0
C 	81.16390084267758	49.69999999999998	0.0
C 	82.39365691605148	48.98999999999999	0.0
C 	83.62341298942539	49.69999999999999	0.0
C 	84.85316906279928	48.98999999999998	0.0
C 	86.08292513617319	49.69999999999998	0.0
C 	87.3126812095471	48.98999999999998	0.0
C 	88.542437282921	49.69999999999999	0.0
C 	29.51414576097367	51.11999999999999	0.0
C 	30.74390183434757	51.82999999999999	0.0
C 	31.973657907721474	51.11999999999999	0.0
C 	33.20341398109538	51.82999999999999	0.0
C 	34.43317005446928	51.11999999999999	0.0
C 	35.66292612784318	51.82999999999999	0.0
C 	36.892682201217085	51.11999999999999	0.0
C 	38.12243827459099	51.82999999999999	0.0
C 	39.35219434796489	51.12	0.0
C 	40.581950421338796	51.83	0.0
C 	41.811706494712695	51.11999999999999	0.0
C 	43.041462568086594	51.82999999999999	0.0
C 	44.2712186414605	51.12	0.0
C 	45.5009747148344	51.82999999999999	0.0
C 	46.73073078820831	51.11999999999999	0.0
C 	47.96048686158221	51.82999999999999	0.0
C 	49.19024293495611	51.11999999999999	0.0
C 	50.41999900833002	51.82999999999999	0.0
C 	51.649755081703915	51.11999999999998	0.0
C 	52.879511155077815	51.829999999999984	0.0
C 	54.10926722845171	51.11999999999999	0.0
C 	55.33902330182563	51.83	0.0
C 	56.568779375199526	51.11999999999999	0.0
C 	57.79853544857343	51.82999999999999	0.0
C 	59.02829152194733	51.11999999999999	0.0
C 	60.25804759532124	51.82999999999999	0.0
C 	61.48780366869514	51.11999999999999	0.0
C 	62.717559742069035	51.829999999999984	0.0
C 	63.94731581544295	51.11999999999999	0.0
C 	65.17707188881685	51.82999999999999	0.0
C 	66.40682796219075	51.11999999999999	0.0
C 	67.63658403556465	51.82999999999999	0.0
C 	68.86634010893854	51.11999999999998	0.0
C 	70.09609618231246	51.82999999999999	0.0
C 	71.32585225568636	51.11999999999999	0.0
C 	72.55560832906026	51.82999999999999	0.0
C 	73.78536440243417	51.11999999999999	0.0
C 	75.01512047580806	51.82999999999999	0.0
C 	76.24487654918198	51.11999999999999	0.0
C 	77.47463262255587	51.829999999999984	0.0
C 	78.70438869592978	51.11999999999999	0.0
C 	79.93414476930367	51.829999999999984	0.0
C 	81.16390084267758	51.11999999999999	0.0
C 	82.39365691605148	51.82999999999999	0.0
C 	83.62341298942538	51.11999999999998	0.0
C 	84.8531690627993	51.82999999999999	0.0
C 	86.08292513617319	51.11999999999998	0.0
C 	87.3126812095471	51.82999999999999	0.0
C 	88.542437282921	51.11999999999998	0.0
C 	89.7721933562949	51.829999999999984	0.0
C 	50.663142838404475	-0.35093836414036034	2.15
C 	52.057990734439215	-0.08485689742863062	2.15
C 	52.52498137280801	1.2561575483085943	2.15
C 	53.91982926884274	1.5222390150203238	2.15
C 	54.38681990721153	2.863253460757549	2.15
C 	55.781667803246265	3.1293349274692717	2.15
C 	56.248658441615056	4.4703493732064965	2.15
C 	57.6435063376498	4.736430839918226	2.15
C 	58.11049697601859	6.077445285655451	2.15
C 	48.34043768470378	0.45791314817340684	2.15
C 	49.73528558073852	0.7239946148851332	2.15
C 	50.20227621910731	2.0650090606223546	2.15
C 	51.59712411514205	2.331090527334086	2.15
C 	52.06411475351084	3.672104973071307	2.15
C 	53.45896264954558	3.93818643978304	2.15
C 	53.925953287914375	5.279200885520262	2.15
C 	55.32080118394911	5.545282352231988	2.15
C 	55.78779182231789	6.88629679796921	2.15
C 	57.18263971835263	7.152378264680943	2.15
C 	57.64963035672142	8.493392710418163	2.15
C 	59.044478252756164	8.759474177129897	2.15
C 	59.51146889112495	10.100488622867118	2.15
C 	44.15589399659957	-0.3403312519617822	2.15
C 	45.55074189263431	-0.07424978525005431	2.15
C 	46.0177325310031	1.2667646604871705	2.15
C 	47.41258042703783	1.532846127198902	2.15
C 	47.87957106540662	2.8738605729361266	2.15
C 	49.274418961441356	3.13994203964785	2.15
C 	49.74140959981015	4.480956485385074	2.15
C 	51.13625749584489	4.747037952096804	2.15
C 	51.60324813421368	6.088052397834029	2.15
C 	52.99809603024842	6.354133864545757	2.15
C 	53.46508666861721	7.695148310282982	2.15
C 	54.859934564651944	7.9612297769947045	2.15
C 	55.326925203020735	9.302244222731929	2.15
C 	56.72177309905546	9.568325689443663	2.15
C 	57.18876373742425	10.909340135180887	2.15
C 	58.58361163345899	11.175421601892614	2.15
C 	59.050602271827785	12.516436047629838	2.15
C 	60.445450167862525	12.782517514341562	2.15
C 	60.91244080623132	14.123531960078786	2.15
C 	62.30728870226605	14.389613426790516	2.15
C 	62.774279340634834	15.73062787252774	2.15
C 	41.83318884289889	0.4685202603519881	2.15
C 	43.228036738933625	0.7346017270637129	2.15
C 	43.69502737730241	2.0756161728009377	2.15
C 	45.08987527333715	2.341697639512667	2.15
C 	45.55686591170594	3.682712085249892	2.15
C 	46.951713807740674	3.94879355196162	2.15
C 	47.418704446109466	5.289807997698845	2.15
C 	48.8135523421442	5.555889464410569	2.15
C 	49.28054298051299	6.8969039101477945	2.15
C 	50.67539087654773	7.162985376859522	2.15
C 	51.14238151491652	8.503999822596747	2.15
C 	52.537229410951255	8.770081289308479	2.15
C 	53.00422004932004	10.111095735045703	2.15
C 	54.39906794535478	10.377177201757425	2.15
C 	54.86605858372357	11.718191647494649	2.15
C 	56.260906479758304	11.98427311420638	2.15
C 	56.727897118127096	13.325287559943604	2.15
C 	58.122745014161836	13.591369026655334	2.15
C 	58.58973565253063	14.932383472392559	2.15
C 	59.98458354856536	15.198464939104282	2.15
C 	60.451574186934145	16.539479384841506	2.15
C 	61.84642208296889	16.805560851553235	2.15
C 	62.31341272133768	18.14657529729046	2.15
C 	63.70826061737242	18.412656764002193	2.15
C 	64.1752512557412	19.75367120973942	2.15
C 	65.57009915177593	20.019752676451137	2.15
C 	66.03708979014472	21.360767122188363	2.15
C 	37.64864515479467	-0.3297241397831992	2.15
C 	39.04349305082941	-0.06364267307147464	2.15
C 	39.510483689198196	1.2773717726657468	2.15
C 	40.90533158523294	1.5434532393774798	2.15
C 	41.37232222360173	2.8844676851147013	2.15
C 	42.76717011963646	3.1505491518264277	2.15
C 	43.23416075800525	4.491563597563649	2.15
C 	44.629008654039986	4.757645064275384	2.15
C 	45.09599929240878	6.098659510012605	2.15
C 	46.49084718844352	6.364740976724338	2.15
C 	46.95783782681231	7.70575542246156	2.15
C 	48.35268572284704	7.971836889173284	2.15
C 	48.819676361215826	9.312851334910507	2.15
C 	50.214524257250574	9.578932801622237	2.15
C 	50.68151489561936	10.919947247359458	2.15
C 	52.0763627916541	11.186028714071194	2.15
C 	52.54335343002288	12.527043159808414	2.15
C 	53.938201326057616	12.793124626520143	2.15
C 	54.40519196442641	14.134139072257364	2.15
C 	55.80003986046115	14.400220538969096	2.15
C 	56.26703049882994	15.741234984706317	2.15
C 	57.66187839486468	16.007316451418045	2.15
C 	58.128869033233464	17.34833089715527	2.15
C 	59.52371692926819	17.614412363866997	2.15
C 	59.99070756763698	18.955426809604223	2.15
C 	61.38555546367173	19.221508276315955	2.15
C 	61.85254610204051	20.562522722053174	2.15
C 	63.24739399807525	20.828604188764903	2.15
C 	63.714384636444045	22.16961863450213	2.15
C 	65.10923253247877	22.43570010121385	2.15
C 	65.57622317084757	23.776714546951077	2.15
C 	66.9710710668823	24.042796013662798	2.15
C 	67.4380617052511	25.383810459400024	2.15
C 	68.83290960128582	25.649891926111763	2.15
C 	69.29990023965462	26.99090637184899	2.15
C 	35.32594000109398	0.4791273725305662	2.15
C 	36.72078789712872	0.7452088392422941	2.15
C 	37.187778535497515	2.086223284979519	2.15
C 	38.58262643153225	2.3523047516912436	2.15
C 	39.04961706990103	3.6933191974284685	2.15
C 	40.44446496593577	3.959400664140196	2.15
C 	40.911455604304564	5.300415109877421	2.15
C 	42.3063035003393	5.566496576589146	2.15
C 	42.77329413870809	6.9075110223263705	2.15
C 	44.16814203474283	7.173592489038098	2.15
C 	44.63513267311162	8.514606934775323	2.15
C 	46.02998056914635	8.780688401487055	2.15
C 	46.496971207515145	10.12170284722428	2.15
C 	47.89181910354988	10.387784313936002	2.15
C 	48.35880974191867	11.728798759673227	2.15
C 	49.7536576379534	11.994880226384955	2.15
C 	50.220648276322194	13.33589467212218	2.15
C 	51.61549617235693	13.601976138833912	2.15
C 	52.08248681072572	14.942990584571136	2.15
C 	53.47733470676046	15.209072051282858	2.15
C 	53.94432534512925	16.550086497020082	2.15
C 	55.339173241163984	16.816167963731814	2.15
C 	55.80616387953277	18.157182409469037	2.15
C 	57.201011775567515	18.423263876180766	2.15
C 	57.6680024139363	19.764278321917992	2.15
C 	59.06285030997103	20.030359788629713	2.15
C 	59.529840948339825	21.37137423436694	2.15
C 	60.924688844374565	21.637455701078668	2.15
C 	61.391679482743356	22.978470146815894	2.15
C 	62.78652737877809	23.244551613527623	2.15
C 	63.25351801714688	24.58556605926485	2.15
C 	64.64836591318162	24.85164752597657	2.15
C 	65.1153565515504	26.192661971713797	2.15
C 	66.51020444758514	26.45874343842552	2.15
C 	66.97719508595394	27.799757884162744	2.15
C 	68.37204298198867	28.06583935087448	2.15
C 	68.83903362035745	29.406853796611706	2.15
C 	70.2338815163922	29.672935263323428	2.15
C 	70.70087215476099	31.013949709060654	2.15
C 	72.09572005079572	31.280031175772375	2.15
C 	72.5627106891645	32.6210456215096	2.15
C 	31.141396312989773	-0.31911702760461796	2.15
C 	32.53624420902451	-0.05303556089288985	2.15
C 	33.003234847393294	1.287978884844335	2.15
C 	34.398082743428034	1.5540603515560596	2.15
C 	34.865073381796826	2.8950747972932844	2.15
C 	36.25992127783156	3.1611562640050157	2.15
C 	36.72691191620035	4.5021707097422405	2.15
C 	38.121759812235084	4.768252176453962	2.15
C 	38.588750450603875	6.109266622191186	2.15
C 	39.98359834663861	6.375348088902918	2.15
C 	40.4505889850074	7.716362534640143	2.15
C 	41.84543688104214	7.982444001351864	2.15
C 	42.31242751941093	9.323458447089088	2.15
C 	43.707275415445665	9.58953991380082	2.15
C 	44.174266053814456	10.930554359538045	2.15
C 	45.569113949849196	11.196635826249773	2.15
C 	46.03610458821798	12.537650271986998	2.15
C 	47.430952484252714	12.803731738698723	2.15
C 	47.897943122621506	14.144746184435947	2.15
C 	49.292791018656246	14.410827651147677	2.15
C 	49.75978165702504	15.751842096884902	2.15
C 	51.15462955305977	16.01792356359663	2.15
C 	51.62162019142856	17.358938009333855	2.15
C 	53.016468087463295	17.62501947604558	2.15
C 	53.48345872583208	18.966033921782802	2.15
C 	54.87830662186682	19.232115388494535	2.15
C 	55.345297260235604	20.573129834231757	2.15
C 	56.74014515627035	20.83921130094349	2.15
C 	57.207135794639136	22.180225746680712	2.15
C 	58.60198369067387	22.446307213392437	2.15
C 	59.06897432904266	23.78732165912966	2.15
C 	60.4638222250774	24.05340312584139	2.15
C 	60.93081286344619	25.394417571578614	2.15
C 	62.325660759480925	25.660499038290347	2.15
C 	62.79265139784972	27.001513484027573	2.15
C 	64.18749929388446	27.26759495073929	2.15
C 	64.65448993225324	28.608609396476517	2.15
C 	66.04933782828799	28.87469086318824	2.15
C 	66.51632846665677	30.215705308925465	2.15
C 	67.9111763626915	30.481786775637204	2.15
C 	68.3781670010603	31.82280122137443	2.15
C 	69.77301489709504	32.088882688086144	2.15
C 	70.24000553546382	33.429897133823374	2.15
C 	71.63485343149856	33.6959786005351	2.15
C 	72.10184406986734	35.03699304627232	2.15
C 	73.49669196590209	35.303074512984054	2.15
C 	73.96368260427087	36.644088958721284	2.15
C 	75.3585305003056	36.91017042543301	2.15
C 	75.8255211386744	38.25118487117023	2.15
C 	28.81869115928908	0.4897344847091407	2.15
C 	30.213539055323817	0.7558159514208755	2.15
C 	30.680529693692606	2.096830397158097	2.15
C 	32.075377589727346	2.362911863869825	2.15
C 	32.54236822809614	3.7039263096070463	2.15
C 	33.93721612413087	3.970007776318778	2.15
C 	34.40420676249966	5.311022222055999	2.15
C 	35.7990546585344	5.57710368876773	2.15
C 	36.266045296903194	6.918118134504952	2.15
C 	37.66089319293793	7.18419960121668	2.15
C 	38.12788383130671	8.525214046953902	2.15
C 	39.52273172734145	8.791295513665633	2.15
C 	39.98972236571024	10.132309959402853	2.15
C 	41.384570261744976	10.398391426114582	2.15
C 	41.85156090011376	11.739405871851805	2.15
C 	43.24640879614851	12.005487338563535	2.15
C 	43.71339943451729	13.346501784300756	2.15
C 	45.10824733055203	13.612583251012492	2.15
C 	45.57523796892082	14.953597696749712	2.15
C 	46.97008586495556	15.219679163461437	2.15
C 	47.43707650332435	16.56069360919866	2.15
C 	48.83192439935909	16.82677507591039	2.15
C 	49.29891503772788	18.167789521647613	2.15
C 	50.69376293376261	18.433870988359345	2.15
C 	51.1607535721314	19.774885434096568	2.15
C 	52.55560146816613	20.04096690080829	2.15
C 	53.02259210653492	21.381981346545516	2.15
C 	54.41744000256966	21.648062813257255	2.15
C 	54.88443064093845	22.98907725899447	2.15
C 	56.27927853697319	23.2551587257062	2.15
C 	56.74626917534198	24.596173171443425	2.15
C 	58.14111707137671	24.86225463815515	2.15
C 	58.608107709745504	26.203269083892373	2.15
C 	60.002955605780244	26.46935055060411	2.15
C 	60.46994624414903	27.810364996341328	2.15
C 	61.86479414018377	28.076446463053056	2.15
C 	62.33178477855255	29.417460908790282	2.15
C 	63.72663267458729	29.683542375502004	2.15
C 	64.19362331295609	31.02455682123923	2.15
C 	65.58847120899082	31.29063828795095	2.15
C 	66.05546184735961	32.63165273368818	2.15
C 	67.45030974339436	32.89773420039991	2.15
C 	67.91730038176314	34.23874864613714	2.15
C 	69.31214827779787	34.50483011284886	2.15
C 	69.77913891616666	35.84584455858609	2.15
C 	71.17398681220139	36.111926025297805	2.15
C 	71.64097745057019	37.452940471035035	2.15
C 	73.03582534660492	37.71902193774677	2.15
C 	73.50281598497372	39.060036383484	2.15
C 	74.89766388100846	39.326117850195715	2.15
C 	75.36465451937724	40.667132295932944	2.15
C 	76.75950241541197	40.93321376264466	2.15
C 	77.22649305378077	42.27422820838189	2.15
C 	24.634147471184868	-0.30850991542604245	2.15
C 	26.028995367219608	-0.04242844871431531	2.15
C 	26.4959860055884	1.298585997022908	2.15
C 	27.890833901623132	1.5646674637346358	2.15
C 	28.35782453999192	2.905681909471859	2.15
C 	29.75267243602666	3.1717633761835904	2.15
C 	30.21966307439545	4.512777821920813	2.15
C 	31.61451097043018	4.778859288632543	2.15
C 	32.08150160879897	6.119873734369764	2.15
C 	33.47634950483371	6.385955201081493	2.15
C 	33.943340143202505	7.726969646818717	2.15
C 	35.33818803923724	7.9930511135304485	2.15
C 	35.80517867760602	9.334065559267673	2.15
C 	37.20002657364076	9.600147025979394	2.15
C 	37.667017212009554	10.941161471716619	2.15
C 	39.06186510804429	11.207242938428351	2.15
C 	39.52885574641308	12.548257384165575	2.15
C 	40.92370364244781	12.814338850877297	2.15
C 	41.390694280816604	14.155353296614521	2.15
C 	42.78554217685134	14.421434763326253	2.15
C 	43.25253281522013	15.762449209063478	2.15
C 	44.64738071125487	16.028530675775205	2.15
C 	45.11437134962366	17.36954512151243	2.15
C 	46.50921924565839	17.635626588224156	2.15
C 	46.976209884027185	18.976641033961382	2.15
C 	48.371057780061925	19.242722500673107	2.15
C 	48.83804841843071	20.583736946410333	2.15
C 	50.23289631446546	20.849818413122062	2.15
C 	50.69988695283424	22.190832858859288	2.15
C 	52.094734848868974	22.456914325571013	2.15
C 	52.561725487237766	23.797928771308236	2.15
C 	53.95657338327249	24.064010238019968	2.15
C 	54.42356402164128	25.40502468375719	2.15
C 	55.81841191767602	25.671106150468923	2.15
C 	56.285402556044815	27.012120596206145	2.15
C 	57.68025045207955	27.27820206291787	2.15
C 	58.14724109044833	28.619216508655093	2.15
C 	59.54208898648308	28.885297975366825	2.15
C 	60.009079624851864	30.226312421104048	2.15
C 	61.403927520886604	30.492393887815776	2.15
C 	61.87091815925539	31.833408333553002	2.15
C 	63.26576605529013	32.09948980026473	2.15
C 	63.73275669365892	33.44050424600195	2.15
C 	65.12760458969366	33.706585712713675	2.15
C 	65.59459522806245	35.0476001584509	2.15
C 	66.98944312409719	35.31368162516263	2.15
C 	67.45643376246598	36.65469607089986	2.15
C 	68.85128165850071	36.92077753761158	2.15
C 	69.31827229686951	38.26179198334881	2.15
C 	70.71312019290424	38.52787345006053	2.15
C 	71.18011083127303	39.868887895797755	2.15
C 	72.57495872730776	40.13496936250949	2.15
C 	73.04194936567656	41.47598380824672	2.15
C 	74.43679726171129	41.74206527495844	2.15
C 	74.90378790008008	43.08307972069566	2.15
C 	76.29863579611482	43.34916118740739	2.15
C 	76.76562643448361	44.690175633144605	2.15
C 	22.311442317484182	0.5003415968877196	2.15
C 	23.706290213518916	0.766423063599451	2.15
C 	24.173280851887707	2.107437509336674	2.15
C 	25.568128747922444	2.373518976048402	2.15
C 	26.035119386291232	3.7145334217856254	2.15
C 	27.429967282325972	3.9806148884973522	2.15
C 	27.896957920694764	5.321629334234576	2.15
C 	29.291805816729497	5.587710800946307	2.15
C 	29.758796455098285	6.928725246683528	2.15
C 	31.153644351133025	7.194806713395258	2.15
C 	31.620634989501813	8.535821159132484	2.15
C 	33.01548288553655	8.80190262584421	2.15
C 	33.482473523905334	10.142917071581433	2.15
C 	34.87732141994008	10.408998538293163	2.15
C 	35.344312058308866	11.750012984030384	2.15
C 	36.7391599543436	12.016094450742113	2.15
C 	37.20615059271239	13.357108896479335	2.15
C 	38.60099848874713	13.623190363191066	2.15
C 	39.06798912711592	14.964204808928287	2.15
C 	40.462837023150655	15.230286275640015	2.15
C 	40.92982766151944	16.571300721377238	2.15
C 	42.32467555755418	16.837382188088966	2.15
C 	42.79166619592297	18.17839663382619	2.15
C 	44.186514091957704	18.444478100537925	2.15
C 	44.653504730326496	19.785492546275147	2.15
C 	46.048352626361236	20.051574012986872	2.15
C 	46.51534326473002	21.39258845872409	2.15
C 	47.91019116076476	21.65866992543582	2.15
C 	48.37718179913355	22.999684371173046	2.15
C 	49.77202969516829	23.265765837884782	2.15
C 	50.23902033353708	24.606780283622	2.15
C 	51.63386822957182	24.87286175033373	2.15
C 	52.10085886794061	26.21387619607095	2.15
C 	53.49570676397534	26.47995766278268	2.15
C 	53.96269740234413	27.820972108519904	2.15
C 	55.35754529837887	28.08705357523164	2.15
C 	55.82453593674765	29.42806802096886	2.15
C 	57.21938383278239	29.69414948768059	2.15
C 	57.686374471151176	31.035163933417806	2.15
C 	59.081222367185916	31.301245400129535	2.15
C 	59.54821300555471	32.64225984586676	2.15
C 	60.94306090158945	32.9083413125785	2.15
C 	61.41005153995823	34.249355758315716	2.15
C 	62.80489943599297	34.51543722502744	2.15
C 	63.271890074361764	35.85645167076466	2.15
C 	64.6667379703965	36.12253313747639	2.15
C 	65.1337286087653	37.46354758321361	2.15
C 	66.52857650480003	37.72962904992535	2.15
C 	66.99556714316881	39.07064349566257	2.15
C 	68.39041503920356	39.3367249623743	2.15
C 	68.85740567757234	40.67773940811152	2.15
C 	70.25225357360708	40.943820874823246	2.15
C 	70.71924421197586	42.28483532056047	2.15
C 	72.11409210801061	42.55091678727221	2.15
C 	72.5810827463794	43.89193123300944	2.15
C 	73.97593064241413	44.158012699721155	2.15
C 	74.44292128078291	45.499027145458385	2.15
C 	75.83776917681766	45.7651086121701	2.15
C 	18.126898629379966	-0.2979028032474653	2.15
C 	19.521746525414706	-0.03182133653573732	2.15
C 	19.988737163783494	1.3091931092014857	2.15
C 	21.38358505981823	1.5752745759132138	2.15
C 	21.85057569818702	2.916289021650437	2.15
C 	23.24542359422176	3.182370488362169	2.15
C 	23.712414232590547	4.523384934099393	2.15
C 	25.107262128625287	4.7894664008111185	2.15
C 	25.574252766994075	6.130480846548342	2.15
C 	26.969100663028808	6.3965623132600715	2.15
C 	27.436091301397596	7.737576758997294	2.15
C 	28.83093919743234	8.003658225709023	2.15
C 	29.297929835801128	9.344672671446249	2.15
C 	30.692777731835864	9.610754138157978	2.15
C 	31.159768370204652	10.9517685838952	2.15
C 	32.554616266239385	11.217850050606925	2.15
C 	33.02160690460818	12.55886449634415	2.15
C 	34.41645480064291	12.824945963055882	2.15
C 	34.8834454390117	14.165960408793106	2.15
C 	36.27829333504644	14.432041875504828	2.15
C 	36.74528397341523	15.773056321242052	2.15
C 	38.14013186944997	16.039137787953784	2.15
C 	38.60712250781876	17.38015223369101	2.15
C 	40.0019704038535	17.646233700402732	2.15
C 	40.46896104222228	18.987248146139954	2.15
C 	41.863808938257016	19.253329612851687	2.15
C 	42.33079957662581	20.594344058588913	2.15
C 	43.72564747266055	20.860425525300638	2.15
C 	44.19263811102933	22.201439971037864	2.15
C 	45.587486007064065	22.46752143774959	2.15
C 	46.05447664543286	23.80853588348681	2.15
C 	47.4493245414676	24.07461735019854	2.15
C 	47.91631517983639	25.415631795935766	2.15
C 	49.31116307587113	25.681713262647495	2.15
C 	49.77815371423992	27.02272770838472	2.15
C 	51.17300161027465	27.288809175096443	2.15
C 	51.639992248643445	28.62982362083367	2.15
C 	53.03484014467818	28.8959050875454	2.15
C 	53.50183078304696	30.236919533282624	2.15
C 	54.89667867908171	30.503000999994356	2.15
C 	55.363669317450494	31.84401544573158	2.15
C 	56.75851721348522	32.1100969124433	2.15
C 	57.22550785185401	33.451111358180526	2.15
C 	58.62035574788875	33.71719282489226	2.15
C 	59.08734638625754	35.05820727062948	2.15
C 	60.48219428229228	35.32428873734121	2.15
C 	60.94918492066107	36.665303183078436	2.15
C 	62.34403281669581	36.93138464979016	2.15
C 	62.81102345506459	38.27239909552738	2.15
C 	64.20587135109933	38.5384805622391	2.15
C 	64.67286198946813	39.87949500797633	2.15
C 	66.06770988550286	40.14557647468806	2.15
C 	66.53470052387165	41.48659092042529	2.15
C 	67.9295484199064	41.75267238713701	2.15
C 	68.39653905827518	43.09368683287424	2.15
C 	69.79138695430991	43.35976829958596	2.15
C 	70.2583775926787	44.70078274532319	2.15
C 	71.65322548871345	44.96686421203492	2.15
C 	72.12021612708223	46.30787865777215	2.15
C 	73.51506402311696	46.573960124483875	2.15
C 	15.80419347567928	0.5109487090663017	2.15
C 	17.199041371714017	0.7770301757780298	2.15
C 	17.666032010082805	2.118044621515253	2.15
C 	19.060879906117542	2.384126088226981	2.15
C 	19.527870544486333	3.725140533964204	2.15
C 	20.92271844052107	3.991222000675932	2.15
C 	21.389709078889858	5.332236446413155	2.15
C 	22.784556974924598	5.598317913124887	2.15
C 	23.251547613293386	6.939332358862109	2.15
C 	24.646395509328123	7.205413825573839	2.15
C 	25.11338614769691	8.54642827131106	2.15
C 	26.508234043731647	8.81250973802279	2.15
C 	26.975224682100436	10.153524183760014	2.15
C 	28.370072578135176	10.419605650471745	2.15
C 	28.837063216503964	11.760620096208969	2.15
C 	30.2319111125387	12.026701562920694	2.15
C 	30.69890175090749	13.367716008657915	2.15
C 	32.09374964694223	13.633797475369645	2.15
C 	32.56074028531102	14.97481192110687	2.15
C 	33.95558818134575	15.240893387818602	2.15
C 	34.422578819714545	16.581907833555828	2.15
C 	35.81742671574928	16.84798930026755	2.15
C 	36.28441735411807	18.189003746004776	2.15
C 	37.6792652501528	18.455085212716504	2.15
C 	38.146255888521594	19.79609965845373	2.15
C 	39.54110378455633	20.062181125165452	2.15
C 	40.00809442292512	21.403195570902678	2.15
C 	41.40294231895986	21.669277037614407	2.15
C 	41.86993295732864	23.01029148335163	2.15
C 	43.26478085336338	23.27637295006336	2.15
C 	43.731771491732175	24.617387395800584	2.15
C 	45.12661938776691	24.883468862512306	2.15
C 	45.5936100261357	26.224483308249532	2.15
C 	46.98845792217044	26.49056477496126	2.15
C 	47.45544856053923	27.831579220698487	2.15
C 	48.850296456573965	28.097660687410215	2.15
C 	49.317287094942756	29.43867513314744	2.15
C 	50.712134990977496	29.704756599859163	2.15
C 	51.17912562934628	31.04577104559639	2.15
C 	52.57397352538102	31.311852512308118	2.15
C 	53.040964163749805	32.652866958045344	2.15
C 	54.43581205978455	32.91894842475707	2.15
C 	54.90280269815334	34.2599628704943	2.15
C 	56.29765059418807	34.526044337206024	2.15
C 	56.76464123255686	35.867058782943246	2.15
C 	58.159489128591595	36.13314024965497	2.15
C 	58.62647976696039	37.4741546953922	2.15
C 	60.02132766299512	37.74023616210393	2.15
C 	60.48831830136391	39.081250607841156	2.15
C 	61.88316619739865	39.347332074552874	2.15
C 	62.350156835767436	40.688346520290104	2.15
C 	63.745004731802176	40.95442798700182	2.15
C 	64.21199537017097	42.29544243273905	2.15
C 	65.6068432662057	42.56152389945078	2.15
C 	66.0738339045745	43.90253834518801	2.15
C 	67.46868180060923	44.16861981189973	2.15
C 	67.93567243897802	45.509634257636954	2.15
C 	69.33052033501276	45.775715724348686	2.15
C 	11.619649787575064	-0.2872956910688869	2.15
C 	13.014497683609804	-0.021214224357157654	2.15
C 	13.481488321978594	1.3198002213800655	2.15
C 	14.87633621801333	1.5858816880917952	2.15
C 	15.343326856382118	2.9268961338290183	2.15
C 	16.738174752416857	3.1929776005407464	2.15
C 	17.205165390785645	4.5339920462779695	2.15
C 	18.60001328682038	4.800073512989697	2.15
C 	19.067003925189173	6.141087958726921	2.15
C 	20.461851821223906	6.407169425438648	2.15
C 	20.928842459592698	7.748183871175872	2.15
C 	22.323690355627434	8.014265337887602	2.15
C 	22.790680993996222	9.355279783624825	2.15
C 	24.185528890030962	9.621361250336554	2.15
C 	24.65251952839975	10.96237569607378	2.15
C 	26.047367424434487	11.228457162785507	2.15
C 	26.514358062803275	12.569471608522727	2.15
C 	27.90920595883801	12.835553075234461	2.15
C 	28.3761965972068	14.176567520971682	2.15
C 	29.77104449324154	14.442648987683413	2.15
C 	30.238035131610328	15.783663433420637	2.15
C 	31.632883027645065	16.049744900132364	2.15
C 	32.099873666013856	17.390759345869583	2.15
C 	33.494721562048596	17.656840812581315	2.15
C 	33.96171220041738	18.997855258318538	2.15
C 	35.35656009645212	19.263936725030266	2.15
C 	35.823550734820905	20.60495117076749	2.15
C 	37.218398630855646	20.87103263747922	2.15
C 	37.68538926922443	22.212047083216444	2.15
C 	39.08023716525917	22.478128549928172	2.15
C 	39.547227803627955	23.81914299566539	2.15
C 	40.942075699662695	24.08522446237712	2.15
C 	41.40906633803149	25.426238908114343	2.15
C 	42.80391423406623	25.69232037482608	2.15
C 	43.27090487243501	27.033334820563297	2.15
C 	44.66575276846975	27.29941628727503	2.15
C 	45.132743406838536	28.640430733012245	2.15
C 	46.527591302873276	28.906512199723974	2.15
C 	46.99458194124207	30.2475266454612	2.15
C 	48.38942983727681	30.513608112172935	2.15
C 	48.85642047564559	31.854622557910155	2.15
C 	50.25126837168033	32.12070402462189	2.15
C 	50.71825901004912	33.4617184703591	2.15
C 	52.11310690608385	33.727799937070834	2.15
C 	52.58009754445264	35.06881438280806	2.15
C 	53.97494544048739	35.33489584951979	2.15
C 	54.44193607885617	36.67591029525701	2.15
C 	55.836783974890906	36.941991761968744	2.15
C 	56.3037746132597	38.28300620770596	2.15
C 	57.69862250929444	38.54908767441769	2.15
C 	58.16561314766322	39.890102120154914	2.15
C 	59.560461043697956	40.15618358686665	2.15
C 	60.02745168206674	41.49719803260387	2.15
C 	61.42229957810149	41.7632794993156	2.15
C 	61.88929021647027	43.10429394505282	2.15
C 	63.28413811250501	43.37037541176454	2.15
C 	63.751128750873804	44.711389857501764	2.15
C 	65.14597664690854	44.97747132421351	2.15
C 	65.61296728527734	46.31848576995073	2.15
C 	67.00781518131207	46.58456723666245	2.15
C 	9.296944633874377	0.5215558212448789	2.15
C 	10.691792529909115	0.7876372879566069	2.15
C 	11.158783168277903	2.12865173369383	2.15
C 	12.553631064312643	2.3947332004055593	2.15
C 	13.020621702681431	3.7357476461427823	2.15
C 	14.41546959871617	4.001829112854511	2.15
C 	14.882460237084958	5.342843558591737	2.15
C 	16.277308133119693	5.608925025303463	2.15
C 	16.744298771488484	6.949939471040688	2.15
C 	18.13914666752322	7.216020937752414	2.15
C 	18.60613730589201	8.557035383489639	2.15
C 	20.00098520192675	8.823116850201366	2.15
C 	20.467975840295537	10.16413129593859	2.15
C 	21.862823736330274	10.430212762650319	2.15
C 	22.329814374699062	11.771227208387545	2.15
C 	23.7246622707338	12.03730867509927	2.15
C 	24.19165290910259	13.378323120836496	2.15
C 	25.586500805137327	13.644404587548221	2.15
C 	26.053491443506115	14.985419033285446	2.15
C 	27.448339339540855	15.251500499997178	2.15
C 	27.915329977909643	16.5925149457344	2.15
C 	29.310177873944376	16.85859641244613	2.15
C 	29.777168512313168	18.199610858183352	2.15
C 	31.172016408347904	18.46569232489508	2.15
C 	31.639007046716692	19.806706770632303	2.15
C 	33.03385494275143	20.07278823734403	2.15
C 	33.50084558112022	21.413802683081258	2.15
C 	34.89569347715496	21.67988414979298	2.15
C 	35.36268411552375	23.020898595530205	2.15
C 	36.75753201155848	23.286980062241938	2.15
C 	37.22452264992727	24.62799450797916	2.15
C 	38.619370545962006	24.894075974690885	2.15
C 	39.0863611843308	26.235090420428108	2.15
C 	40.48120908036553	26.50117188713984	2.15
C 	40.94819971873432	27.842186332877063	2.15
C 	42.34304761476906	28.108267799588795	2.15
C 	42.81003825313785	29.449282245326017	2.15
C 	44.20488614917259	29.715363712037743	2.15
C 	44.67187678754138	31.056378157774965	2.15
C 	46.06672468357612	31.322459624486694	2.15
C 	46.533715321944904	32.66347407022392	2.15
C 	47.928563217979644	32.92955553693565	2.15
C 	48.39555385634843	34.270569982672875	2.15
C 	49.79040175238317	34.5366514493846	2.15
C 	50.25739239075196	35.87766589512182	2.15
C 	51.65224028678669	36.143747361833555	2.15
C 	52.119230925155485	37.48476180757078	2.15
C 	53.514078821190225	37.7508432742825	2.15
C 	53.981069459559016	39.09185772001973	2.15
C 	55.37591735559375	39.35793918673145	2.15
C 	55.842907993962534	40.69895363246868	2.15
C 	57.23775588999728	40.965035099180405	2.15
C 	57.704746528366066	42.306049544917634	2.15
C 	59.099594424400806	42.57213101162937	2.15
C 	59.56658506276959	43.91314545736659	2.15
C 	60.96143295880432	44.17922692407831	2.15
C 	61.428423597173115	45.52024136981554	2.15
C 	62.823271493207855	45.786322836527255	2.15
C 	5.112400945770164	-0.2766885788903077	2.15
C 	6.507248841804902	-0.010607112178578827	2.15
C 	6.974239480173691	1.3304073335586444	2.15
C 	8.369087376208428	1.5964888002703732	2.15
C 	8.836078014577216	2.937503246007596	2.15
C 	10.230925910611953	3.203584712719324	2.15
C 	10.697916548980743	4.544599158456547	2.15
C 	12.092764445015481	4.810680625168277	2.15
C 	12.55975508338427	6.1516950709055	2.15
C 	13.954602979419006	6.417776537617231	2.15
C 	14.421593617787794	7.758790983354453	2.15
C 	15.816441513822532	8.024872450066182	2.15
C 	16.28343215219132	9.365886895803404	2.15
C 	17.67828004822606	9.631968362515133	2.15
C 	18.14527068659485	10.972982808252356	2.15
C 	19.540118582629585	11.239064274964086	2.15
C 	20.007109220998373	12.580078720701307	2.15
C 	21.401957117033113	12.84616018741304	2.15
C 	21.8689477554019	14.187174633150262	2.15
C 	23.263795651436638	14.453256099861987	2.15
C 	23.730786289805426	15.794270545599211	2.15
C 	25.125634185840166	16.060352012310943	2.15
C 	25.592624824208954	17.401366458048162	2.15
C 	26.987472720243694	17.667447924759895	2.15
C 	27.454463358612482	19.008462370497117	2.15
C 	28.84931125464722	19.274543837208846	2.15
C 	29.316301893016007	20.61555828294607	2.15
C 	30.711149789050744	20.8816397496578	2.15
C 	31.17814042741953	22.22265419539502	2.15
C 	32.57298832345427	22.488735662106755	2.15
C 	33.03997896182306	23.829750107843978	2.15
C 	34.43482685785779	24.0958315745557	2.15
C 	34.901817496226585	25.436846020292926	2.15
C 	36.296665392261325	25.702927487004654	2.15
C 	36.76365603063011	27.043941932741873	2.15
C 	38.15850392666485	27.310023399453605	2.15
C 	38.625494565033634	28.651037845190825	2.15
C 	40.020342461068374	28.91711931190256	2.15
C 	40.48733309943716	30.258133757639783	2.15
C 	41.8821809954719	30.524215224351515	2.15
C 	42.34917163384069	31.86522967008873	2.15
C 	43.74401952987542	32.13131113680046	2.15
C 	44.211010168244215	33.47232558253768	2.15
C 	45.605858064278955	33.73840704924942	2.15
C 	46.07284870264775	35.07942149498664	2.15
C 	47.46769659868249	35.345502961698365	2.15
C 	47.93468723705127	36.68651740743559	2.15
C 	49.329535133086004	36.95259887414732	2.15
C 	49.796525771454796	38.293613319884535	2.15
C 	51.19137366748953	38.559694786596275	2.15
C 	51.65836430585832	39.9007092323335	2.15
C 	53.05321220189306	40.16679069904522	2.15
C 	53.520202840261845	41.507805144782445	2.15
C 	54.915050736296585	41.77388661149418	2.15
C 	55.38204137466537	43.11490105723139	2.15
C 	56.77688927070012	43.380982523943125	2.15
C 	57.2438799090689	44.721996969680355	2.15
C 	58.63872780510364	44.98807843639209	2.15
C 	59.105718443472426	46.3290928821293	2.15
C 	60.500566339507166	46.595174348841034	2.15
C 	2.7896957920694763	0.5321629334234577	2.15
C 	4.184543688104214	0.7982444001351866	2.15
C 	4.651534326473002	2.1392588458724098	2.15
C 	6.046382222507741	2.4053403125841384	2.15
C 	6.513372860876529	3.7463547583213614	2.15
C 	7.908220756911266	4.012436225033091	2.15
C 	8.375211395280054	5.353450670770314	2.15
C 	9.770059291314793	5.619532137482043	2.15
C 	10.23704992968358	6.960546583219265	2.15
C 	11.631897825718319	7.226628049930993	2.15
C 	12.098888464087107	8.567642495668219	2.15
C 	13.493736360121847	8.833723962379947	2.15
C 	13.960726998490633	10.17473840811717	2.15
C 	15.355574894525372	10.4408198748289	2.15
C 	15.82256553289416	11.781834320566121	2.15
C 	17.217413428928896	12.04791578727785	2.15
C 	17.684404067297685	13.388930233015072	2.15
C 	19.079251963332425	13.655011699726803	2.15
C 	19.546242601701213	14.996026145464024	2.15
C 	20.94109049773595	15.262107612175758	2.15
C 	21.408081136104737	16.603122057912977	2.15
C 	22.802929032139478	16.86920352462471	2.15
C 	23.269919670508266	18.210217970361928	2.15
C 	24.664767566543002	18.47629943707366	2.15
C 	25.13175820491179	19.81731388281088	2.15
C 	26.52660610094653	20.08339534952261	2.15
C 	26.99359673931532	21.424409795259834	2.15
C 	28.38844463535006	21.690491261971562	2.15
C 	28.855435273718847	23.031505707708785	2.15
C 	30.250283169753583	23.297587174420517	2.15
C 	30.71727380812237	24.638601620157736	2.15
C 	32.112121704157104	24.90468308686947	2.15
C 	32.579112342525896	26.24569753260669	2.15
C 	33.97396023856063	26.511778999318416	2.15
C 	34.44095087692942	27.85279344505564	2.15
C 	35.83579877296416	28.118874911767367	2.15
C 	36.30278941133295	29.459889357504593	2.15
C 	37.697637307367685	29.725970824216315	2.15
C 	38.16462794573648	31.06698526995354	2.15
C 	39.55947584177121	31.333066736665273	2.15
C 	40.02646648014	32.674081182402496	2.15
C 	41.421314376174735	32.94016264911423	2.15
C 	41.888305014543526	34.28117709485145	2.15
C 	43.28315291057826	34.547258561563176	2.15
C 	43.75014354894705	35.8882730073004	2.15
C 	45.14499144498179	36.15435447401213	2.15
C 	45.61198208335058	37.49536891974935	2.15
C 	47.00682997938532	37.761450386461085	2.15
C 	47.47382061775411	39.10246483219831	2.15
C 	48.86866851378885	39.36854629891003	2.15
C 	49.33565915215764	40.709560744647256	2.15
C 	50.73050704819237	40.97564221135898	2.15
C 	51.19749768656116	42.31665665709621	2.15
C 	52.592345582595904	42.582738123807935	2.15
C 	53.05933622096469	43.923752569545165	2.15
C 	54.45418411699942	44.18983403625688	2.15
C 	54.92117475536821	45.53084848199411	2.15
C 	56.31602265140295	45.79692994870584	2.15
C 	1.8618385344035264	1.607095912448952	2.15
C 	2.3288291727723145	2.948110358186175	2.15
C 	3.723677068807053	3.214191824897904	2.15
C 	4.190667707175841	4.555206270635127	2.15
C 	5.585515603210579	4.821287737346856	2.15
C 	6.052506241579367	6.162302183084079	2.15
C 	7.447354137614106	6.428383649795808	2.15
C 	7.914344775982894	7.769398095533031	2.15
C 	9.30919267201763	8.03547956224476	2.15
C 	9.77618331038642	9.376494007981982	2.15
C 	11.171031206421159	9.642575474693713	2.15
C 	11.638021844789947	10.983589920430935	2.15
C 	13.032869740824685	11.249671387142664	2.15
C 	13.499860379193473	12.590685832879887	2.15
C 	14.894708275228211	12.856767299591615	2.15
C 	15.361698913597	14.197781745328841	2.15
C 	16.756546809631736	14.463863212040568	2.15
C 	17.223537448000524	15.804877657777789	2.15
C 	18.61838534403526	16.07095912448952	2.15
C 	19.085375982404052	17.411973570226742	2.15
C 	20.48022387843879	17.678055036938474	2.15
C 	20.94721451680758	19.019069482675697	2.15
C 	22.342062412842317	19.285150949387425	2.15
C 	22.809053051211105	20.626165395124644	2.15
C 	24.20390094724584	20.892246861836373	2.15
C 	24.670891585614633	22.2332613075736	2.15
C 	26.06573948164937	22.499342774285328	2.15
C 	26.532730120018158	23.840357220022554	2.15
C 	27.927578016052895	24.10643868673428	2.15
C 	28.394568654421683	25.4474531324715	2.15
C 	29.789416550456423	25.71353459918323	2.15
C 	30.25640718882521	27.054549044920456	2.15
C 	31.65125508485995	27.32063051163219	2.15
C 	32.11824572322874	28.66164495736941	2.15
C 	33.51309361926347	28.927726424081136	2.15
C 	33.980084257632264	30.26874086981836	2.15
C 	35.374932153667	30.534822336530087	2.15
C 	35.84192279203579	31.875836782267314	2.15
C 	37.23677068807052	32.14191824897904	2.15
C 	37.70376132643931	33.48293269471626	2.15
C 	39.09860922247405	33.74901416142799	2.15
C 	39.56559986084284	35.090028607165216	2.15
C 	40.96044775687758	35.35611007387695	2.15
C 	41.42743839524637	36.69712451961417	2.15
C 	42.8222862912811	36.963205986325896	2.15
C 	43.289276929649894	38.30422043206312	2.15
C 	44.684124825684634	38.57030189877485	2.15
C 	45.15111546405342	39.91131634451207	2.15
C 	46.54596336008816	40.1773978112238	2.15
C 	47.01295399845695	41.51841225696103	2.15
C 	48.40780189449168	41.784493723672746	2.15
C 	48.874792532860475	43.125508169409976	2.15
C 	50.26964042889521	43.39158963612171	2.15
C 	50.736631067264	44.73260408185893	2.15
C 	52.13147896329874	44.998685548570656	2.15
C 	52.598469601667524	46.339699994307885	2.15
C 	53.99331749770226	46.60578146101961	2.15
C 	3.2628104495098915	5.630139249660622	2.15
C 	3.7298010878786796	6.971153695397844	2.15
C 	5.124648983913418	7.237235162109573	2.15
C 	5.591639622282207	8.578249607846796	2.15
C 	6.9864875183169435	8.844331074558525	2.15
C 	7.453478156685732	10.18534552029575	2.15
C 	8.84832605272047	10.451426987007476	2.15
C 	9.315316691089258	11.7924414327447	2.15
C 	10.710164587123998	12.05852289945643	2.15
C 	11.177155225492786	13.399537345193652	2.15
C 	12.572003121527523	13.66561881190538	2.15
C 	13.038993759896313	15.006633257642607	2.15
C 	14.43384165593105	15.272714724354332	2.15
C 	14.900832294299837	16.613729170091556	2.15
C 	16.295680190334576	16.879810636803285	2.15
C 	16.762670828703364	18.220825082540507	2.15
C 	18.1575187247381	18.486906549252236	2.15
C 	18.62450936310689	19.82792099498946	2.15
C 	20.01935725914163	20.09400246170119	2.15
C 	20.486347897510417	21.435016907438413	2.15
C 	21.881195793545153	21.70109837415014	2.15
C 	22.348186431913945	23.042112819887365	2.15
C 	23.74303432794868	23.30819428659909	2.15
C 	24.21002496631747	24.649208732336316	2.15
C 	25.60487286235221	24.915290199048044	2.15
C 	26.071863500720998	26.256304644785267	2.15
C 	27.466711396755734	26.522386111496996	2.15
C 	27.933702035124522	27.863400557234222	2.15
C 	29.328549931159262	28.12948202394595	2.15
C 	29.795540569528047	29.47049646968317	2.15
C 	31.190388465562787	29.736577936394905	2.15
C 	31.657379103931575	31.077592382132124	2.15
C 	33.052226999966315	31.343673848843853	2.15
C 	33.5192176383351	32.68468829458107	2.15
C 	34.91406553436984	32.95076976129281	2.15
C 	35.381056172738624	34.29178420703003	2.15
C 	36.775904068773364	34.55786567374176	2.15
C 	37.24289470714215	35.898880119478974	2.15
C 	38.63774260317689	36.164961586190714	2.15
C 	39.10473324154568	37.50597603192793	2.15
C 	40.49958113758042	37.77205749863966	2.15
C 	40.966571775949205	39.113071944376884	2.15
C 	42.361419671983946	39.379153411088616	2.15
C 	42.82841031035273	40.72016785682583	2.15
C 	44.22325820638747	40.986249323537564	2.15
C 	44.69024884475626	42.327263769274786	2.15
C 	46.085096740791	42.59334523598652	2.15
C 	46.55208737915979	43.93435968172374	2.15
C 	47.94693527519453	44.200441148435466	2.15
C 	48.41392591356331	45.54145559417269	2.15
C 	49.80877380959805	45.80753706088443	2.15
C 	6.525620899019783	11.260278499321243	2.15
C 	6.992611537388571	12.601292945058466	2.15
C 	8.387459433423308	12.867374411770195	2.15
C 	8.854450071792098	14.208388857507417	2.15
C 	10.249297967826836	14.474470324219146	2.15
C 	10.716288606195626	15.81548476995637	2.15
C 	12.111136502230362	16.081566236668102	2.15
C 	12.57812714059915	17.42258068240532	2.15
C 	13.972975036633887	17.68866214911705	2.15
C 	14.439965675002677	19.029676594854273	2.15
C 	15.834813571037415	19.295758061566005	2.15
C 	16.301804209406203	20.636772507303224	2.15
C 	17.69665210544094	20.902853974014953	2.15
C 	18.163642743809728	22.243868419752175	2.15
C 	19.558490639844464	22.509949886463907	2.15
C 	20.025481278213256	23.85096433220113	2.15
C 	21.420329174247996	24.11704579891286	2.15
C 	21.887319812616784	25.45806024465008	2.15
C 	23.282167708651517	25.724141711361806	2.15
C 	23.74915834702031	27.065156157099032	2.15
C 	25.144006243055046	27.33123762381076	2.15
C 	25.610996881423834	28.672252069547987	2.15
C 	27.005844777458574	28.938333536259716	2.15
C 	27.47283541582736	30.279347981996935	2.15
C 	28.8676833118621	30.545429448708664	2.15
C 	29.334673950230886	31.88644389444589	2.15
C 	30.729521846265627	32.15252536115762	2.15
C 	31.196512484634415	33.493539806894844	2.15
C 	32.59136038066915	33.75962127360657	2.15
C 	33.05835101903794	35.10063571934379	2.15
C 	34.453198915072676	35.366717186055524	2.15
C 	34.92018955344147	36.70773163179275	2.15
C 	36.3150374494762	36.97381309850447	2.15
C 	36.78202808784499	38.314827544241695	2.15
C 	38.176875983879725	38.58090901095343	2.15
C 	38.64386662224852	39.92192345669065	2.15
C 	40.03871451828326	40.18800492340238	2.15
C 	40.50570515665204	41.529019369139604	2.15
C 	41.90055305268678	41.79510083585133	2.15
C 	42.36754369105557	43.13611528158855	2.15
C 	43.762391587090306	43.40219674830028	2.15
C 	44.2293822254591	44.74321119403751	2.15
C 	45.62423012149384	45.00929266074923	2.15
C 	46.09122075986262	46.35030710648646	2.15
C 	47.48606865589736	46.61638857319818	2.15
C 	9.788431348529674	16.890417748981864	2.15
C 	10.255421986898464	18.231432194719087	2.15
C 	11.650269882933202	18.49751366143082	2.15
C 	12.117260521301988	19.838528107168038	2.15
C 	13.512108417336727	20.10460957387977	2.15
C 	13.979099055705515	21.44562401961699	2.15
C 	15.373946951740253	21.71170548632872	2.15
C 	15.84093759010904	23.05271993206594	2.15
C 	17.235785486143776	23.318801398777673	2.15
C 	17.702776124512564	24.659815844514892	2.15
C 	19.097624020547304	24.925897311226628	2.15
C 	19.564614658916092	26.266911756963847	2.15
C 	20.959462554950832	26.532993223675575	2.15
C 	21.42645319331962	27.874007669412798	2.15
C 	22.82130108935436	28.140089136124526	2.15
C 	23.28829172772315	29.481103581861753	2.15
C 	24.683139623757885	29.74718504857348	2.15
C 	25.150130262126673	31.088199494310707	2.15
C 	26.54497815816141	31.35428096102243	2.15
C 	27.0119687965302	32.695295406759655	2.15
C 	28.406816692564938	32.96137687347139	2.15
C 	28.873807330933726	34.30239131920861	2.15
C 	30.268655226968466	34.56847278592034	2.15
C 	30.735645865337254	35.909487231657565	2.15
C 	32.13049376137199	36.17556869836929	2.15
C 	32.59748439974078	37.51658314410651	2.15
C 	33.99233229577552	37.782664610818244	2.15
C 	34.4593229341443	39.12367905655547	2.15
C 	35.854170830179044	39.38976052326719	2.15
C 	36.321161468547835	40.730774969004415	2.15
C 	37.71600936458257	40.99685643571615	2.15
C 	38.18300000295135	42.33787088145337	2.15
C 	39.57784789898609	42.6039523481651	2.15
C 	40.044838537354885	43.944966793902324	2.15
C 	41.43968643338962	44.21104826061404	2.15
C 	41.90667707175841	45.55206270635127	2.15
C 	43.30152496779315	45.818144173063	2.15
C 	13.051241798039566	22.520556998642487	2.15
C 	13.518232436408352	23.861571444379706	2.15
C 	14.91308033244309	24.127652911091435	2.15
C 	15.38007097081188	25.46866735682866	2.15
C 	16.774918866846615	25.73474882354039	2.15
C 	17.241909505215403	27.07576326927761	2.15
C 	18.636757401250144	27.341844735989344	2.15
C 	19.10374803961893	28.682859181726563	2.15
C 	20.49859593565367	28.948940648438292	2.15
C 	20.96558657402246	30.289955094175518	2.15
C 	22.360434470057196	30.55603656088724	2.15
C 	22.827425108425984	31.897051006624466	2.15
C 	24.222273004460725	32.163132473336205	2.15
C 	24.689263642829513	33.50414691907342	2.15
C 	26.08411153886425	33.77022838578515	2.15
C 	26.551102177233037	35.111242831522375	2.15
C 	27.945950073267774	35.3773242982341	2.15
C 	28.412940711636566	36.71833874397132	2.15
C 	29.807788607671306	36.98442021068306	2.15
C 	30.27477924604009	38.32543465642028	2.15
C 	31.66962714207483	38.59151612313201	2.15
C 	32.136617780443615	39.932530568869225	2.15
C 	33.531465676478355	40.19861203558096	2.15
C 	33.99845631484715	41.53962648131818	2.15
C 	35.39330421088188	41.805707948029905	2.15
C 	35.86029484925067	43.14672239376713	2.15
C 	37.25514274528541	43.41280386047887	2.15
C 	37.722133383654196	44.75381830621608	2.15
C 	39.11698127968893	45.019899772927815	2.15
C 	39.58397191805772	46.36091421866504	2.15
C 	40.978819814092454	46.62699568537676	2.15
C 	16.314052247549455	28.150696248303102	2.15
C 	16.781042885918243	29.49171069404033	2.15
C 	18.175890781952983	29.757792160752057	2.15
C 	18.64288142032177	31.098806606489283	2.15
C 	20.037729316356508	31.364888073201005	2.15
C 	20.5047199547253	32.70590251893823	2.15
C 	21.899567850760036	32.97198398564996	2.15
C 	22.366558489128828	34.312998431387186	2.15
C 	23.761406385163564	34.57907989809892	2.15
C 	24.228397023532352	35.92009434383614	2.15
C 	25.62324491956709	36.186175810547866	2.15
C 	26.090235557935877	37.52719025628509	2.15
C 	27.485083453970613	37.79327172299682	2.15
C 	27.9520740923394	39.13428616873404	2.15
C 	29.34692198837414	39.400367635445775	2.15
C 	29.81391262674293	40.741382081183	2.15
C 	31.208760522777666	41.00746354789472	2.15
C 	31.675751161146458	42.348477993631946	2.15
C 	33.07059905718119	42.61455946034368	2.15
C 	33.53758969554998	43.9555739060809	2.15
C 	34.932437591584716	44.221655372792625	2.15
C 	35.39942822995351	45.56266981852985	2.15
C 	36.79427612598825	45.82875128524157	2.15
C 	19.576862697059347	33.78083549796373	2.15
C 	20.043853335428135	35.12184994370095	2.15
C 	21.438701231462876	35.38793141041268	2.15
C 	21.905691869831664	36.728945856149906	2.15
C 	23.300539765866404	36.99502732286164	2.15
C 	23.76753040423519	38.336041768598854	2.15
C 	25.162378300269925	38.602123235310586	2.15
C 	25.629368938638713	39.94313768104781	2.15
C 	27.024216834673453	40.20921914775954	2.15
C 	27.49120747304224	41.55023359349676	2.15
C 	28.88605536907698	41.816315060208495	2.15
C 	29.35304600744577	43.15732950594571	2.15
C 	30.747893903480506	43.42341097265744	2.15
C 	31.21488454184929	44.76442541839466	2.15
C 	32.609732437884034	45.0305068851064	2.15
C 	33.07672307625282	46.37152133084362	2.15
C 	34.47157097228755	46.637602797555346	2.15
C 	22.83967314656924	39.41097474762436	2.15
C 	23.306663784938028	40.751989193361574	2.15
C 	24.701511680972768	41.018070660073306	2.15
C 	25.168502319341556	42.35908510581053	2.15
C 	26.56335021537629	42.625166572522254	2.15
C 	27.03034085374508	43.966181018259476	2.15
C 	28.42518874977982	44.23226248497121	2.15
C 	28.892179388148605	45.57327693070843	2.15
C 	30.287027284183345	45.83935839742016	2.15
C 	26.102483596079132	45.041113997284974	2.15
C 	26.56947423444792	46.3821284430222	2.15
C 	27.964322130482657	46.64820990973393	2.15
H 	50.304678193459424	-1.3803086076992157	2.15
H 	52.77021919278843	-0.9099815080890459	2.15
H 	54.63205772719195	0.697114404359903	2.15
H 	56.493896261595474	2.304210316808854	2.15
H 	58.35573479599901	3.9113062292578102	2.15
H 	59.181190079312856	6.281690918553894	2.15
H 	47.98197303975873	-0.5714570953854483	2.15
H 	59.75670671110539	7.93434956646949	2.15
H 	60.582161994419224	10.304734255765554	2.15
H 	43.79742935165451	-1.3697014955206341	2.15
H 	46.26297035098354	-0.8993743959104649	2.15
H 	61.157678626211734	11.957392903681145	2.15
H 	63.019517160615266	13.564488816130101	2.15
H 	63.8449724439291	15.934873505426186	2.15
H 	41.47472419795384	-0.5608499832068666	2.15
H 	64.42048907572163	17.58753215334178	2.15
H 	66.28232761012514	19.194628065790717	2.15
H 	67.107782893439	21.56501275508681	2.15
H 	37.29018050984962	-1.359094383342054	2.15
H 	39.75572150917863	-0.8887672837318904	2.15
H 	67.68329952523152	23.21767140300238	2.15
H 	69.54513805963502	24.82476731545134	2.15
H 	70.3705933429489	27.19515200474743	2.15
H 	34.96747535614892	-0.5502428710282856	2.15
H 	70.94610997474142	28.84781065266302	2.15
H 	72.80794850914494	30.45490656511196	2.15
H 	73.63340379245878	32.82529125440804	2.15
H 	30.782931668044725	-1.348487271163475	2.15
H 	33.248472667373726	-0.8781601715533056	2.15
H 	74.2089204242513	34.477949902323644	2.15
H 	76.0707589586548	36.08504581477258	2.15
H 	76.89621424196868	38.45543050406868	2.15
H 	28.46022651434403	-0.5396357588497152	2.15
H 	77.47173087376116	40.10808915198423	2.15
H 	78.29718615707505	42.478473841280326	2.15
H 	24.275682826239812	-1.3378801589848974	2.15
H 	26.74122382556882	-0.867553059374731	2.15
H 	77.83631953777788	44.89442126604303	2.15
H 	21.952977672539134	-0.5290286466711376	2.15
H 	76.19623382176272	46.794478855728954	2.15
H 	17.768433984434907	-1.327273046806319	2.15
H 	20.233974983763922	-0.8569459471961527	2.15
H 	71.40798766873301	47.13300326843257	2.15
H 	73.87352866806201	47.603330368042734	2.15
H 	15.445728830734227	-0.5184215344925535	2.15
H 	69.68898497995782	46.80508596790754	2.15
H 	11.261185142630005	-1.3166659346277405	2.15
H 	13.726726141959018	-0.8463388350175726	2.15
H 	64.90073882692812	47.14361038061115	2.15
H 	67.36627982625713	47.6139374802213	2.15
H 	8.938479988929322	-0.5078144223139754	2.15
H 	63.18173613815292	46.815693080086106	2.15
H 	4.753936300825108	-1.306058822449162	2.15
H 	7.219477300154116	-0.8357317228389939	2.15
H 	58.3934899851232	47.15421749278971	2.15
H 	60.85903098445222	47.62454459239989	2.15
H 	2.4312311471244206	-0.49720731013539665	2.15
H 	56.674487296348005	46.82630019226469	2.15
H 	0.7911454311092556	1.402850279550512	2.15
H 	1.6166007144230994	3.77323496884659	2.15
H 	51.886241143318315	47.1648246049683	2.15
H 	54.35178214264731	47.63515170457847	2.15
H 	2.1921173462156207	5.425893616762184	2.15
H 	3.0175726295294645	7.796278306058259	2.15
H 	4.879411163932993	9.403374218507212	2.15
H 	50.16723845454311	46.83690730444328	2.15
H 	5.454927795725512	11.056032866422804	2.15
H 	6.280383079039357	13.426417555718881	2.15
H 	8.142221613442883	15.033513468167833	2.15
H 	45.37899230151342	47.175431717146886	2.15
H 	47.844533300842414	47.64575881675703	2.15
H 	8.717738245235402	16.686172116083423	2.15
H 	9.543193528549248	19.0565568053795	2.15
H 	11.40503206295277	20.66365271782845	2.15
H 	43.6599896127382	46.84751441662185	2.15
H 	11.980548694745295	22.316311365744056	2.15
H 	12.806003978059135	24.68669605504012	2.15
H 	14.667842512462668	26.293791967489078	2.15
H 	38.87174345970851	47.186038829325454	2.15
H 	41.337284459037505	47.656365928935614	2.15
H 	15.243359144255185	27.94645061540466	2.15
H 	16.068814427569027	30.316835304700742	2.15
H 	17.930652961972562	31.9239312171497	2.15
H 	37.15274077093331	46.858121528800424	2.15
H 	18.506169593765076	33.576589865065294	2.15
H 	19.331624877078916	35.94697455436136	2.15
H 	21.193463411482448	37.55407046681032	2.15
H 	32.36449461790361	47.19664594150404	2.15
H 	34.830035617232596	47.666973041114204	2.15
H 	21.768980043274965	39.20672911472593	2.15
H 	22.59443532658881	41.577113804021984	2.15
H 	24.45627386099234	43.184209716470946	2.15
H 	30.645491929128408	46.868728640979015	2.15
H 	25.03179049278486	44.83686836438654	2.15
H 	25.857245776098704	47.207253053682614	2.15
H 	28.32278677542771	47.67758015329279	2.15
