2334

C 	0.0	0.0	0.0
C 	1.2297560733739028	0.7099999999999999	0.0
C 	2.4595121467478056	-2.3647750424515833e-16	0.0
C 	3.689268220121708	0.7099999999999995	0.0
C 	4.919024293495611	-4.729550084903167e-16	0.0
C 	6.148780366869514	0.7099999999999993	0.0
C 	7.378536440243416	-7.09432512735475e-16	0.0
C 	8.60829251361732	0.7099999999999991	0.0
C 	9.838048586991222	-9.459100169806333e-16	0.0
C 	11.067804660365125	0.7099999999999989	0.0
C 	12.297560733739026	-1.1823875212257916e-15	0.0
C 	13.527316807112928	0.7099999999999986	0.0
C 	14.757072880486833	-1.41886502547095e-15	0.0
C 	15.986828953860735	0.7099999999999984	0.0
C 	17.21658502723464	-7.671641100159832e-16	0.0
C 	18.44634110060854	0.7099999999999982	0.0
C 	19.676097173982445	-1.8918200339612667e-15	0.0
C 	20.905853247356347	0.7099999999999989	0.0
C 	22.135609320730246	-2.128297538206425e-15	0.0
C 	23.36536539410415	0.7099999999999967	0.0
C 	24.59512146747805	-2.364775042451583e-15	0.0
C 	25.824877540851954	0.7099999999999983	0.0
C 	27.05463361422586	-8.248957072964913e-16	0.0
C 	28.284389687599763	0.7099999999999999	0.0
C 	29.514145760973665	-2.8377300509419e-15	0.0
C 	30.743901834347565	0.7099999999999961	0.0
C 	31.97365790772147	-3.0742075551870582e-15	0.0
C 	33.20341398109537	0.7099999999999976	0.0
C 	34.43317005446928	-1.5343282200319664e-15	0.0
C 	35.66292612784318	0.7099999999999992	0.0
C 	36.892682201217085	-1.7708057242771246e-15	0.0
C 	38.122438274590984	0.7099999999999972	0.0
C 	39.35219434796489	-3.783640067922533e-15	0.0
C 	40.58195042133879	0.7099999999999969	0.0
C 	41.811706494712695	-4.67403893367191e-16	0.0
C 	43.0414625680866	0.7100000000000002	0.0
C 	44.27121864146049	-4.25659507641285e-15	0.0
C 	45.5009747148344	0.7099999999999964	0.0
C 	46.730730788208305	-9.403589018575075e-16	0.0
C 	47.96048686158221	0.7099999999999997	0.0
C 	49.1902429349561	-4.729550084903166e-15	0.0
C 	50.41999900833001	0.709999999999996	0.0
C 	51.64975508170391	-1.413313910347824e-15	0.0
C 	52.879511155077815	0.7099999999999993	0.0
C 	54.10926722845172	-1.6497914145929826e-15	0.0
C 	55.33902330182562	0.7099999999999991	0.0
C 	56.56877937519952	-5.438982597638641e-15	0.0
C 	57.798535448573425	0.7099999999999953	0.0
C 	59.02829152194733	-5.6754601018838e-15	0.0
C 	60.25804759532124	0.709999999999995	0.0
C 	1.2297560733739028	2.1299999999999994	0.0
C 	2.4595121467478056	2.8399999999999994	0.0
C 	3.689268220121708	2.1299999999999994	0.0
C 	4.919024293495611	2.8399999999999994	0.0
C 	6.148780366869514	2.129999999999999	0.0
C 	7.378536440243416	2.839999999999999	0.0
C 	8.60829251361732	2.1299999999999986	0.0
C 	9.838048586991222	2.8399999999999985	0.0
C 	11.067804660365123	2.129999999999998	0.0
C 	12.297560733739028	2.839999999999999	0.0
C 	13.527316807112928	2.1299999999999977	0.0
C 	14.757072880486833	2.839999999999998	0.0
C 	15.986828953860735	2.129999999999998	0.0
C 	17.216585027234636	2.839999999999997	0.0
C 	18.446341100608542	2.129999999999998	0.0
C 	19.676097173982445	2.8399999999999985	0.0
C 	20.905853247356344	2.1299999999999977	0.0
C 	22.13560932073025	2.8399999999999985	0.0
C 	23.36536539410415	2.129999999999997	0.0
C 	24.595121467478055	2.839999999999997	0.0
C 	25.824877540851954	2.1299999999999963	0.0
C 	27.05463361422586	2.839999999999997	0.0
C 	28.284389687599763	2.129999999999998	0.0
C 	29.514145760973665	2.8399999999999985	0.0
C 	30.743901834347568	2.129999999999996	0.0
C 	31.97365790772147	2.8399999999999967	0.0
C 	33.20341398109537	2.129999999999996	0.0
C 	34.43317005446928	2.8399999999999963	0.0
C 	35.66292612784318	2.1299999999999972	0.0
C 	36.89268220121708	2.8399999999999963	0.0
C 	38.122438274590984	2.129999999999997	0.0
C 	39.35219434796489	2.8399999999999976	0.0
C 	40.58195042133879	2.1299999999999986	0.0
C 	41.81170649471269	2.839999999999996	0.0
C 	43.0414625680866	2.129999999999998	0.0
C 	44.2712186414605	2.8399999999999954	0.0
C 	45.5009747148344	2.129999999999998	0.0
C 	46.7307307882083	2.8399999999999954	0.0
C 	47.96048686158221	2.1299999999999977	0.0
C 	49.19024293495611	2.839999999999995	0.0
C 	50.41999900833001	2.1299999999999977	0.0
C 	51.64975508170391	2.8399999999999945	0.0
C 	52.879511155077815	2.1299999999999972	0.0
C 	54.10926722845171	2.8399999999999945	0.0
C 	55.33902330182563	2.130000000000001	0.0
C 	56.56877937519952	2.8399999999999976	0.0
C 	57.798535448573425	2.129999999999997	0.0
C 	59.028291521947324	2.839999999999994	0.0
C 	60.25804759532124	2.129999999999997	0.0
C 	61.487803668695136	2.8399999999999936	0.0
C 	2.4595121467478056	4.259999999999999	0.0
C 	3.689268220121708	4.969999999999999	0.0
C 	4.919024293495611	4.259999999999999	0.0
C 	6.148780366869514	4.969999999999999	0.0
C 	7.378536440243416	4.259999999999999	0.0
C 	8.60829251361732	4.969999999999999	0.0
C 	9.83804858699122	4.259999999999998	0.0
C 	11.067804660365125	4.969999999999999	0.0
C 	12.297560733739028	4.259999999999998	0.0
C 	13.52731680711293	4.969999999999998	0.0
C 	14.757072880486831	4.259999999999998	0.0
C 	15.986828953860735	4.969999999999998	0.0
C 	17.21658502723464	4.259999999999997	0.0
C 	18.446341100608542	4.969999999999998	0.0
C 	19.676097173982445	4.259999999999999	0.0
C 	20.905853247356347	4.969999999999997	0.0
C 	22.135609320730246	4.259999999999996	0.0
C 	23.365365394104153	4.969999999999997	0.0
C 	24.595121467478055	4.259999999999998	0.0
C 	25.824877540851958	4.969999999999997	0.0
C 	27.054633614225857	4.259999999999995	0.0
C 	28.28438968759976	4.969999999999996	0.0
C 	29.514145760973665	4.259999999999997	0.0
C 	30.743901834347568	4.969999999999997	0.0
C 	31.97365790772147	4.259999999999996	0.0
C 	33.20341398109537	4.969999999999995	0.0
C 	34.43317005446927	4.2599999999999945	0.0
C 	35.66292612784318	4.969999999999995	0.0
C 	36.892682201217085	4.259999999999996	0.0
C 	38.122438274590984	4.969999999999997	0.0
C 	39.35219434796489	4.259999999999997	0.0
C 	40.58195042133879	4.969999999999994	0.0
C 	41.81170649471269	4.259999999999995	0.0
C 	43.041462568086594	4.969999999999996	0.0
C 	44.2712186414605	4.259999999999997	0.0
C 	45.500974714834406	4.969999999999998	0.0
C 	46.7307307882083	4.259999999999994	0.0
C 	47.960486861582204	4.9699999999999935	0.0
C 	49.19024293495611	4.259999999999996	0.0
C 	50.41999900833001	4.969999999999997	0.0
C 	51.64975508170391	4.259999999999993	0.0
C 	52.879511155077815	4.9699999999999935	0.0
C 	54.10926722845171	4.259999999999996	0.0
C 	55.33902330182562	4.969999999999997	0.0
C 	56.568779375199526	4.259999999999996	0.0
C 	57.798535448573425	4.969999999999996	0.0
C 	59.028291521947324	4.259999999999995	0.0
C 	60.25804759532123	4.969999999999996	0.0
C 	61.487803668695136	4.259999999999992	0.0
C 	62.717559742069035	4.969999999999993	0.0
C 	3.6892682201217086	6.389999999999999	0.0
C 	4.919024293495611	7.099999999999999	0.0
C 	6.148780366869514	6.389999999999999	0.0
C 	7.378536440243416	7.099999999999999	0.0
C 	8.608292513617318	6.389999999999998	0.0
C 	9.838048586991222	7.099999999999999	0.0
C 	11.067804660365125	6.389999999999998	0.0
C 	12.297560733739028	7.099999999999998	0.0
C 	13.52731680711293	6.389999999999999	0.0
C 	14.757072880486833	7.099999999999998	0.0
C 	15.986828953860735	6.389999999999998	0.0
C 	17.216585027234636	7.099999999999997	0.0
C 	18.44634110060854	6.389999999999997	0.0
C 	19.676097173982445	7.099999999999998	0.0
C 	20.905853247356347	6.389999999999998	0.0
C 	22.13560932073025	7.099999999999997	0.0
C 	23.365365394104153	6.389999999999998	0.0
C 	24.59512146747805	7.099999999999997	0.0
C 	25.824877540851958	6.389999999999998	0.0
C 	27.054633614225857	7.099999999999997	0.0
C 	28.28438968759976	6.389999999999999	0.0
C 	29.514145760973662	7.099999999999997	0.0
C 	30.743901834347568	6.389999999999999	0.0
C 	31.97365790772147	7.099999999999998	0.0
C 	33.20341398109537	6.389999999999995	0.0
C 	34.43317005446928	7.099999999999994	0.0
C 	35.66292612784318	6.389999999999995	0.0
C 	36.892682201217085	7.099999999999996	0.0
C 	38.122438274590984	6.389999999999996	0.0
C 	39.35219434796489	7.099999999999997	0.0
C 	40.58195042133879	6.389999999999994	0.0
C 	41.811706494712695	7.099999999999995	0.0
C 	43.041462568086594	6.389999999999996	0.0
C 	44.2712186414605	7.099999999999997	0.0
C 	45.500974714834406	6.389999999999998	0.0
C 	46.730730788208305	7.099999999999998	0.0
C 	47.960486861582204	6.389999999999995	0.0
C 	49.19024293495611	7.099999999999996	0.0
C 	50.41999900833001	6.389999999999995	0.0
C 	51.649755081703915	7.099999999999996	0.0
C 	52.879511155077815	6.389999999999995	0.0
C 	54.10926722845172	7.099999999999996	0.0
C 	55.33902330182562	6.389999999999995	0.0
C 	56.568779375199526	7.099999999999995	0.0
C 	57.79853544857343	6.389999999999998	0.0
C 	59.02829152194733	7.099999999999999	0.0
C 	60.25804759532123	6.389999999999994	0.0
C 	61.487803668695136	7.099999999999995	0.0
C 	62.71755974206904	6.389999999999994	0.0
C 	63.94731581544294	7.099999999999995	0.0
C 	4.919024293495611	8.519999999999998	0.0
C 	6.148780366869514	9.229999999999999	0.0
C 	7.378536440243416	8.519999999999998	0.0
C 	8.60829251361732	9.229999999999999	0.0
C 	9.838048586991222	8.519999999999998	0.0
C 	11.067804660365125	9.229999999999999	0.0
C 	12.297560733739028	8.519999999999998	0.0
C 	13.52731680711293	9.229999999999997	0.0
C 	14.757072880486833	8.519999999999998	0.0
C 	15.986828953860737	9.229999999999999	0.0
C 	17.216585027234636	8.519999999999998	0.0
C 	18.44634110060854	9.229999999999997	0.0
C 	19.67609717398244	8.519999999999996	0.0
C 	20.905853247356347	9.229999999999997	0.0
C 	22.13560932073025	8.519999999999998	0.0
C 	23.365365394104153	9.229999999999999	0.0
C 	24.595121467478055	8.519999999999996	0.0
C 	25.824877540851954	9.229999999999995	0.0
C 	27.05463361422586	8.519999999999996	0.0
C 	28.284389687599763	9.229999999999997	0.0
C 	29.514145760973662	8.519999999999996	0.0
C 	30.743901834347565	9.229999999999995	0.0
C 	31.97365790772147	8.52	0.0
C 	33.20341398109537	9.229999999999997	0.0
C 	34.43317005446928	8.519999999999994	0.0
C 	35.66292612784318	9.229999999999995	0.0
C 	36.89268220121708	8.519999999999992	0.0
C 	38.122438274590984	9.229999999999993	0.0
C 	39.35219434796489	8.519999999999998	0.0
C 	40.58195042133879	9.229999999999995	0.0
C 	41.811706494712695	8.519999999999994	0.0
C 	43.0414625680866	9.229999999999995	0.0
C 	44.27121864146049	8.519999999999992	0.0
C 	45.5009747148344	9.229999999999993	0.0
C 	46.730730788208305	8.519999999999998	0.0
C 	47.960486861582204	9.229999999999995	0.0
C 	49.19024293495611	8.519999999999996	0.0
C 	50.41999900833001	9.229999999999993	0.0
C 	51.64975508170391	8.519999999999994	0.0
C 	52.879511155077815	9.229999999999995	0.0
C 	54.10926722845171	8.51999999999999	0.0
C 	55.33902330182562	9.229999999999992	0.0
C 	56.568779375199526	8.519999999999998	0.0
C 	57.798535448573425	9.229999999999995	0.0
C 	59.02829152194733	8.519999999999994	0.0
C 	60.25804759532123	9.229999999999993	0.0
C 	61.48780366869513	8.519999999999992	0.0
C 	62.717559742069035	9.229999999999993	0.0
C 	63.94731581544294	8.519999999999992	0.0
C 	65.17707188881684	9.22999999999999	0.0
C 	6.148780366869514	10.649999999999997	0.0
C 	7.378536440243416	11.359999999999998	0.0
C 	8.608292513617318	10.649999999999997	0.0
C 	9.838048586991222	11.359999999999998	0.0
C 	11.067804660365125	10.649999999999997	0.0
C 	12.297560733739028	11.359999999999996	0.0
C 	13.52731680711293	10.649999999999997	0.0
C 	14.757072880486831	11.359999999999996	0.0
C 	15.986828953860735	10.649999999999997	0.0
C 	17.216585027234636	11.359999999999996	0.0
C 	18.44634110060854	10.649999999999997	0.0
C 	19.676097173982445	11.359999999999998	0.0
C 	20.905853247356347	10.649999999999997	0.0
C 	22.13560932073025	11.359999999999996	0.0
C 	23.365365394104153	10.649999999999997	0.0
C 	24.595121467478055	11.359999999999996	0.0
C 	25.824877540851958	10.649999999999997	0.0
C 	27.05463361422586	11.359999999999996	0.0
C 	28.284389687599763	10.649999999999995	0.0
C 	29.514145760973662	11.359999999999994	0.0
C 	30.743901834347565	10.649999999999995	0.0
C 	31.97365790772147	11.359999999999996	0.0
C 	33.20341398109537	10.649999999999997	0.0
C 	34.43317005446928	11.359999999999998	0.0
C 	35.66292612784318	10.649999999999991	0.0
C 	36.89268220121708	11.359999999999992	0.0
C 	38.122438274590984	10.649999999999993	0.0
C 	39.35219434796489	11.359999999999994	0.0
C 	40.58195042133879	10.649999999999993	0.0
C 	41.811706494712695	11.359999999999994	0.0
C 	43.041462568086594	10.649999999999991	0.0
C 	44.2712186414605	11.359999999999992	0.0
C 	45.5009747148344	10.649999999999993	0.0
C 	46.730730788208305	11.359999999999994	0.0
C 	47.960486861582204	10.649999999999995	0.0
C 	49.19024293495611	11.359999999999996	0.0
C 	50.41999900833001	10.649999999999993	0.0
C 	51.649755081703915	11.359999999999994	0.0
C 	52.879511155077815	10.649999999999995	0.0
C 	54.10926722845172	11.359999999999996	0.0
C 	55.33902330182562	10.649999999999993	0.0
C 	56.568779375199526	11.359999999999994	0.0
C 	57.798535448573425	10.649999999999993	0.0
C 	59.02829152194733	11.359999999999992	0.0
C 	60.25804759532124	10.649999999999995	0.0
C 	61.487803668695136	11.359999999999996	0.0
C 	62.717559742069035	10.649999999999991	0.0
C 	63.94731581544294	11.359999999999992	0.0
C 	65.17707188881684	10.649999999999991	0.0
C 	66.40682796219075	11.359999999999992	0.0
C 	7.378536440243417	12.779999999999998	0.0
C 	8.60829251361732	13.489999999999998	0.0
C 	9.838048586991222	12.78	0.0
C 	11.067804660365125	13.489999999999997	0.0
C 	12.297560733739028	12.779999999999998	0.0
C 	13.527316807112932	13.489999999999998	0.0
C 	14.757072880486833	12.779999999999998	0.0
C 	15.986828953860737	13.489999999999997	0.0
C 	17.216585027234636	12.779999999999996	0.0
C 	18.446341100608542	13.489999999999997	0.0
C 	19.676097173982445	12.779999999999998	0.0
C 	20.905853247356347	13.489999999999997	0.0
C 	22.13560932073025	12.779999999999996	0.0
C 	23.36536539410415	13.489999999999995	0.0
C 	24.595121467478055	12.779999999999996	0.0
C 	25.824877540851958	13.489999999999997	0.0
C 	27.05463361422586	12.779999999999998	0.0
C 	28.284389687599763	13.489999999999997	0.0
C 	29.514145760973662	12.779999999999996	0.0
C 	30.743901834347568	13.489999999999997	0.0
C 	31.97365790772147	12.779999999999996	0.0
C 	33.20341398109537	13.489999999999997	0.0
C 	34.43317005446928	12.779999999999998	0.0
C 	35.66292612784318	13.489999999999995	0.0
C 	36.89268220121708	12.779999999999994	0.0
C 	38.122438274590984	13.489999999999995	0.0
C 	39.35219434796489	12.779999999999996	0.0
C 	40.581950421338796	13.489999999999997	0.0
C 	41.811706494712695	12.779999999999996	0.0
C 	43.041462568086594	13.489999999999993	0.0
C 	44.2712186414605	12.779999999999994	0.0
C 	45.5009747148344	13.489999999999995	0.0
C 	46.730730788208305	12.779999999999996	0.0
C 	47.96048686158221	13.489999999999997	0.0
C 	49.19024293495611	12.779999999999998	0.0
C 	50.41999900833001	13.489999999999995	0.0
C 	51.649755081703915	12.779999999999996	0.0
C 	52.879511155077815	13.489999999999993	0.0
C 	54.10926722845172	12.779999999999998	0.0
C 	55.33902330182563	13.489999999999998	0.0
C 	56.56877937519952	12.779999999999998	0.0
C 	57.798535448573425	13.489999999999997	0.0
C 	59.02829152194733	12.779999999999994	0.0
C 	60.25804759532123	13.489999999999991	0.0
C 	61.487803668695136	12.779999999999998	0.0
C 	62.71755974206904	13.489999999999998	0.0
C 	63.94731581544294	12.779999999999994	0.0
C 	65.17707188881684	13.489999999999995	0.0
C 	66.40682796219075	12.77999999999999	0.0
C 	67.63658403556465	13.489999999999988	0.0
C 	8.60829251361732	14.909999999999998	0.0
C 	9.838048586991222	15.619999999999996	0.0
C 	11.067804660365125	14.909999999999997	0.0
C 	12.297560733739026	15.619999999999996	0.0
C 	13.527316807112934	14.909999999999998	0.0
C 	14.757072880486831	15.619999999999996	0.0
C 	15.986828953860737	14.909999999999998	0.0
C 	17.21658502723464	15.619999999999997	0.0
C 	18.446341100608542	14.909999999999997	0.0
C 	19.676097173982445	15.619999999999996	0.0
C 	20.905853247356347	14.909999999999997	0.0
C 	22.135609320730246	15.619999999999996	0.0
C 	23.365365394104153	14.909999999999995	0.0
C 	24.595121467478055	15.619999999999996	0.0
C 	25.824877540851958	14.909999999999997	0.0
C 	27.05463361422586	15.619999999999996	0.0
C 	28.284389687599763	14.909999999999997	0.0
C 	29.514145760973665	15.619999999999996	0.0
C 	30.743901834347568	14.909999999999997	0.0
C 	31.973657907721474	15.619999999999997	0.0
C 	33.203413981095366	14.909999999999993	0.0
C 	34.43317005446927	15.619999999999994	0.0
C 	35.662926127843185	14.909999999999998	0.0
C 	36.892682201217085	15.619999999999996	0.0
C 	38.122438274590984	14.909999999999995	0.0
C 	39.35219434796489	15.619999999999996	0.0
C 	40.58195042133879	14.909999999999993	0.0
C 	41.811706494712695	15.619999999999994	0.0
C 	43.0414625680866	14.909999999999998	0.0
C 	44.2712186414605	15.619999999999996	0.0
C 	45.5009747148344	14.909999999999995	0.0
C 	46.730730788208305	15.619999999999996	0.0
C 	47.960486861582204	14.909999999999993	0.0
C 	49.19024293495611	15.619999999999994	0.0
C 	50.41999900833002	14.909999999999998	0.0
C 	51.649755081703915	15.619999999999996	0.0
C 	52.87951115507782	14.909999999999997	0.0
C 	54.10926722845171	15.619999999999994	0.0
C 	55.33902330182562	14.909999999999995	0.0
C 	56.568779375199526	15.619999999999994	0.0
C 	57.798535448573425	14.909999999999991	0.0
C 	59.028291521947324	15.619999999999992	0.0
C 	60.25804759532124	14.909999999999998	0.0
C 	61.487803668695136	15.619999999999996	0.0
C 	62.717559742069035	14.909999999999993	0.0
C 	63.94731581544294	15.619999999999994	0.0
C 	65.17707188881684	14.909999999999993	0.0
C 	66.40682796219075	15.619999999999994	0.0
C 	67.63658403556465	14.909999999999997	0.0
C 	68.86634010893854	15.61999999999999	0.0
C 	9.838048586991222	17.039999999999996	0.0
C 	11.067804660365127	17.749999999999996	0.0
C 	12.297560733739028	17.039999999999996	0.0
C 	13.527316807112932	17.749999999999996	0.0
C 	14.757072880486833	17.039999999999996	0.0
C 	15.986828953860735	17.749999999999996	0.0
C 	17.21658502723464	17.039999999999996	0.0
C 	18.446341100608546	17.749999999999996	0.0
C 	19.676097173982445	17.039999999999996	0.0
C 	20.905853247356347	17.749999999999996	0.0
C 	22.13560932073025	17.039999999999996	0.0
C 	23.365365394104153	17.749999999999996	0.0
C 	24.595121467478055	17.039999999999996	0.0
C 	25.82487754085196	17.749999999999996	0.0
C 	27.05463361422586	17.039999999999996	0.0
C 	28.28438968759977	17.75	0.0
C 	29.514145760973665	17.039999999999996	0.0
C 	30.74390183434757	17.749999999999996	0.0
C 	31.973657907721467	17.039999999999992	0.0
C 	33.20341398109537	17.749999999999993	0.0
C 	34.43317005446927	17.039999999999996	0.0
C 	35.66292612784318	17.749999999999996	0.0
C 	36.892682201217085	17.039999999999996	0.0
C 	38.122438274590984	17.749999999999996	0.0
C 	39.35219434796488	17.039999999999992	0.0
C 	40.58195042133879	17.749999999999993	0.0
C 	41.811706494712695	17.039999999999992	0.0
C 	43.041462568086594	17.749999999999993	0.0
C 	44.2712186414605	17.039999999999996	0.0
C 	45.500974714834406	17.749999999999996	0.0
C 	46.7307307882083	17.039999999999992	0.0
C 	47.960486861582204	17.749999999999993	0.0
C 	49.19024293495611	17.039999999999992	0.0
C 	50.41999900833002	17.749999999999993	0.0
C 	51.649755081703915	17.039999999999996	0.0
C 	52.87951115507782	17.749999999999996	0.0
C 	54.10926722845172	17.039999999999992	0.0
C 	55.33902330182562	17.749999999999993	0.0
C 	56.568779375199526	17.039999999999996	0.0
C 	57.79853544857343	17.749999999999996	0.0
C 	59.028291521947324	17.039999999999992	0.0
C 	60.25804759532123	17.749999999999993	0.0
C 	61.487803668695136	17.039999999999996	0.0
C 	62.71755974206904	17.749999999999996	0.0
C 	63.94731581544294	17.04	0.0
C 	65.17707188881684	17.749999999999993	0.0
C 	66.40682796219075	17.039999999999996	0.0
C 	67.63658403556464	17.74999999999999	0.0
C 	68.86634010893856	17.03999999999999	0.0
C 	70.09609618231246	17.74999999999999	0.0
C 	11.067804660365125	19.169999999999995	0.0
C 	12.297560733739026	19.879999999999995	0.0
C 	13.52731680711293	19.169999999999995	0.0
C 	14.757072880486831	19.879999999999995	0.0
C 	15.986828953860737	19.169999999999998	0.0
C 	17.216585027234636	19.879999999999992	0.0
C 	18.446341100608542	19.169999999999995	0.0
C 	19.676097173982445	19.879999999999995	0.0
C 	20.905853247356347	19.169999999999995	0.0
C 	22.135609320730246	19.879999999999995	0.0
C 	23.365365394104153	19.169999999999995	0.0
C 	24.59512146747805	19.879999999999995	0.0
C 	25.824877540851958	19.169999999999995	0.0
C 	27.05463361422586	19.879999999999995	0.0
C 	28.284389687599763	19.169999999999995	0.0
C 	29.51414576097367	19.879999999999995	0.0
C 	30.743901834347565	19.16999999999999	0.0
C 	31.97365790772147	19.879999999999992	0.0
C 	33.20341398109537	19.169999999999995	0.0
C 	34.43317005446927	19.879999999999992	0.0
C 	35.66292612784318	19.169999999999995	0.0
C 	36.89268220121708	19.879999999999992	0.0
C 	38.122438274590984	19.169999999999995	0.0
C 	39.35219434796488	19.879999999999992	0.0
C 	40.58195042133879	19.16999999999999	0.0
C 	41.81170649471269	19.87999999999999	0.0
C 	43.0414625680866	19.169999999999995	0.0
C 	44.27121864146049	19.879999999999992	0.0
C 	45.5009747148344	19.16999999999999	0.0
C 	46.730730788208305	19.879999999999992	0.0
C 	47.960486861582204	19.169999999999995	0.0
C 	49.1902429349561	19.879999999999992	0.0
C 	50.41999900833002	19.169999999999995	0.0
C 	51.649755081703915	19.879999999999992	0.0
C 	52.879511155077815	19.16999999999999	0.0
C 	54.10926722845172	19.879999999999992	0.0
C 	55.33902330182562	19.16999999999999	0.0
C 	56.56877937519952	19.879999999999992	0.0
C 	57.79853544857343	19.169999999999995	0.0
C 	59.02829152194733	19.879999999999992	0.0
C 	60.25804759532123	19.169999999999995	0.0
C 	61.48780366869513	19.879999999999992	0.0
C 	62.717559742069035	19.16999999999999	0.0
C 	63.94731581544294	19.879999999999992	0.0
C 	65.17707188881684	19.169999999999995	0.0
C 	66.40682796219075	19.87999999999999	0.0
C 	67.63658403556465	19.169999999999995	0.0
C 	68.86634010893854	19.87999999999999	0.0
C 	70.09609618231245	19.16999999999999	0.0
C 	71.32585225568636	19.879999999999992	0.0
C 	12.297560733739028	21.299999999999994	0.0
C 	13.527316807112932	22.009999999999994	0.0
C 	14.757072880486831	21.299999999999994	0.0
C 	15.986828953860735	22.009999999999994	0.0
C 	17.216585027234636	21.299999999999994	0.0
C 	18.44634110060854	22.009999999999994	0.0
C 	19.676097173982445	21.299999999999994	0.0
C 	20.905853247356347	22.009999999999994	0.0
C 	22.13560932073025	21.299999999999994	0.0
C 	23.365365394104153	22.009999999999994	0.0
C 	24.595121467478055	21.299999999999994	0.0
C 	25.824877540851958	22.009999999999994	0.0
C 	27.05463361422586	21.299999999999994	0.0
C 	28.284389687599766	22.009999999999994	0.0
C 	29.514145760973662	21.29999999999999	0.0
C 	30.743901834347568	22.00999999999999	0.0
C 	31.97365790772147	21.299999999999994	0.0
C 	33.20341398109537	22.009999999999994	0.0
C 	34.43317005446928	21.299999999999994	0.0
C 	35.662926127843185	22.009999999999994	0.0
C 	36.89268220121708	21.299999999999994	0.0
C 	38.122438274590984	22.009999999999994	0.0
C 	39.35219434796489	21.299999999999994	0.0
C 	40.58195042133879	22.009999999999994	0.0
C 	41.811706494712695	21.299999999999994	0.0
C 	43.0414625680866	22.009999999999994	0.0
C 	44.2712186414605	21.29999999999999	0.0
C 	45.5009747148344	22.00999999999999	0.0
C 	46.730730788208305	21.299999999999994	0.0
C 	47.96048686158221	22.009999999999994	0.0
C 	49.19024293495611	21.299999999999994	0.0
C 	50.41999900833002	22.009999999999994	0.0
C 	51.649755081703915	21.299999999999994	0.0
C 	52.879511155077815	22.00999999999999	0.0
C 	54.10926722845172	21.299999999999994	0.0
C 	55.33902330182563	22.009999999999994	0.0
C 	56.568779375199526	21.29999999999999	0.0
C 	57.798535448573425	22.00999999999999	0.0
C 	59.02829152194733	21.299999999999994	0.0
C 	60.25804759532124	22.009999999999994	0.0
C 	61.48780366869513	21.29999999999999	0.0
C 	62.717559742069035	22.00999999999999	0.0
C 	63.94731581544294	21.299999999999994	0.0
C 	65.17707188881684	22.009999999999987	0.0
C 	66.40682796219075	21.299999999999994	0.0
C 	67.63658403556465	22.009999999999994	0.0
C 	68.86634010893854	21.29999999999999	0.0
C 	70.09609618231245	22.00999999999999	0.0
C 	71.32585225568636	21.299999999999983	0.0
C 	72.55560832906026	22.00999999999999	0.0
C 	13.527316807112932	23.429999999999996	0.0
C 	14.757072880486836	24.139999999999997	0.0
C 	15.986828953860737	23.429999999999996	0.0
C 	17.216585027234643	24.139999999999997	0.0
C 	18.446341100608542	23.429999999999996	0.0
C 	19.676097173982445	24.139999999999997	0.0
C 	20.90585324735635	23.429999999999996	0.0
C 	22.135609320730254	24.139999999999997	0.0
C 	23.365365394104156	23.429999999999993	0.0
C 	24.595121467478062	24.139999999999997	0.0
C 	25.824877540851958	23.429999999999993	0.0
C 	27.054633614225864	24.139999999999993	0.0
C 	28.284389687599766	23.429999999999996	0.0
C 	29.514145760973673	24.139999999999997	0.0
C 	30.743901834347575	23.429999999999996	0.0
C 	31.973657907721478	24.139999999999997	0.0
C 	33.20341398109537	23.429999999999993	0.0
C 	34.43317005446928	24.139999999999993	0.0
C 	35.66292612784318	23.429999999999993	0.0
C 	36.892682201217085	24.139999999999993	0.0
C 	38.122438274590984	23.429999999999993	0.0
C 	39.35219434796489	24.139999999999993	0.0
C 	40.58195042133879	23.429999999999996	0.0
C 	41.811706494712695	24.139999999999993	0.0
C 	43.041462568086594	23.42999999999999	0.0
C 	44.2712186414605	24.13999999999999	0.0
C 	45.5009747148344	23.429999999999993	0.0
C 	46.730730788208305	24.139999999999993	0.0
C 	47.96048686158221	23.429999999999993	0.0
C 	49.19024293495611	24.139999999999993	0.0
C 	50.41999900833001	23.429999999999993	0.0
C 	51.649755081703915	24.13999999999999	0.0
C 	52.87951115507782	23.429999999999993	0.0
C 	54.10926722845172	24.139999999999993	0.0
C 	55.33902330182563	23.429999999999993	0.0
C 	56.56877937519953	24.139999999999993	0.0
C 	57.798535448573425	23.429999999999993	0.0
C 	59.02829152194733	24.139999999999993	0.0
C 	60.25804759532124	23.429999999999993	0.0
C 	61.487803668695136	24.13999999999999	0.0
C 	62.71755974206904	23.429999999999993	0.0
C 	63.947315815442934	24.139999999999986	0.0
C 	65.17707188881684	23.429999999999993	0.0
C 	66.40682796219075	24.139999999999993	0.0
C 	67.63658403556464	23.42999999999999	0.0
C 	68.86634010893856	24.139999999999997	0.0
C 	70.09609618231245	23.42999999999999	0.0
C 	71.32585225568636	24.139999999999997	0.0
C 	72.55560832906026	23.42999999999999	0.0
C 	73.78536440243417	24.13999999999999	0.0
C 	14.757072880486835	25.559999999999995	0.0
C 	15.986828953860735	26.269999999999996	0.0
C 	17.21658502723464	25.559999999999995	0.0
C 	18.44634110060854	26.269999999999996	0.0
C 	19.676097173982445	25.56	0.0
C 	20.905853247356344	26.269999999999996	0.0
C 	22.13560932073025	25.56	0.0
C 	23.365365394104153	26.269999999999996	0.0
C 	24.595121467478055	25.559999999999995	0.0
C 	25.824877540851958	26.269999999999996	0.0
C 	27.054633614225857	25.559999999999995	0.0
C 	28.28438968759976	26.269999999999996	0.0
C 	29.514145760973665	25.559999999999995	0.0
C 	30.743901834347568	26.269999999999996	0.0
C 	31.973657907721474	25.559999999999995	0.0
C 	33.20341398109538	26.269999999999996	0.0
C 	34.43317005446927	25.55999999999999	0.0
C 	35.66292612784318	26.269999999999992	0.0
C 	36.892682201217085	25.559999999999995	0.0
C 	38.12243827459098	26.269999999999992	0.0
C 	39.35219434796489	25.559999999999995	0.0
C 	40.58195042133879	26.269999999999992	0.0
C 	41.81170649471269	25.55999999999999	0.0
C 	43.041462568086594	26.269999999999992	0.0
C 	44.2712186414605	25.55999999999999	0.0
C 	45.5009747148344	26.26999999999999	0.0
C 	46.730730788208305	25.559999999999995	0.0
C 	47.960486861582204	26.269999999999992	0.0
C 	49.19024293495611	25.55999999999999	0.0
C 	50.41999900833001	26.269999999999992	0.0
C 	51.649755081703915	25.559999999999995	0.0
C 	52.879511155077815	26.269999999999992	0.0
C 	54.10926722845172	25.559999999999995	0.0
C 	55.33902330182562	26.269999999999992	0.0
C 	56.568779375199526	25.55999999999999	0.0
C 	57.79853544857343	26.269999999999992	0.0
C 	59.028291521947324	25.55999999999999	0.0
C 	60.25804759532123	26.269999999999992	0.0
C 	61.487803668695136	25.559999999999995	0.0
C 	62.717559742069035	26.26999999999999	0.0
C 	63.94731581544294	25.55999999999999	0.0
C 	65.17707188881683	26.269999999999985	0.0
C 	66.40682796219075	25.55999999999999	0.0
C 	67.63658403556465	26.269999999999992	0.0
C 	68.86634010893856	25.559999999999995	0.0
C 	70.09609618231246	26.269999999999996	0.0
C 	71.32585225568636	25.559999999999995	0.0
C 	72.55560832906026	26.269999999999996	0.0
C 	73.78536440243415	25.559999999999988	0.0
C 	75.01512047580806	26.26999999999999	0.0
C 	15.986828953860735	27.689999999999994	0.0
C 	17.21658502723464	28.399999999999995	0.0
C 	18.446341100608542	27.689999999999994	0.0
C 	19.676097173982445	28.399999999999995	0.0
C 	20.905853247356344	27.689999999999994	0.0
C 	22.13560932073025	28.399999999999995	0.0
C 	23.365365394104153	27.689999999999994	0.0
C 	24.59512146747806	28.399999999999995	0.0
C 	25.824877540851954	27.689999999999994	0.0
C 	27.054633614225857	28.399999999999995	0.0
C 	28.284389687599763	27.689999999999994	0.0
C 	29.514145760973665	28.399999999999995	0.0
C 	30.74390183434757	27.689999999999994	0.0
C 	31.973657907721474	28.399999999999995	0.0
C 	33.20341398109537	27.68999999999999	0.0
C 	34.43317005446928	28.39999999999999	0.0
C 	35.66292612784318	27.689999999999994	0.0
C 	36.892682201217085	28.399999999999995	0.0
C 	38.122438274590984	27.689999999999994	0.0
C 	39.35219434796489	28.399999999999995	0.0
C 	40.58195042133879	27.689999999999994	0.0
C 	41.811706494712695	28.399999999999995	0.0
C 	43.041462568086594	27.689999999999994	0.0
C 	44.2712186414605	28.399999999999995	0.0
C 	45.500974714834406	27.689999999999994	0.0
C 	46.730730788208305	28.399999999999995	0.0
C 	47.960486861582204	27.68999999999999	0.0
C 	49.19024293495611	28.39999999999999	0.0
C 	50.41999900833002	27.689999999999994	0.0
C 	51.649755081703915	28.399999999999995	0.0
C 	52.87951115507782	27.689999999999994	0.0
C 	54.10926722845173	28.399999999999995	0.0
C 	55.33902330182562	27.68999999999999	0.0
C 	56.568779375199526	28.39999999999999	0.0
C 	57.79853544857343	27.689999999999994	0.0
C 	59.02829152194733	28.39999999999999	0.0
C 	60.25804759532124	27.689999999999994	0.0
C 	61.48780366869513	28.399999999999988	0.0
C 	62.717559742069035	27.689999999999994	0.0
C 	63.94731581544294	28.399999999999995	0.0
C 	65.17707188881684	27.68999999999999	0.0
C 	66.40682796219075	28.39999999999999	0.0
C 	67.63658403556464	27.689999999999987	0.0
C 	68.86634010893856	28.399999999999995	0.0
C 	70.09609618231245	27.689999999999994	0.0
C 	71.32585225568636	28.399999999999995	0.0
C 	72.55560832906026	27.68999999999999	0.0
C 	73.78536440243415	28.39999999999999	0.0
C 	75.01512047580808	27.689999999999994	0.0
C 	76.24487654918197	28.399999999999984	0.0
C 	17.21658502723464	29.819999999999997	0.0
C 	18.446341100608546	30.529999999999998	0.0
C 	19.676097173982445	29.819999999999997	0.0
C 	20.905853247356355	30.529999999999998	0.0
C 	22.13560932073025	29.819999999999993	0.0
C 	23.365365394104156	30.529999999999994	0.0
C 	24.59512146747806	29.819999999999997	0.0
C 	25.82487754085196	30.529999999999998	0.0
C 	27.054633614225867	29.819999999999997	0.0
C 	28.28438968759977	30.529999999999998	0.0
C 	29.514145760973665	29.819999999999997	0.0
C 	30.74390183434757	30.529999999999998	0.0
C 	31.973657907721474	29.819999999999997	0.0
C 	33.20341398109538	30.529999999999998	0.0
C 	34.43317005446928	29.819999999999997	0.0
C 	35.662926127843185	30.529999999999998	0.0
C 	36.892682201217085	29.819999999999993	0.0
C 	38.12243827459099	30.529999999999994	0.0
C 	39.35219434796488	29.819999999999993	0.0
C 	40.58195042133879	30.529999999999994	0.0
C 	41.811706494712695	29.819999999999993	0.0
C 	43.0414625680866	30.529999999999994	0.0
C 	44.2712186414605	29.819999999999993	0.0
C 	45.500974714834406	30.529999999999994	0.0
C 	46.730730788208305	29.81999999999999	0.0
C 	47.960486861582204	30.52999999999999	0.0
C 	49.19024293495611	29.819999999999993	0.0
C 	50.41999900833002	30.529999999999994	0.0
C 	51.649755081703915	29.819999999999993	0.0
C 	52.87951115507782	30.529999999999994	0.0
C 	54.10926722845172	29.819999999999993	0.0
C 	55.33902330182563	30.52999999999999	0.0
C 	56.568779375199526	29.819999999999993	0.0
C 	57.798535448573425	30.52999999999999	0.0
C 	59.02829152194734	29.819999999999993	0.0
C 	60.25804759532124	30.529999999999994	0.0
C 	61.487803668695136	29.819999999999993	0.0
C 	62.71755974206904	30.529999999999994	0.0
C 	63.947315815442934	29.81999999999999	0.0
C 	65.17707188881685	30.529999999999998	0.0
C 	66.40682796219073	29.819999999999986	0.0
C 	67.63658403556465	30.529999999999994	0.0
C 	68.86634010893856	29.819999999999993	0.0
C 	70.09609618231245	30.529999999999994	0.0
C 	71.32585225568637	29.819999999999997	0.0
C 	72.55560832906026	30.52999999999999	0.0
C 	73.78536440243417	29.819999999999997	0.0
C 	75.01512047580806	30.529999999999987	0.0
C 	76.24487654918197	29.81999999999999	0.0
C 	77.47463262255587	30.52999999999999	0.0
C 	18.446341100608542	31.949999999999996	0.0
C 	19.676097173982445	32.65999999999999	0.0
C 	20.905853247356347	31.949999999999992	0.0
C 	22.135609320730254	32.66	0.0
C 	23.365365394104156	31.949999999999996	0.0
C 	24.595121467478055	32.65999999999999	0.0
C 	25.824877540851958	31.949999999999992	0.0
C 	27.05463361422586	32.66	0.0
C 	28.284389687599766	31.949999999999996	0.0
C 	29.51414576097367	32.66	0.0
C 	30.743901834347568	31.949999999999992	0.0
C 	31.97365790772147	32.66	0.0
C 	33.20341398109537	31.949999999999992	0.0
C 	34.43317005446928	32.66	0.0
C 	35.66292612784318	31.949999999999996	0.0
C 	36.892682201217085	32.66	0.0
C 	38.122438274590984	31.949999999999992	0.0
C 	39.35219434796489	32.65999999999999	0.0
C 	40.58195042133879	31.949999999999992	0.0
C 	41.81170649471269	32.65999999999999	0.0
C 	43.0414625680866	31.949999999999996	0.0
C 	44.2712186414605	32.65999999999999	0.0
C 	45.5009747148344	31.949999999999992	0.0
C 	46.730730788208305	32.65999999999999	0.0
C 	47.96048686158221	31.949999999999992	0.0
C 	49.1902429349561	32.65999999999999	0.0
C 	50.41999900833002	31.949999999999992	0.0
C 	51.649755081703915	32.65999999999999	0.0
C 	52.879511155077815	31.949999999999992	0.0
C 	54.10926722845172	32.65999999999999	0.0
C 	55.33902330182563	31.949999999999992	0.0
C 	56.568779375199526	32.65999999999999	0.0
C 	57.79853544857343	31.949999999999992	0.0
C 	59.028291521947324	32.65999999999999	0.0
C 	60.25804759532124	31.949999999999992	0.0
C 	61.487803668695136	32.65999999999999	0.0
C 	62.717559742069035	31.94999999999999	0.0
C 	63.94731581544294	32.65999999999999	0.0
C 	65.17707188881685	31.949999999999992	0.0
C 	66.40682796219076	32.66	0.0
C 	67.63658403556465	31.949999999999992	0.0
C 	68.86634010893856	32.65999999999999	0.0
C 	70.09609618231245	31.94999999999999	0.0
C 	71.32585225568636	32.65999999999999	0.0
C 	72.55560832906026	31.949999999999996	0.0
C 	73.78536440243415	32.65999999999999	0.0
C 	75.01512047580806	31.949999999999992	0.0
C 	76.24487654918195	32.65999999999998	0.0
C 	77.47463262255587	31.949999999999985	0.0
C 	78.70438869592978	32.65999999999999	0.0
C 	19.676097173982445	34.07999999999999	0.0
C 	20.90585324735635	34.78999999999999	0.0
C 	22.135609320730254	34.07999999999999	0.0
C 	23.365365394104156	34.78999999999999	0.0
C 	24.595121467478055	34.07999999999999	0.0
C 	25.824877540851958	34.78999999999999	0.0
C 	27.054633614225864	34.07999999999999	0.0
C 	28.284389687599766	34.78999999999999	0.0
C 	29.514145760973665	34.07999999999999	0.0
C 	30.743901834347568	34.78999999999999	0.0
C 	31.97365790772147	34.07999999999999	0.0
C 	33.20341398109537	34.78999999999999	0.0
C 	34.43317005446928	34.07999999999999	0.0
C 	35.662926127843185	34.78999999999999	0.0
C 	36.89268220121708	34.07999999999999	0.0
C 	38.122438274590984	34.78999999999999	0.0
C 	39.35219434796489	34.07999999999999	0.0
C 	40.581950421338796	34.78999999999999	0.0
C 	41.811706494712695	34.07999999999999	0.0
C 	43.0414625680866	34.78999999999999	0.0
C 	44.2712186414605	34.07999999999999	0.0
C 	45.5009747148344	34.78999999999999	0.0
C 	46.730730788208305	34.07999999999999	0.0
C 	47.96048686158221	34.78999999999999	0.0
C 	49.19024293495611	34.07999999999999	0.0
C 	50.41999900833002	34.78999999999999	0.0
C 	51.649755081703915	34.07999999999999	0.0
C 	52.87951115507782	34.78999999999999	0.0
C 	54.10926722845172	34.07999999999999	0.0
C 	55.33902330182562	34.78999999999999	0.0
C 	56.56877937519953	34.07999999999999	0.0
C 	57.79853544857343	34.78999999999999	0.0
C 	59.02829152194733	34.07999999999999	0.0
C 	60.25804759532124	34.78999999999999	0.0
C 	61.487803668695136	34.07999999999999	0.0
C 	62.71755974206905	34.79	0.0
C 	63.947315815442934	34.079999999999984	0.0
C 	65.17707188881685	34.78999999999999	0.0
C 	66.40682796219075	34.07999999999999	0.0
C 	67.63658403556465	34.78999999999999	0.0
C 	68.86634010893854	34.07999999999999	0.0
C 	70.09609618231245	34.78999999999999	0.0
C 	71.32585225568636	34.07999999999999	0.0
C 	72.55560832906025	34.789999999999985	0.0
C 	73.78536440243417	34.07999999999999	0.0
C 	75.01512047580808	34.78999999999999	0.0
C 	76.24487654918197	34.07999999999999	0.0
C 	77.47463262255587	34.78999999999999	0.0
C 	78.70438869592977	34.079999999999984	0.0
C 	79.93414476930369	34.78999999999999	0.0
C 	20.90585324735635	36.209999999999994	0.0
C 	22.135609320730254	36.919999999999995	0.0
C 	23.36536539410416	36.209999999999994	0.0
C 	24.595121467478062	36.919999999999995	0.0
C 	25.82487754085196	36.209999999999994	0.0
C 	27.054633614225864	36.919999999999995	0.0
C 	28.284389687599766	36.209999999999994	0.0
C 	29.514145760973673	36.919999999999995	0.0
C 	30.743901834347575	36.209999999999994	0.0
C 	31.973657907721478	36.919999999999995	0.0
C 	33.20341398109537	36.209999999999994	0.0
C 	34.43317005446928	36.919999999999995	0.0
C 	35.662926127843185	36.209999999999994	0.0
C 	36.89268220121709	36.919999999999995	0.0
C 	38.12243827459099	36.209999999999994	0.0
C 	39.3521943479649	36.919999999999995	0.0
C 	40.581950421338796	36.209999999999994	0.0
C 	41.811706494712695	36.919999999999995	0.0
C 	43.041462568086594	36.209999999999994	0.0
C 	44.2712186414605	36.919999999999995	0.0
C 	45.500974714834406	36.209999999999994	0.0
C 	46.730730788208305	36.919999999999995	0.0
C 	47.96048686158221	36.209999999999994	0.0
C 	49.19024293495612	36.919999999999995	0.0
C 	50.41999900833002	36.20999999999999	0.0
C 	51.649755081703915	36.91999999999999	0.0
C 	52.87951115507782	36.209999999999994	0.0
C 	54.10926722845172	36.91999999999999	0.0
C 	55.33902330182563	36.209999999999994	0.0
C 	56.56877937519953	36.919999999999995	0.0
C 	57.79853544857343	36.20999999999999	0.0
C 	59.02829152194733	36.91999999999999	0.0
C 	60.25804759532123	36.20999999999999	0.0
C 	61.48780366869515	36.919999999999995	0.0
C 	62.71755974206904	36.209999999999994	0.0
C 	63.94731581544295	36.919999999999995	0.0
C 	65.17707188881684	36.209999999999994	0.0
C 	66.40682796219075	36.919999999999995	0.0
C 	67.63658403556467	36.209999999999994	0.0
C 	68.86634010893856	36.91999999999999	0.0
C 	70.09609618231246	36.209999999999994	0.0
C 	71.32585225568636	36.91999999999999	0.0
C 	72.55560832906026	36.209999999999994	0.0
C 	73.78536440243417	36.919999999999995	0.0
C 	75.01512047580806	36.20999999999999	0.0
C 	76.24487654918198	36.919999999999995	0.0
C 	77.47463262255586	36.20999999999999	0.0
C 	78.70438869592978	36.919999999999995	0.0
C 	79.93414476930369	36.20999999999999	0.0
C 	81.16390084267759	36.91999999999999	0.0
C 	22.13560932073025	38.33999999999999	0.0
C 	23.365365394104153	39.04999999999999	0.0
C 	24.59512146747806	38.33999999999999	0.0
C 	25.82487754085196	39.04999999999999	0.0
C 	27.05463361422586	38.33999999999999	0.0
C 	28.284389687599763	39.04999999999999	0.0
C 	29.514145760973665	38.33999999999999	0.0
C 	30.74390183434757	39.04999999999999	0.0
C 	31.973657907721474	38.339999999999996	0.0
C 	33.20341398109538	39.04999999999999	0.0
C 	34.43317005446927	38.33999999999999	0.0
C 	35.66292612784318	39.04999999999999	0.0
C 	36.892682201217085	38.33999999999999	0.0
C 	38.12243827459099	39.04999999999999	0.0
C 	39.35219434796489	38.33999999999999	0.0
C 	40.581950421338796	39.04999999999999	0.0
C 	41.811706494712695	38.33999999999999	0.0
C 	43.0414625680866	39.04999999999999	0.0
C 	44.27121864146049	38.33999999999999	0.0
C 	45.5009747148344	39.04999999999999	0.0
C 	46.730730788208305	38.33999999999999	0.0
C 	47.960486861582204	39.04999999999999	0.0
C 	49.19024293495611	38.33999999999999	0.0
C 	50.41999900833002	39.04999999999999	0.0
C 	51.649755081703915	38.33999999999999	0.0
C 	52.879511155077815	39.04999999999999	0.0
C 	54.10926722845173	38.33999999999999	0.0
C 	55.33902330182562	39.04999999999998	0.0
C 	56.568779375199526	38.33999999999999	0.0
C 	57.79853544857343	39.04999999999999	0.0
C 	59.02829152194733	38.33999999999999	0.0
C 	60.25804759532123	39.04999999999999	0.0
C 	61.48780366869513	38.33999999999998	0.0
C 	62.71755974206905	39.04999999999999	0.0
C 	63.94731581544294	38.33999999999999	0.0
C 	65.17707188881685	39.04999999999999	0.0
C 	66.40682796219075	38.33999999999999	0.0
C 	67.63658403556465	39.04999999999999	0.0
C 	68.86634010893856	38.33999999999999	0.0
C 	70.09609618231245	39.04999999999998	0.0
C 	71.32585225568636	38.33999999999999	0.0
C 	72.55560832906025	39.04999999999998	0.0
C 	73.78536440243415	38.33999999999999	0.0
C 	75.01512047580806	39.04999999999999	0.0
C 	76.24487654918197	38.33999999999999	0.0
C 	77.47463262255587	39.05	0.0
C 	78.70438869592977	38.33999999999998	0.0
C 	79.93414476930369	39.04999999999999	0.0
C 	81.16390084267758	38.33999999999998	0.0
C 	82.39365691605148	39.04999999999998	0.0
C 	23.365365394104156	40.46999999999999	0.0
C 	24.59512146747806	41.17999999999999	0.0
C 	25.82487754085196	40.46999999999999	0.0
C 	27.054633614225867	41.17999999999999	0.0
C 	28.284389687599763	40.46999999999999	0.0
C 	29.51414576097367	41.17999999999999	0.0
C 	30.74390183434757	40.46999999999999	0.0
C 	31.973657907721474	41.17999999999999	0.0
C 	33.20341398109537	40.46999999999999	0.0
C 	34.43317005446928	41.17999999999999	0.0
C 	35.66292612784318	40.46999999999999	0.0
C 	36.892682201217085	41.17999999999999	0.0
C 	38.12243827459099	40.46999999999999	0.0
C 	39.3521943479649	41.17999999999999	0.0
C 	40.58195042133879	40.46999999999999	0.0
C 	41.811706494712695	41.17999999999999	0.0
C 	43.0414625680866	40.46999999999999	0.0
C 	44.2712186414605	41.17999999999999	0.0
C 	45.500974714834406	40.46999999999999	0.0
C 	46.73073078820831	41.17999999999999	0.0
C 	47.960486861582204	40.46999999999999	0.0
C 	49.19024293495611	41.17999999999999	0.0
C 	50.41999900833002	40.46999999999999	0.0
C 	51.649755081703915	41.179999999999986	0.0
C 	52.87951115507782	40.46999999999999	0.0
C 	54.10926722845173	41.17999999999999	0.0
C 	55.33902330182563	40.46999999999999	0.0
C 	56.568779375199526	41.17999999999999	0.0
C 	57.798535448573425	40.469999999999985	0.0
C 	59.028291521947345	41.17999999999999	0.0
C 	60.25804759532124	40.46999999999999	0.0
C 	61.48780366869514	41.17999999999999	0.0
C 	62.71755974206904	40.46999999999999	0.0
C 	63.94731581544295	41.17999999999999	0.0
C 	65.17707188881685	40.46999999999999	0.0
C 	66.40682796219075	41.179999999999986	0.0
C 	67.63658403556465	40.46999999999999	0.0
C 	68.86634010893854	41.179999999999986	0.0
C 	70.09609618231246	40.46999999999999	0.0
C 	71.32585225568636	41.17999999999999	0.0
C 	72.55560832906026	40.469999999999985	0.0
C 	73.78536440243417	41.179999999999986	0.0
C 	75.01512047580806	40.469999999999985	0.0
C 	76.24487654918198	41.17999999999999	0.0
C 	77.47463262255587	40.46999999999999	0.0
C 	78.70438869592978	41.17999999999999	0.0
C 	79.93414476930367	40.469999999999985	0.0
C 	81.16390084267758	41.179999999999986	0.0
C 	82.3936569160515	40.46999999999999	0.0
C 	83.62341298942539	41.179999999999986	0.0
C 	24.595121467478055	42.59999999999999	0.0
C 	25.82487754085196	43.30999999999999	0.0
C 	27.05463361422586	42.59999999999999	0.0
C 	28.284389687599766	43.30999999999999	0.0
C 	29.514145760973662	42.59999999999999	0.0
C 	30.743901834347568	43.30999999999999	0.0
C 	31.97365790772147	42.59999999999999	0.0
C 	33.20341398109537	43.30999999999999	0.0
C 	34.43317005446927	42.59999999999999	0.0
C 	35.66292612784318	43.30999999999999	0.0
C 	36.89268220121708	42.59999999999999	0.0
C 	38.122438274590984	43.30999999999999	0.0
C 	39.35219434796489	42.59999999999999	0.0
C 	40.581950421338796	43.30999999999999	0.0
C 	41.81170649471269	42.59999999999999	0.0
C 	43.041462568086594	43.30999999999999	0.0
C 	44.2712186414605	42.59999999999999	0.0
C 	45.5009747148344	43.30999999999999	0.0
C 	46.730730788208305	42.59999999999999	0.0
C 	47.96048686158221	43.30999999999999	0.0
C 	49.19024293495611	42.59999999999999	0.0
C 	50.41999900833001	43.30999999999999	0.0
C 	51.64975508170392	42.599999999999994	0.0
C 	52.879511155077815	43.30999999999999	0.0
C 	54.10926722845172	42.59999999999999	0.0
C 	55.33902330182563	43.30999999999999	0.0
C 	56.568779375199526	42.59999999999999	0.0
C 	57.798535448573425	43.30999999999999	0.0
C 	59.028291521947324	42.59999999999998	0.0
C 	60.258047595321244	43.30999999999999	0.0
C 	61.487803668695136	42.59999999999999	0.0
C 	62.71755974206904	43.30999999999999	0.0
C 	63.94731581544294	42.59999999999999	0.0
C 	65.17707188881684	43.30999999999999	0.0
C 	66.40682796219076	42.599999999999994	0.0
C 	67.63658403556465	43.30999999999999	0.0
C 	68.86634010893856	42.59999999999999	0.0
C 	70.09609618231245	43.30999999999998	0.0
C 	71.32585225568636	42.59999999999999	0.0
C 	72.55560832906026	43.30999999999999	0.0
C 	73.78536440243415	42.59999999999999	0.0
C 	75.01512047580806	43.30999999999999	0.0
C 	76.24487654918197	42.59999999999998	0.0
C 	77.47463262255587	43.30999999999999	0.0
C 	78.70438869592978	42.59999999999999	0.0
C 	79.93414476930367	43.30999999999999	0.0
C 	81.16390084267758	42.59999999999999	0.0
C 	82.39365691605148	43.30999999999999	0.0
C 	83.62341298942539	42.59999999999999	0.0
C 	84.85316906279928	43.30999999999998	0.0
C 	25.82487754085196	44.72999999999999	0.0
C 	27.054633614225864	45.43999999999999	0.0
C 	28.284389687599766	44.72999999999999	0.0
C 	29.514145760973673	45.43999999999999	0.0
C 	30.743901834347568	44.72999999999999	0.0
C 	31.97365790772147	45.43999999999999	0.0
C 	33.20341398109537	44.72999999999999	0.0
C 	34.43317005446928	45.43999999999999	0.0
C 	35.662926127843185	44.72999999999999	0.0
C 	36.892682201217085	45.43999999999999	0.0
C 	38.122438274590984	44.72999999999999	0.0
C 	39.35219434796489	45.43999999999999	0.0
C 	40.581950421338796	44.72999999999999	0.0
C 	41.811706494712695	45.43999999999999	0.0
C 	43.0414625680866	44.72999999999999	0.0
C 	44.27121864146051	45.43999999999999	0.0
C 	45.500974714834406	44.72999999999999	0.0
C 	46.730730788208305	45.43999999999999	0.0
C 	47.960486861582204	44.72999999999999	0.0
C 	49.19024293495611	45.43999999999998	0.0
C 	50.41999900833002	44.72999999999999	0.0
C 	51.64975508170391	45.43999999999998	0.0
C 	52.87951115507782	44.72999999999999	0.0
C 	54.10926722845172	45.43999999999999	0.0
C 	55.33902330182562	44.72999999999998	0.0
C 	56.568779375199526	45.43999999999998	0.0
C 	57.798535448573425	44.72999999999998	0.0
C 	59.02829152194734	45.43999999999999	0.0
C 	60.25804759532124	44.72999999999999	0.0
C 	61.48780366869514	45.43999999999999	0.0
C 	62.717559742069035	44.72999999999998	0.0
C 	63.94731581544294	45.43999999999998	0.0
C 	65.17707188881685	44.72999999999999	0.0
C 	66.40682796219075	45.43999999999998	0.0
C 	67.63658403556465	44.72999999999999	0.0
C 	68.86634010893856	45.43999999999999	0.0
C 	70.09609618231245	44.72999999999999	0.0
C 	71.32585225568636	45.43999999999998	0.0
C 	72.55560832906026	44.72999999999998	0.0
C 	73.78536440243417	45.43999999999999	0.0
C 	75.01512047580806	44.72999999999998	0.0
C 	76.24487654918198	45.43999999999999	0.0
C 	77.47463262255587	44.72999999999999	0.0
C 	78.70438869592978	45.43999999999999	0.0
C 	79.93414476930369	44.72999999999999	0.0
C 	81.16390084267758	45.43999999999998	0.0
C 	82.39365691605148	44.72999999999999	0.0
C 	83.62341298942538	45.43999999999998	0.0
C 	84.8531690627993	44.72999999999998	0.0
C 	86.08292513617319	45.43999999999998	0.0
C 	27.054633614225864	46.85999999999999	0.0
C 	28.28438968759977	47.56999999999999	0.0
C 	29.514145760973673	46.85999999999999	0.0
C 	30.74390183434758	47.56999999999999	0.0
C 	31.973657907721474	46.85999999999999	0.0
C 	33.20341398109538	47.56999999999999	0.0
C 	34.43317005446928	46.85999999999999	0.0
C 	35.662926127843185	47.56999999999999	0.0
C 	36.892682201217085	46.85999999999999	0.0
C 	38.122438274590984	47.56999999999999	0.0
C 	39.35219434796489	46.85999999999999	0.0
C 	40.581950421338796	47.56999999999999	0.0
C 	41.8117064947127	46.85999999999999	0.0
C 	43.0414625680866	47.56999999999999	0.0
C 	44.2712186414605	46.85999999999999	0.0
C 	45.500974714834406	47.56999999999999	0.0
C 	46.73073078820831	46.859999999999985	0.0
C 	47.960486861582204	47.569999999999986	0.0
C 	49.19024293495612	46.85999999999999	0.0
C 	50.41999900833002	47.56999999999999	0.0
C 	51.649755081703915	46.859999999999985	0.0
C 	52.87951115507782	47.569999999999986	0.0
C 	54.10926722845172	46.859999999999985	0.0
C 	55.339023301825634	47.56999999999999	0.0
C 	56.56877937519953	46.85999999999999	0.0
C 	57.79853544857344	47.56999999999999	0.0
C 	59.02829152194733	46.859999999999985	0.0
C 	60.25804759532124	47.569999999999986	0.0
C 	61.48780366869515	46.85999999999999	0.0
C 	62.71755974206904	47.569999999999986	0.0
C 	63.94731581544295	46.85999999999999	0.0
C 	65.17707188881685	47.56999999999999	0.0
C 	66.40682796219075	46.859999999999985	0.0
C 	67.63658403556465	47.569999999999986	0.0
C 	68.86634010893856	46.859999999999985	0.0
C 	70.09609618231246	47.56999999999999	0.0
C 	71.32585225568636	46.859999999999985	0.0
C 	72.55560832906028	47.56999999999999	0.0
C 	73.78536440243417	46.859999999999985	0.0
C 	75.01512047580808	47.569999999999986	0.0
C 	76.24487654918197	46.859999999999985	0.0
C 	77.47463262255587	47.569999999999986	0.0
C 	78.70438869592978	46.85999999999999	0.0
C 	79.93414476930367	47.569999999999986	0.0
C 	81.16390084267758	46.85999999999999	0.0
C 	82.39365691605148	47.56999999999999	0.0
C 	83.62341298942539	46.859999999999985	0.0
C 	84.8531690627993	47.569999999999986	0.0
C 	86.08292513617319	46.85999999999998	0.0
C 	87.31268120954711	47.569999999999986	0.0
C 	28.284389687599763	48.98999999999999	0.0
C 	29.51414576097367	49.69999999999999	0.0
C 	30.74390183434757	48.98999999999999	0.0
C 	31.973657907721478	49.69999999999999	0.0
C 	33.20341398109537	48.98999999999999	0.0
C 	34.43317005446928	49.69999999999999	0.0
C 	35.66292612784318	48.98999999999999	0.0
C 	36.892682201217085	49.69999999999999	0.0
C 	38.122438274590984	48.98999999999999	0.0
C 	39.35219434796488	49.69999999999999	0.0
C 	40.58195042133879	48.98999999999999	0.0
C 	41.811706494712695	49.69999999999999	0.0
C 	43.041462568086594	48.98999999999999	0.0
C 	44.2712186414605	49.69999999999999	0.0
C 	45.5009747148344	48.98999999999999	0.0
C 	46.730730788208305	49.69999999999998	0.0
C 	47.96048686158221	48.98999999999999	0.0
C 	49.1902429349561	49.69999999999998	0.0
C 	50.41999900833002	48.98999999999999	0.0
C 	51.64975508170392	49.69999999999999	0.0
C 	52.879511155077815	48.98999999999999	0.0
C 	54.10926722845172	49.69999999999999	0.0
C 	55.33902330182562	48.98999999999998	0.0
C 	56.56877937519953	49.69999999999999	0.0
C 	57.79853544857343	48.98999999999999	0.0
C 	59.02829152194734	49.69999999999999	0.0
C 	60.25804759532124	48.98999999999999	0.0
C 	61.487803668695136	49.69999999999999	0.0
C 	62.71755974206905	48.98999999999999	0.0
C 	63.94731581544294	49.69999999999998	0.0
C 	65.17707188881685	48.98999999999999	0.0
C 	66.40682796219075	49.69999999999999	0.0
C 	67.63658403556465	48.98999999999999	0.0
C 	68.86634010893856	49.69999999999999	0.0
C 	70.09609618231245	48.98999999999998	0.0
C 	71.32585225568637	49.69999999999999	0.0
C 	72.55560832906025	48.98999999999998	0.0
C 	73.78536440243417	49.69999999999999	0.0
C 	75.01512047580806	48.98999999999999	0.0
C 	76.24487654918197	49.69999999999999	0.0
C 	77.47463262255587	48.98999999999998	0.0
C 	78.70438869592978	49.69999999999998	0.0
C 	79.93414476930369	48.98999999999999	0.0
C 	81.16390084267758	49.69999999999998	0.0
C 	82.39365691605148	48.98999999999999	0.0
C 	83.62341298942539	49.69999999999999	0.0
C 	84.85316906279928	48.98999999999998	0.0
C 	86.08292513617319	49.69999999999998	0.0
C 	87.3126812095471	48.98999999999998	0.0
C 	88.542437282921	49.69999999999999	0.0
C 	29.51414576097367	51.11999999999999	0.0
C 	30.74390183434757	51.82999999999999	0.0
C 	31.973657907721474	51.11999999999999	0.0
C 	33.20341398109538	51.82999999999999	0.0
C 	34.43317005446928	51.11999999999999	0.0
C 	35.66292612784318	51.82999999999999	0.0
C 	36.892682201217085	51.11999999999999	0.0
C 	38.12243827459099	51.82999999999999	0.0
C 	39.35219434796489	51.12	0.0
C 	40.581950421338796	51.83	0.0
C 	41.811706494712695	51.11999999999999	0.0
C 	43.041462568086594	51.82999999999999	0.0
C 	44.2712186414605	51.12	0.0
C 	45.5009747148344	51.82999999999999	0.0
C 	46.73073078820831	51.11999999999999	0.0
C 	47.96048686158221	51.82999999999999	0.0
C 	49.19024293495611	51.11999999999999	0.0
C 	50.41999900833002	51.82999999999999	0.0
C 	51.649755081703915	51.11999999999998	0.0
C 	52.879511155077815	51.829999999999984	0.0
C 	54.10926722845171	51.11999999999999	0.0
C 	55.33902330182563	51.83	0.0
C 	56.568779375199526	51.11999999999999	0.0
C 	57.79853544857343	51.82999999999999	0.0
C 	59.02829152194733	51.11999999999999	0.0
C 	60.25804759532124	51.82999999999999	0.0
C 	61.48780366869514	51.11999999999999	0.0
C 	62.717559742069035	51.829999999999984	0.0
C 	63.94731581544295	51.11999999999999	0.0
C 	65.17707188881685	51.82999999999999	0.0
C 	66.40682796219075	51.11999999999999	0.0
C 	67.63658403556465	51.82999999999999	0.0
C 	68.86634010893854	51.11999999999998	0.0
C 	70.09609618231246	51.82999999999999	0.0
C 	71.32585225568636	51.11999999999999	0.0
C 	72.55560832906026	51.82999999999999	0.0
C 	73.78536440243417	51.11999999999999	0.0
C 	75.01512047580806	51.82999999999999	0.0
C 	76.24487654918198	51.11999999999999	0.0
C 	77.47463262255587	51.829999999999984	0.0
C 	78.70438869592978	51.11999999999999	0.0
C 	79.93414476930367	51.829999999999984	0.0
C 	81.16390084267758	51.11999999999999	0.0
C 	82.39365691605148	51.82999999999999	0.0
C 	83.62341298942538	51.11999999999998	0.0
C 	84.8531690627993	51.82999999999999	0.0
C 	86.08292513617319	51.11999999999998	0.0
C 	87.3126812095471	51.82999999999999	0.0
C 	88.542437282921	51.11999999999998	0.0
C 	89.7721933562949	51.829999999999984	0.0
C 	52.996132555041086	0.5051081156686834	2.15
C 	54.38193435699411	0.8148715184517761	2.15
C 	54.806572281997745	2.169892784944891	2.15
C 	56.192374083950774	2.4796561877279752	2.15
C 	56.61701200895442	3.8346774542210897	2.15
C 	48.83872714918203	-0.4241820926805824	2.15
C 	50.22452895113504	-0.11441868989749827	2.15
C 	50.649166876138686	1.2406025765956166	2.15
C 	52.034968678091715	1.5503659793787057	2.15
C 	52.45960660309535	2.9053872458718204	2.15
C 	53.845408405048374	3.2151506486549133	2.15
C 	54.27004633005202	4.570171915148028	2.15
C 	55.65584813200503	4.879935317931114	2.15
C 	56.08048605700868	6.2349565844242285	2.15
C 	57.46628785896171	6.54471998720732	2.15
C 	57.89092578396534	7.899741253700435	2.15
C 	59.27672758591837	8.209504656483526	2.15
C 	59.70136551092202	9.56452592297664	2.15
C 	46.49176147027963	0.311312368246344	2.15
C 	47.87756327223264	0.6210757710294382	2.15
C 	48.302201197236286	1.9760970375225497	2.15
C 	49.68800299918931	2.2858604403056373	2.15
C 	50.11264092419295	3.6408817067987487	2.15
C 	51.498442726145974	3.950645109581843	2.15
C 	51.92308065114962	5.305666376074955	2.15
C 	53.30888245310264	5.615429778858047	2.15
C 	53.733520378106284	6.970451045351158	2.15
C 	55.1193221800593	7.280214448134248	2.15
C 	55.54396010506294	8.63523571462736	2.15
C 	56.929761907015966	8.944999117410456	2.15
C 	57.35439983201961	10.300020383903567	2.15
C 	58.74020163397263	10.609783786686661	2.15
C 	59.164839558976276	11.964805053179772	2.15
C 	60.55064136092929	12.27456845596286	2.15
C 	60.975279285932935	13.629589722455972	2.15
C 	62.361081087885964	13.939353125239068	2.15
C 	62.78571901288961	15.294374391732179	2.15
C 	42.334356064420554	-0.6179778401029218	2.15
C 	43.72015786637358	-0.3082144373198395	2.15
C 	44.14479579137723	1.0468068291732755	2.15
C 	45.53059759333025	1.3565702319563662	2.15
C 	45.95523551833389	2.711591498449481	2.15
C 	47.341037320286915	3.021354901232574	2.15
C 	47.76567524529055	4.376376167725689	2.15
C 	49.151477047243574	4.6861395705087725	2.15
C 	49.57611497224722	6.041160837001888	2.15
C 	50.96191677420024	6.3509242397849786	2.15
C 	51.386554699203884	7.705945506278093	2.15
C 	52.77235650115691	8.015708909061184	2.15
C 	53.19699442616054	9.370730175554298	2.15
C 	54.58279622811357	9.680493578337382	2.15
C 	55.00743415311722	11.035514844830496	2.15
C 	56.393235955070224	11.34527824761359	2.15
C 	56.81787388007387	12.700299514106705	2.15
C 	58.20367568202689	13.010062916889796	2.15
C 	58.628313607030535	14.365084183382912	2.15
C 	60.014115408983564	14.674847586165995	2.15
C 	60.43875333398721	16.02986885265911	2.15
C 	61.82455513594023	16.3396322554422	2.15
C 	62.249193060943874	17.694653521935315	2.15
C 	63.63499486289688	18.00441692471841	2.15
C 	64.05963278790053	19.359438191211524	2.15
C 	65.44543458985355	19.669201593994607	2.15
C 	65.8700725148572	21.024222860487722	2.15
C 	39.98739038551816	0.11751662082400784	2.15
C 	41.37319218747118	0.4272800236071005	2.15
C 	41.79783011247483	1.7823012901002153	2.15
C 	43.18363191442784	2.092064692883301	2.15
C 	43.608269839431486	3.447085959376416	2.15
C 	44.994071641384515	3.7568493621595054	2.15
C 	45.41870956638815	5.11187062865262	2.15
C 	46.80451136834118	5.421634031435711	2.15
C 	47.229149293344825	6.7766552979288255	2.15
C 	48.61495109529784	7.086418700711912	2.15
C 	49.039589020301484	8.441439967205026	2.15
C 	50.42539082225451	8.751203369988115	2.15
C 	50.85002874725815	10.10622463648123	2.15
C 	52.23583054921117	10.415988039264324	2.15
C 	52.66046847421482	11.771009305757438	2.15
C 	54.04627027616783	12.080772708540522	2.15
C 	54.470908201171476	13.435793975033636	2.15
C 	55.85671000312449	13.745557377816729	2.15
C 	56.281347928128135	15.100578644309845	2.15
C 	57.667149730081164	15.410342047092934	2.15
C 	58.09178765508481	16.765363313586047	2.15
C 	59.47758945703782	17.075126716369134	2.15
C 	59.90222738204147	18.43014798286225	2.15
C 	61.28802918399449	18.73991138564534	2.15
C 	61.71266710899813	20.094932652138453	2.15
C 	63.098468910951155	20.404696054921544	2.15
C 	63.5231068359548	21.759717321414662	2.15
C 	64.90890863790783	22.069480724197746	2.15
C 	65.33354656291147	23.42450199069086	2.15
C 	66.71934836486449	23.734265393473944	2.15
C 	67.14398628986814	25.08928665996706	2.15
C 	68.52978809182115	25.39905006275016	2.15
C 	68.9544260168248	26.754071329243274	2.15
C 	70.34022781877782	27.063834732026354	2.15
C 	70.76486574378146	28.41885599851947	2.15
C 	35.829984979659095	-0.8117735875252647	2.15
C 	37.21578678161212	-0.5020101847421687	2.15
C 	37.640424706615754	0.8530110817509428	2.15
C 	39.02622650856878	1.1627744845340284	2.15
C 	39.45086443357243	2.51779575102714	2.15
C 	40.83666623552545	2.8275591538102343	2.15
C 	41.26130416052909	4.182580420303346	2.15
C 	42.64710596248211	4.4923438230864345	2.15
C 	43.07174388748575	5.847365089579546	2.15
C 	44.457545689438774	6.157128492362642	2.15
C 	44.88218361444242	7.512149758855754	2.15
C 	46.26798541639544	7.821913161638847	2.15
C 	46.692623341399084	9.176934428131958	2.15
C 	48.078425143352106	9.486697830915045	2.15
C 	48.50306306835575	10.841719097408157	2.15
C 	49.88886487030878	11.15148250019125	2.15
C 	50.313502795312424	12.50650376668436	2.15
C 	51.69930459726544	12.816267169467457	2.15
C 	52.12394252226908	14.171288435960568	2.15
C 	53.5097443242221	14.481051838743658	2.15
C 	53.93438224922574	15.83607310523677	2.15
C 	55.320184051178764	16.145836508019862	2.15
C 	55.74482197618241	17.500857774512976	2.15
C 	57.13062377813543	17.810621177296063	2.15
C 	57.555261703139074	19.165642443789178	2.15
C 	58.94106350509208	19.475405846572265	2.15
C 	59.365701430095726	20.83042711306538	2.15
C 	60.751503232048755	21.140190515848477	2.15
C 	61.1761411570524	22.49521178234159	2.15
C 	62.56194295900542	22.80497518512468	2.15
C 	62.986580884009065	24.159996451617793	2.15
C 	64.3723826859621	24.469759854400877	2.15
C 	64.79702061096573	25.82478112089399	2.15
C 	66.18282241291875	26.134544523677075	2.15
C 	66.6074603379224	27.48956579017019	2.15
C 	67.99326213987541	27.799329192953287	2.15
C 	68.41790006487905	29.154350459446402	2.15
C 	69.80370186683209	29.46411386222949	2.15
C 	70.22833979183572	30.819135128722603	2.15
C 	71.61414159378874	31.128898531505687	2.15
C 	72.0387795187924	32.4839197979988	2.15
C 	73.42458132074542	32.7936832007819	2.15
C 	73.84921924574905	34.14870446727501	2.15
C 	33.4830193007567	-0.07627912659832997	2.15
C 	34.86882110270972	0.23348427618475928	2.15
C 	35.293459027713354	1.5885055426778742	2.15
C 	36.67926082966638	1.898268945460965	2.15
C 	37.10389875467003	3.25329021195408	2.15
C 	38.48970055662304	3.5630536147371656	2.15
C 	38.914338481626686	4.918074881230281	2.15
C 	40.300140283579715	5.2278382840133695	2.15
C 	40.72477820858335	6.582859550506485	2.15
C 	42.110580010536374	6.89262295328957	2.15
C 	42.53521793554002	8.247644219782686	2.15
C 	43.92101973749304	8.557407622565776	2.15
C 	44.345657662496684	9.91242888905889	2.15
C 	45.731459464449706	10.222192291841983	2.15
C 	46.15609738945334	11.577213558335098	2.15
C 	47.54189919140637	11.886976961118181	2.15
C 	47.96653711641002	13.241998227611296	2.15
C 	49.35233891836304	13.551761630394386	2.15
C 	49.77697684336668	14.906782896887501	2.15
C 	51.1627786453197	15.216546299670593	2.15
C 	51.58741657032334	16.571567566163708	2.15
C 	52.97321837227637	16.88133096894679	2.15
C 	53.397856297280015	18.236352235439906	2.15
C 	54.78365809923303	18.546115638223	2.15
C 	55.208296024236674	19.901136904716115	2.15
C 	56.59409782618969	20.210900307499205	2.15
C 	57.01873575119333	21.56592157399232	2.15
C 	58.404537553146355	21.875684976775407	2.15
C 	58.82917547815	23.23070624326852	2.15
C 	60.21497728010302	23.54046964605161	2.15
C 	60.639615205106665	24.895490912544723	2.15
C 	62.02541700705968	25.205254315327817	2.15
C 	62.450054932063324	26.56027558182093	2.15
C 	63.83585673401635	26.870038984604015	2.15
C 	64.26049465902	28.22506025109713	2.15
C 	65.64629646097302	28.534823653880213	2.15
C 	66.07093438597666	29.889844920373328	2.15
C 	67.45673618792968	30.19960832315643	2.15
C 	67.88137411293333	31.554629589649544	2.15
C 	69.26717591488635	31.864392992432627	2.15
C 	69.69181383988999	33.21941425892574	2.15
C 	71.07761564184301	33.52917766170883	2.15
C 	71.50225356684665	34.88419892820194	2.15
C 	72.88805536879968	35.19396233098504	2.15
C 	73.31269329380332	36.548983597478156	2.15
C 	74.69849509575634	36.85874700026124	2.15
C 	75.12313302075998	38.21376826675435	2.15
C 	76.508934822713	38.523531669537434	2.15
C 	76.93357274771665	39.87855293603055	2.15
C 	31.136053621854302	0.6592153343286066	2.15
C 	32.52185542380732	0.9689787371116958	2.15
C 	32.94649334881096	2.3240000036048105	2.15
C 	34.33229515076398	2.6337634063878963	2.15
C 	34.75693307576763	3.9887846728810112	2.15
C 	36.14273487772064	4.298548075664104	2.15
C 	36.567372802724286	5.653569342157219	2.15
C 	37.953174604677315	5.963332744940303	2.15
C 	38.37781252968095	7.318354011433418	2.15
C 	39.763614331633974	7.6281174142165105	2.15
C 	40.18825225663762	8.983138680709626	2.15
C 	41.57405405859064	9.292902083492708	2.15
C 	41.998691983594284	10.647923349985822	2.15
C 	43.384493785547306	10.957686752768915	2.15
C 	43.80913171055094	12.312708019262029	2.15
C 	45.19493351250397	12.622471422045122	2.15
C 	45.61957143750762	13.977492688538236	2.15
C 	47.00537323946063	14.287256091321321	2.15
C 	47.430011164464275	15.642277357814436	2.15
C 	48.8158129664173	15.952040760597525	2.15
C 	49.24045089142094	17.30706202709064	2.15
C 	50.62625269337397	17.61682542987373	2.15
C 	51.050890618377615	18.971846696366846	2.15
C 	52.43669242033063	19.281610099149933	2.15
C 	52.861330345334274	20.636631365643048	2.15
C 	54.24713214728729	20.94639476842614	2.15
C 	54.67177007229093	22.301416034919253	2.15
C 	56.05757187424396	22.611179437702344	2.15
C 	56.482209799247606	23.966200704195458	2.15
C 	57.868011601200614	24.275964106978545	2.15
C 	58.29264952620426	25.63098537347166	2.15
C 	59.67845132815728	25.94074877625475	2.15
C 	60.103089253160924	27.295770042747865	2.15
C 	61.488891055113946	27.605533445530956	2.15
C 	61.91352898011759	28.96055471202407	2.15
C 	63.29933078207061	29.270318114807154	2.15
C 	63.723968707074256	30.625339381300268	2.15
C 	65.10977050902729	30.935102784083355	2.15
C 	65.53440843403092	32.290124050576466	2.15
C 	66.92021023598394	32.599887453359564	2.15
C 	67.34484816098758	33.95490871985268	2.15
C 	68.7306499629406	34.264672122635766	2.15
C 	69.15528788794425	35.619693389128884	2.15
C 	70.54108968989728	35.92945679191197	2.15
C 	70.96572761490091	37.28447805840508	2.15
C 	72.35152941685394	37.594241461188176	2.15
C 	72.77616734185759	38.949262727681294	2.15
C 	74.1619691438106	39.25902613046438	2.15
C 	74.58660706881425	40.614047396957496	2.15
C 	75.97240887076727	40.92381079974058	2.15
C 	76.39704679577092	42.27883206623369	2.15
C 	26.978648215995232	-0.2700748740206694	2.15
C 	28.364450017948258	0.03968852876242146	2.15
C 	28.789087942951898	1.394709795255533	2.15
C 	30.174889744904917	1.7044731980386272	2.15
C 	30.59952766990856	3.059494464531739	2.15
C 	31.985329471861586	3.3692578673148295	2.15
C 	32.40996739686523	4.724279133807941	2.15
C 	33.79576919881825	5.034042536591033	2.15
C 	34.22040712382189	6.389063803084145	2.15
C 	35.606208925774915	6.698827205867238	2.15
C 	36.03084685077856	8.053848472360349	2.15
C 	37.416648652731574	8.36361187514344	2.15
C 	37.84128657773522	9.71863314163655	2.15
C 	39.22708837968824	10.028396544419644	2.15
C 	39.651726304691884	11.383417810912755	2.15
C 	41.0375281066449	11.693181213695844	2.15
C 	41.46216603164854	13.048202480188957	2.15
C 	42.84796783360157	13.35796588297205	2.15
C 	43.272605758605216	14.71298714946516	2.15
C 	44.65840756055823	15.022750552248256	2.15
C 	45.083045485561875	16.37777181874137	2.15
C 	46.4688472875149	16.687535221524456	2.15
C 	46.89348521251854	18.042556488017567	2.15
C 	48.27928701447157	18.352319890800658	2.15
C 	48.703924939475215	19.707341157293772	2.15
C 	50.08972674142823	20.017104560076863	2.15
C 	50.514364666431874	21.372125826569977	2.15
C 	51.900166468384896	21.68188922935306	2.15
C 	52.32480439338854	23.036910495846175	2.15
C 	53.71060619534156	23.346673898629277	2.15
C 	54.135244120345206	24.701695165122384	2.15
C 	55.52104592229823	25.011458567905475	2.15
C 	55.94568384730187	26.36647983439859	2.15
C 	57.33148564925489	26.676243237181673	2.15
C 	57.75612357425853	28.03126450367479	2.15
C 	59.14192537621155	28.34102790645789	2.15
C 	59.5665633012152	29.696049172950996	2.15
C 	60.95236510316821	30.005812575734087	2.15
C 	61.377003028171856	31.3608338422272	2.15
C 	62.76280483012488	31.670597245010285	2.15
C 	63.18744275512852	33.0256185115034	2.15
C 	64.57324455708155	33.33538191428649	2.15
C 	64.99788248208519	34.6904031807796	2.15
C 	66.38368428403821	35.000166583562695	2.15
C 	66.80832220904185	36.35518785005581	2.15
C 	68.19412401099488	36.6649512528389	2.15
C 	68.61876193599852	38.019972519332015	2.15
C 	70.00456373795154	38.3297359221151	2.15
C 	70.42920166295518	39.68475718860821	2.15
C 	71.8150034649082	39.99452059139131	2.15
C 	72.23964138991185	41.349541857884425	2.15
C 	73.62544319186487	41.65930526066751	2.15
C 	74.05008111686851	43.01432652716063	2.15
C 	75.43588291882153	43.3240899299437	2.15
C 	75.86052084382519	44.67911119643682	2.15
C 	24.631682537092836	0.46541958690626456	2.15
C 	26.017484339045858	0.7751829896893528	2.15
C 	26.442122264049498	2.130204256182466	2.15
C 	27.827924066002517	2.439967658965557	2.15
C 	28.25256199100616	3.79498892545867	2.15
C 	29.638363792959186	4.104752328241763	2.15
C 	30.06300171796283	5.459773594734876	2.15
C 	31.448803519915845	5.769536997517965	2.15
C 	31.87344144491949	7.1245582640110765	2.15
C 	33.259243246872515	7.434321666794167	2.15
C 	33.68388117187616	8.789342933287282	2.15
C 	35.069682973829174	9.099106336070374	2.15
C 	35.49432089883282	10.45412760256349	2.15
C 	36.88012270078585	10.763891005346572	2.15
C 	37.30476062578949	12.118912271839687	2.15
C 	38.690562427742506	12.42867567462278	2.15
C 	39.11520035274614	13.783696941115894	2.15
C 	40.50100215469917	14.093460343898979	2.15
C 	40.925640079702816	15.448481610392093	2.15
C 	42.31144188165583	15.758245013175186	2.15
C 	42.736079806659475	17.113266279668302	2.15
C 	44.1218816086125	17.42302968245139	2.15
C 	44.54651953361614	18.778050948944504	2.15
C 	45.93232133556916	19.08781435172759	2.15
C 	46.35695926057281	20.442835618220705	2.15
C 	47.74276106252583	20.752599021003796	2.15
C 	48.167398987529474	22.10762028749691	2.15
C 	49.553200789482496	22.41738369028	2.15
C 	49.97783871448614	23.772404956773116	2.15
C 	51.36364051643916	24.082168359556203	2.15
C 	51.788278441442806	25.437189626049317	2.15
C 	53.17408024339582	25.746953028832408	2.15
C 	53.598718168399465	27.101974295325522	2.15
C 	54.98451997035249	27.411737698108613	2.15
C 	55.40915789535613	28.766758964601728	2.15
C 	56.79495969730915	29.076522367384815	2.15
C 	57.2195976223128	30.43154363387793	2.15
C 	58.60539942426582	30.74130703666102	2.15
C 	59.03003734926946	32.09632830315413	2.15
C 	60.41583915122247	32.40609170593723	2.15
C 	60.840477076226115	33.76111297243034	2.15
C 	62.226278878179144	34.07087637521342	2.15
C 	62.65091680318279	35.42589764170654	2.15
C 	64.0367186051358	35.735661044489625	2.15
C 	64.46135653013945	37.090682310982736	2.15
C 	65.84715833209248	37.40044571376584	2.15
C 	66.27179625709611	38.75546698025895	2.15
C 	67.65759805904914	39.065230383042035	2.15
C 	68.08223598405279	40.42025164953515	2.15
C 	69.4680377860058	40.73001505231824	2.15
C 	69.89267571100945	42.08503631881135	2.15
C 	71.27847751296247	42.39479972159445	2.15
C 	71.70311543796612	43.74982098808756	2.15
C 	73.08891723991913	44.05958439087065	2.15
C 	73.51355516492278	45.41460565736376	2.15
C 	74.8993569668758	45.724369060146856	2.15
C 	20.47427713123377	-0.4638706214430089	2.15
C 	21.86007893318679	-0.15410721865991975	2.15
C 	22.284716858190432	1.2009140478331934	2.15
C 	23.670518660143458	1.510677450616287	2.15
C 	24.095156585147098	2.8656987171094	2.15
C 	25.48095838710012	3.1754621198924893	2.15
C 	25.905596312103764	4.530483386385602	2.15
C 	27.291398114056786	4.840246789168691	2.15
C 	27.716036039060427	6.195268055661804	2.15
C 	29.101837841013445	6.505031458444898	2.15
C 	29.52647576601709	7.86005272493801	2.15
C 	30.912277567970115	8.1698161277211	2.15
C 	31.33691549297376	9.524837394214215	2.15
C 	32.722717294926774	9.834600796997304	2.15
C 	33.14735521993042	11.189622063490415	2.15
C 	34.53315702188345	11.499385466273509	2.15
C 	34.95779494688709	12.85440673276662	2.15
C 	36.343596748840106	13.164170135549709	2.15
C 	36.76823467384375	14.519191402042821	2.15
C 	38.15403647579677	14.828954804825914	2.15
C 	38.578674400800416	16.183976071319023	2.15
C 	39.96447620275343	16.493739474102114	2.15
C 	40.389114127757075	17.848760740595225	2.15
C 	41.7749159297101	18.15852414337832	2.15
C 	42.19955385471374	19.51354540987143	2.15
C 	43.58535565666676	19.823308812654528	2.15
C 	44.00999358167041	21.17833007914764	2.15
C 	45.39579538362343	21.48809348193073	2.15
C 	45.820433308627074	22.843114748423837	2.15
C 	47.206235110580096	23.152878151206927	2.15
C 	47.63087303558374	24.50789941770004	2.15
C 	49.01667483753676	24.81766282048314	2.15
C 	49.441312762540406	26.17268408697625	2.15
C 	50.82711456449343	26.482447489759338	2.15
C 	51.25175248949707	27.837468756252445	2.15
C 	52.63755429145009	28.14723215903554	2.15
C 	53.06219221645373	29.502253425528654	2.15
C 	54.44799401840676	29.81201682831175	2.15
C 	54.872631943410404	31.16703809480486	2.15
C 	56.25843374536342	31.476801497587953	2.15
C 	56.68307167036706	32.83182276408106	2.15
C 	58.068873472320085	33.14158616686415	2.15
C 	58.49351139732373	34.49660743335726	2.15
C 	59.87931319927675	34.80637083614037	2.15
C 	60.303951124280395	36.16139210263347	2.15
C 	61.68975292623341	36.47115550541656	2.15
C 	62.114390851237054	37.82617677190967	2.15
C 	63.500192653190076	38.13594017469276	2.15
C 	63.92483057819372	39.49096144118587	2.15
C 	65.31063238014674	39.80072484396897	2.15
C 	65.73527030515038	41.15574611046208	2.15
C 	67.1210721071034	41.46550951324517	2.15
C 	67.54571003210705	42.820530779738284	2.15
C 	68.93151183406007	43.130294182521375	2.15
C 	69.35614975906371	44.48531544901448	2.15
C 	70.74195156101673	44.795078851797584	2.15
C 	71.16658948602038	46.1501001182907	2.15
C 	72.55239128797339	46.459863521073785	2.15
C 	18.12731145233137	0.27162383948392504	2.15
C 	19.51311325428439	0.5813872422670142	2.15
C 	19.937751179288036	1.9364085087601275	2.15
C 	21.323552981241054	2.2461719115432173	2.15
C 	21.748190906244698	3.6011931780363304	2.15
C 	23.13399270819772	3.9109565808194233	2.15
C 	23.558630633201364	5.265977847312536	2.15
C 	24.94443243515439	5.575741250095625	2.15
C 	25.369070360158034	6.930762516588738	2.15
C 	26.75487216211105	7.240525919371829	2.15
C 	27.179510087114693	8.595547185864943	2.15
C 	28.565311889067715	8.905310588648032	2.15
C 	28.98994981407136	10.260331855141146	2.15
C 	30.375751616024377	10.570095257924239	2.15
C 	30.80038954102802	11.925116524417351	2.15
C 	32.18619134298105	12.234879927200438	2.15
C 	32.61082926798469	13.589901193693553	2.15
C 	33.996631069937706	13.899664596476644	2.15
C 	34.42126899494135	15.254685862969758	2.15
C 	35.80707079689437	15.564449265752843	2.15
C 	36.231708721898016	16.919470532245956	2.15
C 	37.61751052385104	17.22923393502905	2.15
C 	38.04214844885468	18.584255201522165	2.15
C 	39.427950250807704	18.89401860430525	2.15
C 	39.85258817581135	20.249039870798363	2.15
C 	41.23838997776436	20.558803273581454	2.15
C 	41.66302790276801	21.91382454007457	2.15
C 	43.04882970472103	22.223587942857662	2.15
C 	43.473467629724674	23.578609209350777	2.15
C 	44.85926943167769	23.88837261213386	2.15
C 	45.28390735668133	25.243393878626975	2.15
C 	46.66970915863436	25.553157281410066	2.15
C 	47.094347083638006	26.90817854790318	2.15
C 	48.48014888559103	27.21794195068627	2.15
C 	48.90478681059467	28.572963217179385	2.15
C 	50.29058861254769	28.882726619962472	2.15
C 	50.71522653755133	30.237747886455587	2.15
C 	52.10102833950435	30.54751128923868	2.15
C 	52.525666264508	31.902532555731796	2.15
C 	53.91146806646102	32.212295958514886	2.15
C 	54.33610599146466	33.567317225008	2.15
C 	55.72190779341768	33.87708062779109	2.15
C 	56.14654571842132	35.2321018942842	2.15
C 	57.53234752037435	35.54186529706729	2.15
C 	57.956985445377995	36.89688656356041	2.15
C 	59.34278724733101	37.2066499663435	2.15
C 	59.767425172334654	38.56167123283661	2.15
C 	61.153226974287676	38.87143463561969	2.15
C 	61.57786489929132	40.22645590211281	2.15
C 	62.963666701244335	40.536219304895894	2.15
C 	63.38830462624798	41.891240571389005	2.15
C 	64.774106428201	42.20100397417211	2.15
C 	65.19874435320465	43.55602524066522	2.15
C 	66.58454615515767	43.865788643448305	2.15
C 	67.00918408016132	45.22080990994142	2.15
C 	68.39498588211433	45.530573312724506	2.15
C 	13.969906046472307	-0.657666368865345	2.15
C 	15.355707848425329	-0.34790296608225413	2.15
C 	15.780345773428971	1.007118300410859	2.15
C 	17.16614757538199	1.3168817031939481	2.15
C 	17.590785500385635	2.6719029696870615	2.15
C 	18.976587302338658	2.9816663724701513	2.15
C 	19.401225227342298	4.336687638963265	2.15
C 	20.78702702929532	4.646451041746354	2.15
C 	21.211664954298964	6.0014723082394665	2.15
C 	22.597466756251986	6.311235711022561	2.15
C 	23.02210468125563	7.6662569775156735	2.15
C 	24.40790648320865	7.976020380298762	2.15
C 	24.832544408212293	9.331041646791874	2.15
C 	26.218346210165315	9.640805049574967	2.15
C 	26.64298413516896	10.995826316068081	2.15
C 	28.02878593712198	11.305589718851172	2.15
C 	28.453423862125625	12.660610985344286	2.15
C 	29.83922566407864	12.970374388127375	2.15
C 	30.263863589082284	14.325395654620486	2.15
C 	31.649665391035306	14.635159057403577	2.15
C 	32.07430331603895	15.990180323896691	2.15
C 	33.46010511799197	16.299943726679782	2.15
C 	33.884743042995616	17.654964993172896	2.15
C 	35.27054484494864	17.964728395955984	2.15
C 	35.69518276995228	19.319749662449098	2.15
C 	37.0809845719053	19.62951306523219	2.15
C 	37.50562249690894	20.984534331725303	2.15
C 	38.89142429886196	21.294297734508387	2.15
C 	39.31606222386561	22.649319001001505	2.15
C 	40.70186402581863	22.959082403784596	2.15
C 	41.126501950822274	24.31410367027771	2.15
C 	42.51230375277529	24.6238670730608	2.15
C 	42.93694167777893	25.978888339553915	2.15
C 	44.32274347973196	26.288651742337	2.15
C 	44.747381404735606	27.643673008830113	2.15
C 	46.13318320668863	27.953436411613204	2.15
C 	46.55782113169227	29.30845767810632	2.15
C 	47.94362293364529	29.61822108088941	2.15
C 	48.36826085864893	30.973242347382524	2.15
C 	49.75406266060196	31.28300575016561	2.15
C 	50.178700585605604	32.638027016658725	2.15
C 	51.56450238755862	32.947790419441816	2.15
C 	51.98914031256226	34.302811685934934	2.15
C 	53.374942114515285	34.61257508871802	2.15
C 	53.79958003951893	35.967596355211136	2.15
C 	55.18538184147195	36.27735975799422	2.15
C 	55.610019766475595	37.63238102448734	2.15
C 	56.99582156842862	37.94214442727043	2.15
C 	57.42045949343226	39.29716569376354	2.15
C 	58.806261295385276	39.60692909654664	2.15
C 	59.23089922038892	40.96195036303975	2.15
C 	60.61670102234195	41.27171376582283	2.15
C 	61.041338947345594	42.62673503231595	2.15
C 	62.42714074929861	42.93649843509903	2.15
C 	62.85177867430225	44.291519701592144	2.15
C 	64.23758047625527	44.60128310437525	2.15
C 	64.66221840125891	45.95630437086836	2.15
C 	66.04802020321193	46.26606777365144	2.15
C 	11.622940367569907	0.077828092061586	2.15
C 	13.008742169522929	0.3875914948446764	2.15
C 	13.433380094526571	1.7426127613377895	2.15
C 	14.819181896479593	2.0523761641208815	2.15
C 	15.243819821483235	3.4073974306139947	2.15
C 	16.629621623436257	3.7171608333970836	2.15
C 	17.0542595484399	5.072182099890197	2.15
C 	18.440061350392924	5.381945502673286	2.15
C 	18.864699275396564	6.736966769166399	2.15
C 	20.250501077349586	7.0467301719494895	2.15
C 	20.675139002353227	8.401751438442602	2.15
C 	22.06094080430625	8.711514841225695	2.15
C 	22.485578729309893	10.066536107718807	2.15
C 	23.871380531262915	10.376299510501898	2.15
C 	24.29601845626656	11.731320776995013	2.15
C 	25.68182025821958	12.041084179778101	2.15
C 	26.10645818322322	13.396105446271212	2.15
C 	27.492259985176243	13.705868849054307	2.15
C 	27.916897910179888	15.06089011554742	2.15
C 	29.30269971213291	15.37065351833051	2.15
C 	29.727337637136554	16.725674784823624	2.15
C 	31.113139439089572	17.03543818760671	2.15
C 	31.537777364093213	18.390459454099823	2.15
C 	32.92357916604624	18.70022285688292	2.15
C 	33.34821709104988	20.05524412337603	2.15
C 	34.7340188930029	20.36500752615912	2.15
C 	35.15865681800654	21.72002879265223	2.15
C 	36.54445861995956	22.029792195435324	2.15
C 	36.96909654496321	23.384813461928434	2.15
C 	38.35489834691623	23.69457686471153	2.15
C 	38.77953627191987	25.049598131204636	2.15
C 	40.165338073872896	25.359361533987727	2.15
C 	40.58997599887654	26.71438280048084	2.15
C 	41.97577780082956	27.02414620326394	2.15
C 	42.400415725833206	28.379167469757046	2.15
C 	43.78621752778622	28.688930872540137	2.15
C 	44.210855452789865	30.043952139033244	2.15
C 	45.59665725474289	30.353715541816335	2.15
C 	46.02129517974653	31.708736808309453	2.15
C 	47.40709698169956	32.01850021109255	2.15
C 	47.831734906703204	33.373521477585655	2.15
C 	49.21753670865622	33.683284880368745	2.15
C 	49.64217463365986	35.038306146861856	2.15
C 	51.02797643561288	35.34806954964495	2.15
C 	51.45261436061652	36.703090816138065	2.15
C 	52.83841616256955	37.01285421892116	2.15
C 	53.263054087573195	38.36787548541427	2.15
C 	54.64885588952621	38.677638888197365	2.15
C 	55.073493814529854	40.03266015469047	2.15
C 	56.459295616482876	40.34242355747356	2.15
C 	56.88393354148652	41.69744482396668	2.15
C 	58.26973534343954	42.007208226749775	2.15
C 	58.69437326844319	43.36222949324288	2.15
C 	60.08017507039621	43.67199289602597	2.15
C 	60.50481299539985	45.02701416251908	2.15
C 	61.890614797352875	45.33677756530217	2.15
C 	7.465534961710842	-0.8514621162876845	2.15
C 	8.851336763663863	-0.5416987135045941	2.15
C 	9.275974688667507	0.8133225529885191	2.15
C 	10.661776490620527	1.1230859557716086	2.15
C 	11.086414415624171	2.478107222264722	2.15
C 	12.472216217577195	2.7878706250478125	2.15
C 	12.896854142580837	4.142891891540925	2.15
C 	14.282655944533857	4.452655294324016	2.15
C 	14.707293869537502	5.807676560817131	2.15
C 	16.093095671490524	6.117439963600219	2.15
C 	16.517733596494164	7.472461230093334	2.15
C 	17.903535398447186	7.782224632876422	2.15
C 	18.32817332345083	9.137245899369537	2.15
C 	19.713975125403852	9.447009302152624	2.15
C 	20.138613050407496	10.802030568645739	2.15
C 	21.524414852360515	11.111793971428831	2.15
C 	21.94905277736416	12.466815237921946	2.15
C 	23.33485457931718	12.776578640705033	2.15
C 	23.759492504320825	14.131599907198147	2.15
C 	25.145294306273843	14.441363309981236	2.15
C 	25.569932231277487	15.79638457647435	2.15
C 	26.95573403323051	16.106147979257443	2.15
C 	27.380371958234154	17.461169245750558	2.15
C 	28.766173760187176	17.770932648533645	2.15
C 	29.190811685190816	19.12595391502676	2.15
C 	30.576613487143838	19.435717317809846	2.15
C 	31.001251412147482	20.79073858430296	2.15
C 	32.3870532141005	21.100501987086055	2.15
C 	32.81169113910414	22.45552325357917	2.15
C 	34.19749294105716	22.765286656362253	2.15
C 	34.62213086606081	24.120307922855368	2.15
C 	36.00793266801383	24.43007132563846	2.15
C 	36.43257059301747	25.785092592131573	2.15
C 	37.818372394970496	26.094855994914656	2.15
C 	38.24301031997414	27.44987726140777	2.15
C 	39.62881212192716	27.759640664190865	2.15
C 	40.053450046930806	29.11466193068398	2.15
C 	41.43925184888383	29.42442533346707	2.15
C 	41.863889773887465	30.779446599960185	2.15
C 	43.24969157584049	31.08921000274327	2.15
C 	43.67432950084413	32.44423126923638	2.15
C 	45.06013130279716	32.75399467201947	2.15
C 	45.484769227800804	34.10901593851259	2.15
C 	46.87057102975382	34.41877934129568	2.15
C 	47.29520895475746	35.77380060778879	2.15
C 	48.681010756710485	36.083564010571884	2.15
C 	49.10564868171413	37.438585277064995	2.15
C 	50.49145048366715	37.748348679848085	2.15
C 	50.916088408670795	39.1033699463412	2.15
C 	52.30189021062382	39.413133349124294	2.15
C 	52.72652813562746	40.768154615617405	2.15
C 	54.112329937580476	41.077918018400496	2.15
C 	54.53696786258412	42.43293928489361	2.15
C 	55.92276966453715	42.7427026876767	2.15
C 	56.34740758954079	44.09772395416981	2.15
C 	57.73320939149381	44.407487356952906	2.15
C 	58.15784731649745	45.76250862344602	2.15
C 	59.543649118450475	46.0722720262291	2.15
C 	5.118569282808442	-0.1159676553607518	2.15
C 	6.504371084761464	0.1937957474223382	2.15
C 	6.929009009765108	1.5488170139154513	2.15
C 	8.314810811718129	1.8585804166985418	2.15
C 	8.739448736721773	3.213601683191655	2.15
C 	10.125250538674793	3.5233650859747447	2.15
C 	10.549888463678435	4.8783863524678575	2.15
C 	11.935690265631457	5.188149755250949	2.15
C 	12.360328190635101	6.543171021744063	2.15
C 	13.746129992588122	6.852934424527153	2.15
C 	14.170767917591766	8.207955691020267	2.15
C 	15.556569719544786	8.517719093803356	2.15
C 	15.981207644548428	9.87274036029647	2.15
C 	17.36700944650145	10.18250376307956	2.15
C 	17.791647371505093	11.537525029572672	2.15
C 	19.177449173458115	11.847288432355764	2.15
C 	19.60208709846176	13.202309698848875	2.15
C 	20.98788890041478	13.51207310163197	2.15
C 	21.412526825418425	14.86709436812508	2.15
C 	22.798328627371443	15.176857770908168	2.15
C 	23.222966552375087	16.531879037401282	2.15
C 	24.60876835432811	16.841642440184373	2.15
C 	25.033406279331754	18.196663706677487	2.15
C 	26.419208081284776	18.50642710946058	2.15
C 	26.843846006288416	19.861448375953692	2.15
C 	28.229647808241438	20.17121177873678	2.15
C 	28.654285733245082	21.526233045229894	2.15
C 	30.040087535198104	21.835996448012985	2.15
C 	30.46472546020175	23.1910177145061	2.15
C 	31.85052726215477	23.500781117289193	2.15
C 	32.275165187158414	24.855802383782308	2.15
C 	33.66096698911143	25.16556578656539	2.15
C 	34.08560491411507	26.520587053058506	2.15
C 	35.471406716068095	26.830350455841597	2.15
C 	35.89604464107174	28.185371722334704	2.15
C 	37.28184644302476	28.4951351251178	2.15
C 	37.7064843680284	29.850156391610906	2.15
C 	39.09228616998143	30.159919794394003	2.15
C 	39.516924094985065	31.514941060887118	2.15
C 	40.90272589693809	31.82470446367021	2.15
C 	41.32736382194173	33.17972573016332	2.15
C 	42.71316562389475	33.48948913294641	2.15
C 	43.1378035488984	34.844510399439514	2.15
C 	44.523605350851426	35.15427380222261	2.15
C 	44.94824327585506	36.50929506871573	2.15
C 	46.334045077808085	36.81905847149882	2.15
C 	46.75868300281173	38.174079737991924	2.15
C 	48.14448480476475	38.48384314077502	2.15
C 	48.56912272976839	39.838864407268126	2.15
C 	49.95492453172141	40.148627810051224	2.15
C 	50.379562456725054	41.50364907654434	2.15
C 	51.765364258678076	41.81341247932743	2.15
C 	52.19000218368172	43.168433745820536	2.15
C 	53.57580398563474	43.478197148603634	2.15
C 	54.00044191063838	44.83321841509674	2.15
C 	55.38624371259141	45.142981817879836	2.15
C 	55.81088163759505	46.498003084372954	2.15
C 	57.19668343954807	46.807766487156044	2.15
C 	2.7716036039060428	0.6195268055661807	2.15
C 	4.157405405859064	0.9292902083492709	2.15
C 	4.5820433308627075	2.2843114748423843	2.15
C 	5.967845132815729	2.5940748776254745	2.15
C 	6.392483057819372	3.9490961441185877	2.15
C 	7.778284859772393	4.258859546901678	2.15
C 	8.202922784776035	5.6138808133947915	2.15
C 	9.588724586729057	5.923644216177882	2.15
C 	10.0133625117327	7.278665482670993	2.15
C 	11.399164313685722	7.588428885454084	2.15
C 	11.823802238689366	8.943450151947198	2.15
C 	13.209604040642388	9.25321355473029	2.15
C 	13.63424196564603	10.608234821223402	2.15
C 	15.020043767599052	10.917998224006492	2.15
C 	15.444681692602694	12.273019490499605	2.15
C 	16.830483494555715	12.582782893282696	2.15
C 	17.25512141955936	13.937804159775807	2.15
C 	18.64092322151238	14.2475675625589	2.15
C 	19.06556114651602	15.60258882905201	2.15
C 	20.451362948469043	15.912352231835104	2.15
C 	20.876000873472687	17.267373498328215	2.15
C 	22.261802675425713	17.577136901111306	2.15
C 	22.686440600429354	18.932158167604417	2.15
C 	24.072242402382376	19.24192157038751	2.15
C 	24.496880327386016	20.596942836880622	2.15
C 	25.882682129339038	20.906706239663716	2.15
C 	26.307320054342682	22.261727506156827	2.15
C 	27.693121856295704	22.571490908939918	2.15
C 	28.11775978129935	23.92651217543303	2.15
C 	29.50356158325237	24.23627557821612	2.15
C 	29.92819950825601	25.591296844709234	2.15
C 	31.314001310209033	25.901060247492325	2.15
C 	31.738639235212677	27.25608151398544	2.15
C 	33.124441037165695	27.565844916768523	2.15
C 	33.54907896216934	28.920866183261637	2.15
C 	34.93488076412236	29.23062958604473	2.15
C 	35.359518689126006	30.585650852537846	2.15
C 	36.74532049107902	30.89541425532093	2.15
C 	37.169958416082665	32.25043552181404	2.15
C 	38.55576021803569	32.56019892459713	2.15
C 	38.98039814303933	33.91522019109025	2.15
C 	40.36619994499235	34.22498359387334	2.15
C 	40.790837869996	35.58000486036646	2.15
C 	42.17663967194902	35.88976826314954	2.15
C 	42.60127759695266	37.24478952964265	2.15
C 	43.987079398905685	37.55455293242574	2.15
C 	44.41171732390933	38.90957419891886	2.15
C 	45.79751912586235	39.21933760170195	2.15
C 	46.222157050865995	40.57435886819506	2.15
C 	47.60795885281902	40.884122270978146	2.15
C 	48.03259677782266	42.239143537471264	2.15
C 	49.418398579775676	42.548906940254355	2.15
C 	49.84303650477932	43.90392820674747	2.15
C 	51.22883830673235	44.213691609530564	2.15
C 	51.65347623173599	45.568712876023675	2.15
C 	53.03927803368901	45.878476278806765	2.15
C 	1.8104397269566646	1.6647846692762036	2.15
C 	2.235077651960308	3.0198059357693166	2.15
C 	3.620879453913329	3.329569338552407	2.15
C 	4.045517378916973	4.68459060504552	2.15
C 	5.431319180869994	4.99435400782861	2.15
C 	5.855957105873637	6.349375274321724	2.15
C 	7.241758907826658	6.659138677104814	2.15
C 	7.666396832830301	8.014159943597928	2.15
C 	9.052198634783322	8.323923346381017	2.15
C 	9.476836559786966	9.67894461287413	2.15
C 	10.862638361739988	9.98870801565722	2.15
C 	11.287276286743632	11.343729282150335	2.15
C 	12.673078088696652	11.653492684933425	2.15
C 	13.097716013700294	13.008513951426536	2.15
C 	14.483517815653316	13.318277354209629	2.15
C 	14.90815574065696	14.673298620702743	2.15
C 	16.29395754260998	14.98306202348583	2.15
C 	16.718595467613625	16.338083289978943	2.15
C 	18.104397269566643	16.647846692762034	2.15
C 	18.529035194570287	18.00286795925515	2.15
C 	19.91483699652331	18.31263136203824	2.15
C 	20.339474921526953	19.667652628531354	2.15
C 	21.725276723479976	19.97741603131444	2.15
C 	22.14991464848362	21.33243729780755	2.15
C 	23.53571645043664	21.642200700590646	2.15
C 	23.960354375440286	22.99722196708376	2.15
C 	25.346156177393304	23.30698536986685	2.15
C 	25.77079410239695	24.662006636359965	2.15
C 	27.15659590434997	24.971770039143053	2.15
C 	27.58123382935361	26.326791305636164	2.15
C 	28.967035631306633	26.636554708419258	2.15
C 	29.391673556310277	27.991575974912372	2.15
C 	30.7774753582633	28.301339377695463	2.15
C 	31.202113283266943	29.656360644188577	2.15
C 	32.58791508521996	29.96612404697166	2.15
C 	33.012553010223606	31.321145313464775	2.15
C 	34.39835481217663	31.630908716247866	2.15
C 	34.82299273718027	32.985929982740984	2.15
C 	36.20879453913329	33.29569338552407	2.15
C 	36.63343246413693	34.650714652017186	2.15
C 	38.01923426608995	34.96047805480028	2.15
C 	38.4438721910936	36.31549932129339	2.15
C 	39.82967399304662	36.62526272407648	2.15
C 	40.25431191805026	37.980283990569596	2.15
C 	41.640113720003285	38.29004739335268	2.15
C 	42.06475164500693	39.64506865984579	2.15
C 	43.45055344695995	39.95483206262888	2.15
C 	43.875191371963595	41.309853329122	2.15
C 	45.26099317391662	41.61961673190509	2.15
C 	45.68563109892026	42.9746379983982	2.15
C 	47.07143290087328	43.28440140118129	2.15
C 	47.49607082587693	44.6394226676744	2.15
C 	48.88187262782994	44.94918607045749	2.15
C 	49.306510552833586	46.30420733695061	2.15
C 	50.69231235478661	46.6139707397337	2.15
C 	4.894793228924259	7.394633138031747	2.15
C 	5.319431153927902	8.74965440452486	2.15
C 	6.705232955880923	9.059417807307948	2.15
C 	7.1298708808845666	10.414439073801065	2.15
C 	8.515672682837588	10.724202476584152	2.15
C 	8.940310607841232	12.079223743077266	2.15
C 	10.326112409794252	12.388987145860357	2.15
C 	10.750750334797896	13.74400841235347	2.15
C 	12.136552136750918	14.05377181513656	2.15
C 	12.56119006175456	15.408793081629675	2.15
C 	13.94699186370758	15.718556484412764	2.15
C 	14.371629788711225	17.07357775090588	2.15
C 	15.757431590664245	17.383341153688967	2.15
C 	16.18206951566789	18.73836242018208	2.15
C 	17.56787131762091	19.04812582296517	2.15
C 	17.992509242624553	20.403147089458283	2.15
C 	19.378311044577575	20.712910492241374	2.15
C 	19.802948969581216	22.06793175873449	2.15
C 	21.18875077153424	22.37769516151758	2.15
C 	21.613388696537886	23.732716428010693	2.15
C 	22.999190498490904	24.04247983079378	2.15
C 	23.423828423494548	25.397501097286895	2.15
C 	24.80963022544757	25.707264500069986	2.15
C 	25.234268150451214	27.062285766563097	2.15
C 	26.620069952404233	27.372049169346187	2.15
C 	27.044707877407877	28.727070435839302	2.15
C 	28.4305096793609	29.036833838622396	2.15
C 	28.85514760436454	30.391855105115503	2.15
C 	30.240949406317565	30.7016185078986	2.15
C 	30.665587331321206	32.05663977439171	2.15
C 	32.05138913327423	32.3664031771748	2.15
C 	32.47602705827787	33.72142444366791	2.15
C 	33.861828860230894	34.031187846451004	2.15
C 	34.28646678523454	35.386209112944115	2.15
C 	35.67226858718756	35.695972515727206	2.15
C 	36.0969065121912	37.05099378222032	2.15
C 	37.48270831414422	37.360757185003415	2.15
C 	37.90734623914786	38.71577845149652	2.15
C 	39.293148041100885	39.025541854279616	2.15
C 	39.71778596610453	40.38056312077273	2.15
C 	41.10358776805755	40.69032652355582	2.15
C 	41.52822569306119	42.04534779004892	2.15
C 	42.91402749501422	42.35511119283202	2.15
C 	43.33866542001786	43.71013245932513	2.15
C 	44.72446722197088	44.01989586210823	2.15
C 	45.14910514697453	45.37491712860134	2.15
C 	46.53490694892755	45.68468053138443	2.15
C 	7.979146730891852	13.124481606787288	2.15
C 	8.403784655895496	14.479502873280403	2.15
C 	9.789586457848518	14.789266276063493	2.15
C 	10.214224382852162	16.144287542556608	2.15
C 	11.600026184805182	16.4540509453397	2.15
C 	12.024664109808826	17.80907221183281	2.15
C 	13.410465911761847	18.118835614615897	2.15
C 	13.83510383676549	19.473856881109015	2.15
C 	15.220905638718511	19.783620283892105	2.15
C 	15.645543563722153	21.138641550385216	2.15
C 	17.031345365675175	21.448404953168303	2.15
C 	17.45598329067882	22.803426219661418	2.15
C 	18.84178509263184	23.11318962244451	2.15
C 	19.266423017635486	24.468210888937627	2.15
C 	20.652224819588504	24.777974291720714	2.15
C 	21.076862744592148	26.13299555821383	2.15
C 	22.46266454654517	26.442758960996915	2.15
C 	22.887302471548814	27.79778022749003	2.15
C 	24.273104273501836	28.10754363027312	2.15
C 	24.697742198505477	29.462564896766235	2.15
C 	26.0835440004585	29.772328299549326	2.15
C 	26.508181925462143	31.127349566042433	2.15
C 	27.89398372741516	31.437112968825527	2.15
C 	28.318621652418805	32.79213423531864	2.15
C 	29.704423454371828	33.10189763810173	2.15
C 	30.12906137937547	34.45691890459485	2.15
C 	31.51486318132849	34.766682307377934	2.15
C 	31.939501106332134	36.121703573871045	2.15
C 	33.32530290828516	36.431466976654136	2.15
C 	33.749940833288804	37.786488243147254	2.15
C 	35.13574263524182	38.09625164593034	2.15
C 	35.56038056024546	39.451272912423455	2.15
C 	36.946182362198485	39.761036315206546	2.15
C 	37.37082028720213	41.11605758169966	2.15
C 	38.75662208915515	41.42582098448275	2.15
C 	39.181260014158795	42.780842250975866	2.15
C 	40.56706181611181	43.09060565375895	2.15
C 	40.991699741115454	44.44562692025207	2.15
C 	42.37750154306848	44.75539032303516	2.15
C 	42.80213946807213	46.11041158952827	2.15
C 	44.18794127002515	46.42017499231136	2.15
C 	11.063500232859447	18.854330075542833	2.15
C 	11.48813815786309	20.209351342035944	2.15
C 	12.873939959816111	20.51911474481904	2.15
C 	13.298577884819753	21.87413601131215	2.15
C 	14.684379686772775	22.18389941409524	2.15
C 	15.109017611776418	23.53892068058835	2.15
C 	16.494819413729438	23.84868408337144	2.15
C 	16.919457338733082	25.203705349864553	2.15
C 	18.305259140686104	25.51346875264765	2.15
C 	18.729897065689748	26.86849001914076	2.15
C 	20.115698867642774	27.178253421923852	2.15
C 	20.540336792646414	28.533274688416963	2.15
C 	21.926138594599436	28.843038091200054	2.15
C 	22.350776519603077	30.198059357693168	2.15
C 	23.7365783215561	30.50782276047626	2.15
C 	24.161216246559743	31.862844026969373	2.15
C 	25.547018048512765	32.17260742975246	2.15
C 	25.97165597351641	33.52762869624557	2.15
C 	27.35745777546943	33.83739209902866	2.15
C 	27.78209570047307	35.19241336552178	2.15
C 	29.167897502426094	35.50217676830487	2.15
C 	29.592535427429738	36.85719803479799	2.15
C 	30.978337229382756	37.16696143758107	2.15
C 	31.4029751543864	38.52198270407418	2.15
C 	32.788776956339426	38.831746106857274	2.15
C 	33.21341488134306	40.18676737335039	2.15
C 	34.599216683296085	40.496530776133476	2.15
C 	35.02385460829973	41.851552042626594	2.15
C 	36.40965641025275	42.161315445409684	2.15
C 	36.834294335256395	43.516336711902795	2.15
C 	38.22009613720942	43.826100114685886	2.15
C 	38.64473406221306	45.181121381179004	2.15
C 	40.030535864166076	45.49088478396209	2.15
C 	14.14785373482704	24.584178544298375	2.15
C 	14.572491659830684	25.93919981079149	2.15
C 	15.958293461783704	26.248963213574577	2.15
C 	16.382931386787348	27.60398448006769	2.15
C 	17.76873318874037	27.913747882850785	2.15
C 	18.19337111374401	29.268769149343896	2.15
C 	19.579172915697036	29.578532552126987	2.15
C 	20.00381084070068	30.9335538186201	2.15
C 	21.3896126426537	31.243317221403185	2.15
C 	21.814250567657343	32.5983384878963	2.15
C 	23.200052369610365	32.9081018906794	2.15
C 	23.62469029461401	34.26312315717251	2.15
C 	25.01049209656703	34.5728865599556	2.15
C 	25.43513002157067	35.92790782644871	2.15
C 	26.820931823523694	36.23767122923179	2.15
C 	27.245569748527338	37.59269249572491	2.15
C 	28.63137155048036	37.90245589850801	2.15
C 	29.056009475484004	39.25747716500112	2.15
C 	30.441811277437022	39.56724056778421	2.15
C 	30.866449202440663	40.922261834277315	2.15
C 	32.252251004393685	41.232025237060405	2.15
C 	32.67688892939733	42.58704650355352	2.15
C 	34.06269073135035	42.89680990633661	2.15
C 	34.487328656353995	44.251831172829725	2.15
C 	35.87313045830702	44.56159457561282	2.15
C 	36.29776838331066	45.91661584210593	2.15
C 	37.68357018526368	46.22637924488902	2.15
C 	19.0426469637513	31.978811682330118	2.15
C 	19.467284888754943	33.33383294882323	2.15
C 	20.853086690707965	33.64359635160633	2.15
C 	21.27772461571161	34.99861761809944	2.15
C 	22.66352641766463	35.30838102088253	2.15
C 	23.088164342668275	36.663402287375646	2.15
C 	24.473966144621293	36.97316569015873	2.15
C 	24.898604069624938	38.32818695665184	2.15
C 	26.28440587157796	38.63795035943494	2.15
C 	26.709043796581604	39.99297162592805	2.15
C 	28.094845598534626	40.30273502871114	2.15
C 	28.519483523538266	41.65775629520426	2.15
C 	29.90528532549129	41.96751969798734	2.15
C 	30.329923250494932	43.32254096448045	2.15
C 	31.71572505244795	43.632304367263544	2.15
C 	32.140362977451595	44.98732563375666	2.15
C 	33.52616477940462	45.297089036539745	2.15
C 	22.127000465718893	37.70866015108567	2.15
C 	22.551638390722538	39.06368141757878	2.15
C 	23.93744019267556	39.37344482036187	2.15
C 	24.362078117679204	40.728466086854986	2.15
C 	25.747879919632222	41.03822948963808	2.15
C 	26.172517844635866	42.39325075613119	2.15
C 	27.558319646588888	42.70301415891428	2.15
C 	27.98295757159253	44.05803542540739	2.15
C 	29.36875937354555	44.36779882819048	2.15
C 	29.79339729854919	45.72282009468359	2.15
C 	31.179199100502217	46.03258349746669	2.15
C 	25.211353967686488	43.43850861984121	2.15
C 	25.635991892690132	44.79352988633432	2.15
C 	27.021793694643154	45.10329328911742	2.15
C 	27.446431619646795	46.45831455561053	2.15
C 	28.832233421599817	46.76807795839362	2.15
H 	52.670178091481944	-0.5350138424140569	2.15
H 	55.119729163948215	0.01252569349126842	2.15
H 	56.93016889090487	1.6773103627674648	2.15
H 	57.68076127946765	4.072453587343321	2.15
H 	48.51277268562289	-1.464304050763325	2.15
H 	50.962323758089134	-0.9167645148580144	2.15
H 	58.20408266591581	5.742374162246818	2.15
H 	60.01452239287247	7.407158831523018	2.15
H 	60.76511478143525	9.802302056098874	2.15
H 	46.1658070067205	-0.7288095898363992	2.15
H 	61.28843616788339	11.472222631002348	2.15
H 	63.09887589484007	13.137007300278562	2.15
H 	63.84946828340284	15.532150524854407	2.15
H 	42.008401600861404	-1.658099798185658	2.15
H 	44.45795267332768	-1.110560262280351	2.15
H 	64.37278966985097	17.20207109975789	2.15
H 	66.18322939680765	18.86685576903409	2.15
H 	66.93382178537044	21.261998993609954	2.15
H 	39.66143592195903	-0.9226053372587354	2.15
H 	67.45714317181859	22.93191956851343	2.15
H 	69.26758289877525	24.59670423778965	2.15
H 	71.07802262573192	26.261488907065836	2.15
H 	71.82861501429468	28.656632131641704	2.15
H 	35.50403051609997	-1.8518955456080086	2.15
H 	37.95358158856622	-1.304356009702674	2.15
H 	72.35193640074284	30.326552706545172	2.15
H 	74.16237612769952	31.991337375821388	2.15
H 	74.91296851626228	34.38648060039725	2.15
H 	33.157064837197574	-1.1164010846810735	2.15
H 	75.43628990271044	36.05640117530072	2.15
H 	77.2467296296671	37.721185844576915	2.15
H 	77.9973220182299	40.116329069152776	2.15
H 	30.810099158295177	-0.380906623754138	2.15
H 	77.46079606628416	42.51660819935592	2.15
H 	26.652693752436093	-1.3101968321034092	2.15
H 	29.10224482490236	-0.7626572961980855	2.15
H 	76.92427011433843	44.916887329559046	2.15
H 	24.3057280735337	-0.5747023711764769	2.15
H 	75.22531143043491	46.764491018229606	2.15
H 	20.148322667674634	-1.5039925795257507	2.15
H 	22.597873740140894	-0.9564530436204279	2.15
H 	70.42879467906629	46.95244594325122	2.15
H 	72.8783457515325	47.49998547915653	2.15
H 	17.801356988772234	-0.7684981185988169	2.15
H 	68.72094034567344	46.57069527080725	2.15
H 	13.643951582913171	-1.697788326948087	2.15
H 	16.093502655379428	-1.1502487910427646	2.15
H 	63.924423594304805	46.758650195828864	2.15
H 	66.37397466677108	47.306189731734186	2.15
H 	11.296985904010771	-0.9622938660211559	2.15
H 	62.216569260912	46.376899523384914	2.15
H 	7.139580498151709	-1.8915840743704266	2.15
H 	9.589131570617962	-1.3440445384651047	2.15
H 	59.86960358200962	47.112393984311844	2.15
H 	4.792614819249307	-1.1560896134434935	2.15
H 	55.07308683064095	47.300348909333465	2.15
H 	57.52263790310719	47.84788844523879	2.15
H 	2.4456491403469083	-0.4205951525165612	2.15
H 	53.36523249724814	46.91859823688951	2.15
H 	0.7466904564434296	1.4270085361539726	2.15
H 	1.4972828450062075	3.822151760729827	2.15
H 	3.307722571962873	5.486936430006031	2.15
H 	48.56871574587949	47.10655316191112	2.15
H 	51.01826681834574	47.654092697816445	2.15
H 	3.8310439584110245	7.156857004909515	2.15
H 	4.581636346973802	9.55200022948537	2.15
H 	6.39207607393047	11.216784898761578	2.15
H 	46.86086141248668	46.72480248946717	2.15
H 	6.9153974603786175	12.886705473665057	2.15
H 	7.665989848941396	15.281848698240914	2.15
H 	9.476429575898063	16.94663336751712	2.15
H 	42.06434466111803	46.91275741448878	2.15
H 	44.51389573358429	47.4602969503941	2.15
H 	9.999750962346212	18.6165539424206	2.15
H 	10.75034335090899	21.011697166996456	2.15
H 	12.560783077865652	22.67648183627266	2.15
H 	40.356490327725204	46.53100674204483	2.15
H 	13.084104464313805	24.346402411176143	2.15
H 	13.834696852876586	26.741545635752004	2.15
H 	15.645136579833247	28.406330305028202	2.15
H 	17.455576306789908	30.071114974304404	2.15
H 	35.559973576356555	46.71896166706643	2.15
H 	38.00952464882281	47.26650120297176	2.15
H 	17.978897693238064	31.741035549207886	2.15
H 	18.72949008180084	34.13617877378374	2.15
H 	20.539929808757506	35.80096344305995	2.15
H 	33.852119242963745	46.33721099462249	2.15
H 	21.06325119520566	37.470884017963435	2.15
H 	21.813843583768435	39.86602724253929	2.15
H 	23.62428331072511	41.530811911815505	2.15
H 	31.505153564061356	47.07270545554943	2.15
H 	24.147604697173254	43.20073248671898	2.15
H 	24.898197085736026	45.59587571129482	2.15
H 	26.708636812692692	47.26066038057103	2.15
H 	29.158187885158956	47.80819991647636	2.15
