2330

C 	0.0	0.0	0.0
C 	1.2297560733739028	0.7099999999999999	0.0
C 	2.4595121467478056	-2.3647750424515833e-16	0.0
C 	3.689268220121708	0.7099999999999995	0.0
C 	4.919024293495611	-4.729550084903167e-16	0.0
C 	6.148780366869514	0.7099999999999993	0.0
C 	7.378536440243416	-7.09432512735475e-16	0.0
C 	8.60829251361732	0.7099999999999991	0.0
C 	9.838048586991222	-9.459100169806333e-16	0.0
C 	11.067804660365125	0.7099999999999989	0.0
C 	12.297560733739026	-1.1823875212257916e-15	0.0
C 	13.527316807112928	0.7099999999999986	0.0
C 	14.757072880486833	-1.41886502547095e-15	0.0
C 	15.986828953860735	0.7099999999999984	0.0
C 	17.21658502723464	-7.671641100159832e-16	0.0
C 	18.44634110060854	0.7099999999999982	0.0
C 	19.676097173982445	-1.8918200339612667e-15	0.0
C 	20.905853247356347	0.7099999999999989	0.0
C 	22.135609320730246	-2.128297538206425e-15	0.0
C 	23.36536539410415	0.7099999999999967	0.0
C 	24.59512146747805	-2.364775042451583e-15	0.0
C 	25.824877540851954	0.7099999999999983	0.0
C 	27.05463361422586	-8.248957072964913e-16	0.0
C 	28.284389687599763	0.7099999999999999	0.0
C 	29.514145760973665	-2.8377300509419e-15	0.0
C 	30.743901834347565	0.7099999999999961	0.0
C 	31.97365790772147	-3.0742075551870582e-15	0.0
C 	33.20341398109537	0.7099999999999976	0.0
C 	34.43317005446928	-1.5343282200319664e-15	0.0
C 	35.66292612784318	0.7099999999999992	0.0
C 	36.892682201217085	-1.7708057242771246e-15	0.0
C 	38.122438274590984	0.7099999999999972	0.0
C 	39.35219434796489	-3.783640067922533e-15	0.0
C 	40.58195042133879	0.7099999999999969	0.0
C 	41.811706494712695	-4.67403893367191e-16	0.0
C 	43.0414625680866	0.7100000000000002	0.0
C 	44.27121864146049	-4.25659507641285e-15	0.0
C 	45.5009747148344	0.7099999999999964	0.0
C 	46.730730788208305	-9.403589018575075e-16	0.0
C 	47.96048686158221	0.7099999999999997	0.0
C 	49.1902429349561	-4.729550084903166e-15	0.0
C 	50.41999900833001	0.709999999999996	0.0
C 	51.64975508170391	-1.413313910347824e-15	0.0
C 	52.879511155077815	0.7099999999999993	0.0
C 	54.10926722845172	-1.6497914145929826e-15	0.0
C 	55.33902330182562	0.7099999999999991	0.0
C 	56.56877937519952	-5.438982597638641e-15	0.0
C 	57.798535448573425	0.7099999999999953	0.0
C 	59.02829152194733	-5.6754601018838e-15	0.0
C 	60.25804759532124	0.709999999999995	0.0
C 	1.2297560733739028	2.1299999999999994	0.0
C 	2.4595121467478056	2.8399999999999994	0.0
C 	3.689268220121708	2.1299999999999994	0.0
C 	4.919024293495611	2.8399999999999994	0.0
C 	6.148780366869514	2.129999999999999	0.0
C 	7.378536440243416	2.839999999999999	0.0
C 	8.60829251361732	2.1299999999999986	0.0
C 	9.838048586991222	2.8399999999999985	0.0
C 	11.067804660365123	2.129999999999998	0.0
C 	12.297560733739028	2.839999999999999	0.0
C 	13.527316807112928	2.1299999999999977	0.0
C 	14.757072880486833	2.839999999999998	0.0
C 	15.986828953860735	2.129999999999998	0.0
C 	17.216585027234636	2.839999999999997	0.0
C 	18.446341100608542	2.129999999999998	0.0
C 	19.676097173982445	2.8399999999999985	0.0
C 	20.905853247356344	2.1299999999999977	0.0
C 	22.13560932073025	2.8399999999999985	0.0
C 	23.36536539410415	2.129999999999997	0.0
C 	24.595121467478055	2.839999999999997	0.0
C 	25.824877540851954	2.1299999999999963	0.0
C 	27.05463361422586	2.839999999999997	0.0
C 	28.284389687599763	2.129999999999998	0.0
C 	29.514145760973665	2.8399999999999985	0.0
C 	30.743901834347568	2.129999999999996	0.0
C 	31.97365790772147	2.8399999999999967	0.0
C 	33.20341398109537	2.129999999999996	0.0
C 	34.43317005446928	2.8399999999999963	0.0
C 	35.66292612784318	2.1299999999999972	0.0
C 	36.89268220121708	2.8399999999999963	0.0
C 	38.122438274590984	2.129999999999997	0.0
C 	39.35219434796489	2.8399999999999976	0.0
C 	40.58195042133879	2.1299999999999986	0.0
C 	41.81170649471269	2.839999999999996	0.0
C 	43.0414625680866	2.129999999999998	0.0
C 	44.2712186414605	2.8399999999999954	0.0
C 	45.5009747148344	2.129999999999998	0.0
C 	46.7307307882083	2.8399999999999954	0.0
C 	47.96048686158221	2.1299999999999977	0.0
C 	49.19024293495611	2.839999999999995	0.0
C 	50.41999900833001	2.1299999999999977	0.0
C 	51.64975508170391	2.8399999999999945	0.0
C 	52.879511155077815	2.1299999999999972	0.0
C 	54.10926722845171	2.8399999999999945	0.0
C 	55.33902330182563	2.130000000000001	0.0
C 	56.56877937519952	2.8399999999999976	0.0
C 	57.798535448573425	2.129999999999997	0.0
C 	59.028291521947324	2.839999999999994	0.0
C 	60.25804759532124	2.129999999999997	0.0
C 	61.487803668695136	2.8399999999999936	0.0
C 	2.4595121467478056	4.259999999999999	0.0
C 	3.689268220121708	4.969999999999999	0.0
C 	4.919024293495611	4.259999999999999	0.0
C 	6.148780366869514	4.969999999999999	0.0
C 	7.378536440243416	4.259999999999999	0.0
C 	8.60829251361732	4.969999999999999	0.0
C 	9.83804858699122	4.259999999999998	0.0
C 	11.067804660365125	4.969999999999999	0.0
C 	12.297560733739028	4.259999999999998	0.0
C 	13.52731680711293	4.969999999999998	0.0
C 	14.757072880486831	4.259999999999998	0.0
C 	15.986828953860735	4.969999999999998	0.0
C 	17.21658502723464	4.259999999999997	0.0
C 	18.446341100608542	4.969999999999998	0.0
C 	19.676097173982445	4.259999999999999	0.0
C 	20.905853247356347	4.969999999999997	0.0
C 	22.135609320730246	4.259999999999996	0.0
C 	23.365365394104153	4.969999999999997	0.0
C 	24.595121467478055	4.259999999999998	0.0
C 	25.824877540851958	4.969999999999997	0.0
C 	27.054633614225857	4.259999999999995	0.0
C 	28.28438968759976	4.969999999999996	0.0
C 	29.514145760973665	4.259999999999997	0.0
C 	30.743901834347568	4.969999999999997	0.0
C 	31.97365790772147	4.259999999999996	0.0
C 	33.20341398109537	4.969999999999995	0.0
C 	34.43317005446927	4.2599999999999945	0.0
C 	35.66292612784318	4.969999999999995	0.0
C 	36.892682201217085	4.259999999999996	0.0
C 	38.122438274590984	4.969999999999997	0.0
C 	39.35219434796489	4.259999999999997	0.0
C 	40.58195042133879	4.969999999999994	0.0
C 	41.81170649471269	4.259999999999995	0.0
C 	43.041462568086594	4.969999999999996	0.0
C 	44.2712186414605	4.259999999999997	0.0
C 	45.500974714834406	4.969999999999998	0.0
C 	46.7307307882083	4.259999999999994	0.0
C 	47.960486861582204	4.9699999999999935	0.0
C 	49.19024293495611	4.259999999999996	0.0
C 	50.41999900833001	4.969999999999997	0.0
C 	51.64975508170391	4.259999999999993	0.0
C 	52.879511155077815	4.9699999999999935	0.0
C 	54.10926722845171	4.259999999999996	0.0
C 	55.33902330182562	4.969999999999997	0.0
C 	56.568779375199526	4.259999999999996	0.0
C 	57.798535448573425	4.969999999999996	0.0
C 	59.028291521947324	4.259999999999995	0.0
C 	60.25804759532123	4.969999999999996	0.0
C 	61.487803668695136	4.259999999999992	0.0
C 	62.717559742069035	4.969999999999993	0.0
C 	3.6892682201217086	6.389999999999999	0.0
C 	4.919024293495611	7.099999999999999	0.0
C 	6.148780366869514	6.389999999999999	0.0
C 	7.378536440243416	7.099999999999999	0.0
C 	8.608292513617318	6.389999999999998	0.0
C 	9.838048586991222	7.099999999999999	0.0
C 	11.067804660365125	6.389999999999998	0.0
C 	12.297560733739028	7.099999999999998	0.0
C 	13.52731680711293	6.389999999999999	0.0
C 	14.757072880486833	7.099999999999998	0.0
C 	15.986828953860735	6.389999999999998	0.0
C 	17.216585027234636	7.099999999999997	0.0
C 	18.44634110060854	6.389999999999997	0.0
C 	19.676097173982445	7.099999999999998	0.0
C 	20.905853247356347	6.389999999999998	0.0
C 	22.13560932073025	7.099999999999997	0.0
C 	23.365365394104153	6.389999999999998	0.0
C 	24.59512146747805	7.099999999999997	0.0
C 	25.824877540851958	6.389999999999998	0.0
C 	27.054633614225857	7.099999999999997	0.0
C 	28.28438968759976	6.389999999999999	0.0
C 	29.514145760973662	7.099999999999997	0.0
C 	30.743901834347568	6.389999999999999	0.0
C 	31.97365790772147	7.099999999999998	0.0
C 	33.20341398109537	6.389999999999995	0.0
C 	34.43317005446928	7.099999999999994	0.0
C 	35.66292612784318	6.389999999999995	0.0
C 	36.892682201217085	7.099999999999996	0.0
C 	38.122438274590984	6.389999999999996	0.0
C 	39.35219434796489	7.099999999999997	0.0
C 	40.58195042133879	6.389999999999994	0.0
C 	41.811706494712695	7.099999999999995	0.0
C 	43.041462568086594	6.389999999999996	0.0
C 	44.2712186414605	7.099999999999997	0.0
C 	45.500974714834406	6.389999999999998	0.0
C 	46.730730788208305	7.099999999999998	0.0
C 	47.960486861582204	6.389999999999995	0.0
C 	49.19024293495611	7.099999999999996	0.0
C 	50.41999900833001	6.389999999999995	0.0
C 	51.649755081703915	7.099999999999996	0.0
C 	52.879511155077815	6.389999999999995	0.0
C 	54.10926722845172	7.099999999999996	0.0
C 	55.33902330182562	6.389999999999995	0.0
C 	56.568779375199526	7.099999999999995	0.0
C 	57.79853544857343	6.389999999999998	0.0
C 	59.02829152194733	7.099999999999999	0.0
C 	60.25804759532123	6.389999999999994	0.0
C 	61.487803668695136	7.099999999999995	0.0
C 	62.71755974206904	6.389999999999994	0.0
C 	63.94731581544294	7.099999999999995	0.0
C 	4.919024293495611	8.519999999999998	0.0
C 	6.148780366869514	9.229999999999999	0.0
C 	7.378536440243416	8.519999999999998	0.0
C 	8.60829251361732	9.229999999999999	0.0
C 	9.838048586991222	8.519999999999998	0.0
C 	11.067804660365125	9.229999999999999	0.0
C 	12.297560733739028	8.519999999999998	0.0
C 	13.52731680711293	9.229999999999997	0.0
C 	14.757072880486833	8.519999999999998	0.0
C 	15.986828953860737	9.229999999999999	0.0
C 	17.216585027234636	8.519999999999998	0.0
C 	18.44634110060854	9.229999999999997	0.0
C 	19.67609717398244	8.519999999999996	0.0
C 	20.905853247356347	9.229999999999997	0.0
C 	22.13560932073025	8.519999999999998	0.0
C 	23.365365394104153	9.229999999999999	0.0
C 	24.595121467478055	8.519999999999996	0.0
C 	25.824877540851954	9.229999999999995	0.0
C 	27.05463361422586	8.519999999999996	0.0
C 	28.284389687599763	9.229999999999997	0.0
C 	29.514145760973662	8.519999999999996	0.0
C 	30.743901834347565	9.229999999999995	0.0
C 	31.97365790772147	8.52	0.0
C 	33.20341398109537	9.229999999999997	0.0
C 	34.43317005446928	8.519999999999994	0.0
C 	35.66292612784318	9.229999999999995	0.0
C 	36.89268220121708	8.519999999999992	0.0
C 	38.122438274590984	9.229999999999993	0.0
C 	39.35219434796489	8.519999999999998	0.0
C 	40.58195042133879	9.229999999999995	0.0
C 	41.811706494712695	8.519999999999994	0.0
C 	43.0414625680866	9.229999999999995	0.0
C 	44.27121864146049	8.519999999999992	0.0
C 	45.5009747148344	9.229999999999993	0.0
C 	46.730730788208305	8.519999999999998	0.0
C 	47.960486861582204	9.229999999999995	0.0
C 	49.19024293495611	8.519999999999996	0.0
C 	50.41999900833001	9.229999999999993	0.0
C 	51.64975508170391	8.519999999999994	0.0
C 	52.879511155077815	9.229999999999995	0.0
C 	54.10926722845171	8.51999999999999	0.0
C 	55.33902330182562	9.229999999999992	0.0
C 	56.568779375199526	8.519999999999998	0.0
C 	57.798535448573425	9.229999999999995	0.0
C 	59.02829152194733	8.519999999999994	0.0
C 	60.25804759532123	9.229999999999993	0.0
C 	61.48780366869513	8.519999999999992	0.0
C 	62.717559742069035	9.229999999999993	0.0
C 	63.94731581544294	8.519999999999992	0.0
C 	65.17707188881684	9.22999999999999	0.0
C 	6.148780366869514	10.649999999999997	0.0
C 	7.378536440243416	11.359999999999998	0.0
C 	8.608292513617318	10.649999999999997	0.0
C 	9.838048586991222	11.359999999999998	0.0
C 	11.067804660365125	10.649999999999997	0.0
C 	12.297560733739028	11.359999999999996	0.0
C 	13.52731680711293	10.649999999999997	0.0
C 	14.757072880486831	11.359999999999996	0.0
C 	15.986828953860735	10.649999999999997	0.0
C 	17.216585027234636	11.359999999999996	0.0
C 	18.44634110060854	10.649999999999997	0.0
C 	19.676097173982445	11.359999999999998	0.0
C 	20.905853247356347	10.649999999999997	0.0
C 	22.13560932073025	11.359999999999996	0.0
C 	23.365365394104153	10.649999999999997	0.0
C 	24.595121467478055	11.359999999999996	0.0
C 	25.824877540851958	10.649999999999997	0.0
C 	27.05463361422586	11.359999999999996	0.0
C 	28.284389687599763	10.649999999999995	0.0
C 	29.514145760973662	11.359999999999994	0.0
C 	30.743901834347565	10.649999999999995	0.0
C 	31.97365790772147	11.359999999999996	0.0
C 	33.20341398109537	10.649999999999997	0.0
C 	34.43317005446928	11.359999999999998	0.0
C 	35.66292612784318	10.649999999999991	0.0
C 	36.89268220121708	11.359999999999992	0.0
C 	38.122438274590984	10.649999999999993	0.0
C 	39.35219434796489	11.359999999999994	0.0
C 	40.58195042133879	10.649999999999993	0.0
C 	41.811706494712695	11.359999999999994	0.0
C 	43.041462568086594	10.649999999999991	0.0
C 	44.2712186414605	11.359999999999992	0.0
C 	45.5009747148344	10.649999999999993	0.0
C 	46.730730788208305	11.359999999999994	0.0
C 	47.960486861582204	10.649999999999995	0.0
C 	49.19024293495611	11.359999999999996	0.0
C 	50.41999900833001	10.649999999999993	0.0
C 	51.649755081703915	11.359999999999994	0.0
C 	52.879511155077815	10.649999999999995	0.0
C 	54.10926722845172	11.359999999999996	0.0
C 	55.33902330182562	10.649999999999993	0.0
C 	56.568779375199526	11.359999999999994	0.0
C 	57.798535448573425	10.649999999999993	0.0
C 	59.02829152194733	11.359999999999992	0.0
C 	60.25804759532124	10.649999999999995	0.0
C 	61.487803668695136	11.359999999999996	0.0
C 	62.717559742069035	10.649999999999991	0.0
C 	63.94731581544294	11.359999999999992	0.0
C 	65.17707188881684	10.649999999999991	0.0
C 	66.40682796219075	11.359999999999992	0.0
C 	7.378536440243417	12.779999999999998	0.0
C 	8.60829251361732	13.489999999999998	0.0
C 	9.838048586991222	12.78	0.0
C 	11.067804660365125	13.489999999999997	0.0
C 	12.297560733739028	12.779999999999998	0.0
C 	13.527316807112932	13.489999999999998	0.0
C 	14.757072880486833	12.779999999999998	0.0
C 	15.986828953860737	13.489999999999997	0.0
C 	17.216585027234636	12.779999999999996	0.0
C 	18.446341100608542	13.489999999999997	0.0
C 	19.676097173982445	12.779999999999998	0.0
C 	20.905853247356347	13.489999999999997	0.0
C 	22.13560932073025	12.779999999999996	0.0
C 	23.36536539410415	13.489999999999995	0.0
C 	24.595121467478055	12.779999999999996	0.0
C 	25.824877540851958	13.489999999999997	0.0
C 	27.05463361422586	12.779999999999998	0.0
C 	28.284389687599763	13.489999999999997	0.0
C 	29.514145760973662	12.779999999999996	0.0
C 	30.743901834347568	13.489999999999997	0.0
C 	31.97365790772147	12.779999999999996	0.0
C 	33.20341398109537	13.489999999999997	0.0
C 	34.43317005446928	12.779999999999998	0.0
C 	35.66292612784318	13.489999999999995	0.0
C 	36.89268220121708	12.779999999999994	0.0
C 	38.122438274590984	13.489999999999995	0.0
C 	39.35219434796489	12.779999999999996	0.0
C 	40.581950421338796	13.489999999999997	0.0
C 	41.811706494712695	12.779999999999996	0.0
C 	43.041462568086594	13.489999999999993	0.0
C 	44.2712186414605	12.779999999999994	0.0
C 	45.5009747148344	13.489999999999995	0.0
C 	46.730730788208305	12.779999999999996	0.0
C 	47.96048686158221	13.489999999999997	0.0
C 	49.19024293495611	12.779999999999998	0.0
C 	50.41999900833001	13.489999999999995	0.0
C 	51.649755081703915	12.779999999999996	0.0
C 	52.879511155077815	13.489999999999993	0.0
C 	54.10926722845172	12.779999999999998	0.0
C 	55.33902330182563	13.489999999999998	0.0
C 	56.56877937519952	12.779999999999998	0.0
C 	57.798535448573425	13.489999999999997	0.0
C 	59.02829152194733	12.779999999999994	0.0
C 	60.25804759532123	13.489999999999991	0.0
C 	61.487803668695136	12.779999999999998	0.0
C 	62.71755974206904	13.489999999999998	0.0
C 	63.94731581544294	12.779999999999994	0.0
C 	65.17707188881684	13.489999999999995	0.0
C 	66.40682796219075	12.77999999999999	0.0
C 	67.63658403556465	13.489999999999988	0.0
C 	8.60829251361732	14.909999999999998	0.0
C 	9.838048586991222	15.619999999999996	0.0
C 	11.067804660365125	14.909999999999997	0.0
C 	12.297560733739026	15.619999999999996	0.0
C 	13.527316807112934	14.909999999999998	0.0
C 	14.757072880486831	15.619999999999996	0.0
C 	15.986828953860737	14.909999999999998	0.0
C 	17.21658502723464	15.619999999999997	0.0
C 	18.446341100608542	14.909999999999997	0.0
C 	19.676097173982445	15.619999999999996	0.0
C 	20.905853247356347	14.909999999999997	0.0
C 	22.135609320730246	15.619999999999996	0.0
C 	23.365365394104153	14.909999999999995	0.0
C 	24.595121467478055	15.619999999999996	0.0
C 	25.824877540851958	14.909999999999997	0.0
C 	27.05463361422586	15.619999999999996	0.0
C 	28.284389687599763	14.909999999999997	0.0
C 	29.514145760973665	15.619999999999996	0.0
C 	30.743901834347568	14.909999999999997	0.0
C 	31.973657907721474	15.619999999999997	0.0
C 	33.203413981095366	14.909999999999993	0.0
C 	34.43317005446927	15.619999999999994	0.0
C 	35.662926127843185	14.909999999999998	0.0
C 	36.892682201217085	15.619999999999996	0.0
C 	38.122438274590984	14.909999999999995	0.0
C 	39.35219434796489	15.619999999999996	0.0
C 	40.58195042133879	14.909999999999993	0.0
C 	41.811706494712695	15.619999999999994	0.0
C 	43.0414625680866	14.909999999999998	0.0
C 	44.2712186414605	15.619999999999996	0.0
C 	45.5009747148344	14.909999999999995	0.0
C 	46.730730788208305	15.619999999999996	0.0
C 	47.960486861582204	14.909999999999993	0.0
C 	49.19024293495611	15.619999999999994	0.0
C 	50.41999900833002	14.909999999999998	0.0
C 	51.649755081703915	15.619999999999996	0.0
C 	52.87951115507782	14.909999999999997	0.0
C 	54.10926722845171	15.619999999999994	0.0
C 	55.33902330182562	14.909999999999995	0.0
C 	56.568779375199526	15.619999999999994	0.0
C 	57.798535448573425	14.909999999999991	0.0
C 	59.028291521947324	15.619999999999992	0.0
C 	60.25804759532124	14.909999999999998	0.0
C 	61.487803668695136	15.619999999999996	0.0
C 	62.717559742069035	14.909999999999993	0.0
C 	63.94731581544294	15.619999999999994	0.0
C 	65.17707188881684	14.909999999999993	0.0
C 	66.40682796219075	15.619999999999994	0.0
C 	67.63658403556465	14.909999999999997	0.0
C 	68.86634010893854	15.61999999999999	0.0
C 	9.838048586991222	17.039999999999996	0.0
C 	11.067804660365127	17.749999999999996	0.0
C 	12.297560733739028	17.039999999999996	0.0
C 	13.527316807112932	17.749999999999996	0.0
C 	14.757072880486833	17.039999999999996	0.0
C 	15.986828953860735	17.749999999999996	0.0
C 	17.21658502723464	17.039999999999996	0.0
C 	18.446341100608546	17.749999999999996	0.0
C 	19.676097173982445	17.039999999999996	0.0
C 	20.905853247356347	17.749999999999996	0.0
C 	22.13560932073025	17.039999999999996	0.0
C 	23.365365394104153	17.749999999999996	0.0
C 	24.595121467478055	17.039999999999996	0.0
C 	25.82487754085196	17.749999999999996	0.0
C 	27.05463361422586	17.039999999999996	0.0
C 	28.28438968759977	17.75	0.0
C 	29.514145760973665	17.039999999999996	0.0
C 	30.74390183434757	17.749999999999996	0.0
C 	31.973657907721467	17.039999999999992	0.0
C 	33.20341398109537	17.749999999999993	0.0
C 	34.43317005446927	17.039999999999996	0.0
C 	35.66292612784318	17.749999999999996	0.0
C 	36.892682201217085	17.039999999999996	0.0
C 	38.122438274590984	17.749999999999996	0.0
C 	39.35219434796488	17.039999999999992	0.0
C 	40.58195042133879	17.749999999999993	0.0
C 	41.811706494712695	17.039999999999992	0.0
C 	43.041462568086594	17.749999999999993	0.0
C 	44.2712186414605	17.039999999999996	0.0
C 	45.500974714834406	17.749999999999996	0.0
C 	46.7307307882083	17.039999999999992	0.0
C 	47.960486861582204	17.749999999999993	0.0
C 	49.19024293495611	17.039999999999992	0.0
C 	50.41999900833002	17.749999999999993	0.0
C 	51.649755081703915	17.039999999999996	0.0
C 	52.87951115507782	17.749999999999996	0.0
C 	54.10926722845172	17.039999999999992	0.0
C 	55.33902330182562	17.749999999999993	0.0
C 	56.568779375199526	17.039999999999996	0.0
C 	57.79853544857343	17.749999999999996	0.0
C 	59.028291521947324	17.039999999999992	0.0
C 	60.25804759532123	17.749999999999993	0.0
C 	61.487803668695136	17.039999999999996	0.0
C 	62.71755974206904	17.749999999999996	0.0
C 	63.94731581544294	17.04	0.0
C 	65.17707188881684	17.749999999999993	0.0
C 	66.40682796219075	17.039999999999996	0.0
C 	67.63658403556464	17.74999999999999	0.0
C 	68.86634010893856	17.03999999999999	0.0
C 	70.09609618231246	17.74999999999999	0.0
C 	11.067804660365125	19.169999999999995	0.0
C 	12.297560733739026	19.879999999999995	0.0
C 	13.52731680711293	19.169999999999995	0.0
C 	14.757072880486831	19.879999999999995	0.0
C 	15.986828953860737	19.169999999999998	0.0
C 	17.216585027234636	19.879999999999992	0.0
C 	18.446341100608542	19.169999999999995	0.0
C 	19.676097173982445	19.879999999999995	0.0
C 	20.905853247356347	19.169999999999995	0.0
C 	22.135609320730246	19.879999999999995	0.0
C 	23.365365394104153	19.169999999999995	0.0
C 	24.59512146747805	19.879999999999995	0.0
C 	25.824877540851958	19.169999999999995	0.0
C 	27.05463361422586	19.879999999999995	0.0
C 	28.284389687599763	19.169999999999995	0.0
C 	29.51414576097367	19.879999999999995	0.0
C 	30.743901834347565	19.16999999999999	0.0
C 	31.97365790772147	19.879999999999992	0.0
C 	33.20341398109537	19.169999999999995	0.0
C 	34.43317005446927	19.879999999999992	0.0
C 	35.66292612784318	19.169999999999995	0.0
C 	36.89268220121708	19.879999999999992	0.0
C 	38.122438274590984	19.169999999999995	0.0
C 	39.35219434796488	19.879999999999992	0.0
C 	40.58195042133879	19.16999999999999	0.0
C 	41.81170649471269	19.87999999999999	0.0
C 	43.0414625680866	19.169999999999995	0.0
C 	44.27121864146049	19.879999999999992	0.0
C 	45.5009747148344	19.16999999999999	0.0
C 	46.730730788208305	19.879999999999992	0.0
C 	47.960486861582204	19.169999999999995	0.0
C 	49.1902429349561	19.879999999999992	0.0
C 	50.41999900833002	19.169999999999995	0.0
C 	51.649755081703915	19.879999999999992	0.0
C 	52.879511155077815	19.16999999999999	0.0
C 	54.10926722845172	19.879999999999992	0.0
C 	55.33902330182562	19.16999999999999	0.0
C 	56.56877937519952	19.879999999999992	0.0
C 	57.79853544857343	19.169999999999995	0.0
C 	59.02829152194733	19.879999999999992	0.0
C 	60.25804759532123	19.169999999999995	0.0
C 	61.48780366869513	19.879999999999992	0.0
C 	62.717559742069035	19.16999999999999	0.0
C 	63.94731581544294	19.879999999999992	0.0
C 	65.17707188881684	19.169999999999995	0.0
C 	66.40682796219075	19.87999999999999	0.0
C 	67.63658403556465	19.169999999999995	0.0
C 	68.86634010893854	19.87999999999999	0.0
C 	70.09609618231245	19.16999999999999	0.0
C 	71.32585225568636	19.879999999999992	0.0
C 	12.297560733739028	21.299999999999994	0.0
C 	13.527316807112932	22.009999999999994	0.0
C 	14.757072880486831	21.299999999999994	0.0
C 	15.986828953860735	22.009999999999994	0.0
C 	17.216585027234636	21.299999999999994	0.0
C 	18.44634110060854	22.009999999999994	0.0
C 	19.676097173982445	21.299999999999994	0.0
C 	20.905853247356347	22.009999999999994	0.0
C 	22.13560932073025	21.299999999999994	0.0
C 	23.365365394104153	22.009999999999994	0.0
C 	24.595121467478055	21.299999999999994	0.0
C 	25.824877540851958	22.009999999999994	0.0
C 	27.05463361422586	21.299999999999994	0.0
C 	28.284389687599766	22.009999999999994	0.0
C 	29.514145760973662	21.29999999999999	0.0
C 	30.743901834347568	22.00999999999999	0.0
C 	31.97365790772147	21.299999999999994	0.0
C 	33.20341398109537	22.009999999999994	0.0
C 	34.43317005446928	21.299999999999994	0.0
C 	35.662926127843185	22.009999999999994	0.0
C 	36.89268220121708	21.299999999999994	0.0
C 	38.122438274590984	22.009999999999994	0.0
C 	39.35219434796489	21.299999999999994	0.0
C 	40.58195042133879	22.009999999999994	0.0
C 	41.811706494712695	21.299999999999994	0.0
C 	43.0414625680866	22.009999999999994	0.0
C 	44.2712186414605	21.29999999999999	0.0
C 	45.5009747148344	22.00999999999999	0.0
C 	46.730730788208305	21.299999999999994	0.0
C 	47.96048686158221	22.009999999999994	0.0
C 	49.19024293495611	21.299999999999994	0.0
C 	50.41999900833002	22.009999999999994	0.0
C 	51.649755081703915	21.299999999999994	0.0
C 	52.879511155077815	22.00999999999999	0.0
C 	54.10926722845172	21.299999999999994	0.0
C 	55.33902330182563	22.009999999999994	0.0
C 	56.568779375199526	21.29999999999999	0.0
C 	57.798535448573425	22.00999999999999	0.0
C 	59.02829152194733	21.299999999999994	0.0
C 	60.25804759532124	22.009999999999994	0.0
C 	61.48780366869513	21.29999999999999	0.0
C 	62.717559742069035	22.00999999999999	0.0
C 	63.94731581544294	21.299999999999994	0.0
C 	65.17707188881684	22.009999999999987	0.0
C 	66.40682796219075	21.299999999999994	0.0
C 	67.63658403556465	22.009999999999994	0.0
C 	68.86634010893854	21.29999999999999	0.0
C 	70.09609618231245	22.00999999999999	0.0
C 	71.32585225568636	21.299999999999983	0.0
C 	72.55560832906026	22.00999999999999	0.0
C 	13.527316807112932	23.429999999999996	0.0
C 	14.757072880486836	24.139999999999997	0.0
C 	15.986828953860737	23.429999999999996	0.0
C 	17.216585027234643	24.139999999999997	0.0
C 	18.446341100608542	23.429999999999996	0.0
C 	19.676097173982445	24.139999999999997	0.0
C 	20.90585324735635	23.429999999999996	0.0
C 	22.135609320730254	24.139999999999997	0.0
C 	23.365365394104156	23.429999999999993	0.0
C 	24.595121467478062	24.139999999999997	0.0
C 	25.824877540851958	23.429999999999993	0.0
C 	27.054633614225864	24.139999999999993	0.0
C 	28.284389687599766	23.429999999999996	0.0
C 	29.514145760973673	24.139999999999997	0.0
C 	30.743901834347575	23.429999999999996	0.0
C 	31.973657907721478	24.139999999999997	0.0
C 	33.20341398109537	23.429999999999993	0.0
C 	34.43317005446928	24.139999999999993	0.0
C 	35.66292612784318	23.429999999999993	0.0
C 	36.892682201217085	24.139999999999993	0.0
C 	38.122438274590984	23.429999999999993	0.0
C 	39.35219434796489	24.139999999999993	0.0
C 	40.58195042133879	23.429999999999996	0.0
C 	41.811706494712695	24.139999999999993	0.0
C 	43.041462568086594	23.42999999999999	0.0
C 	44.2712186414605	24.13999999999999	0.0
C 	45.5009747148344	23.429999999999993	0.0
C 	46.730730788208305	24.139999999999993	0.0
C 	47.96048686158221	23.429999999999993	0.0
C 	49.19024293495611	24.139999999999993	0.0
C 	50.41999900833001	23.429999999999993	0.0
C 	51.649755081703915	24.13999999999999	0.0
C 	52.87951115507782	23.429999999999993	0.0
C 	54.10926722845172	24.139999999999993	0.0
C 	55.33902330182563	23.429999999999993	0.0
C 	56.56877937519953	24.139999999999993	0.0
C 	57.798535448573425	23.429999999999993	0.0
C 	59.02829152194733	24.139999999999993	0.0
C 	60.25804759532124	23.429999999999993	0.0
C 	61.487803668695136	24.13999999999999	0.0
C 	62.71755974206904	23.429999999999993	0.0
C 	63.947315815442934	24.139999999999986	0.0
C 	65.17707188881684	23.429999999999993	0.0
C 	66.40682796219075	24.139999999999993	0.0
C 	67.63658403556464	23.42999999999999	0.0
C 	68.86634010893856	24.139999999999997	0.0
C 	70.09609618231245	23.42999999999999	0.0
C 	71.32585225568636	24.139999999999997	0.0
C 	72.55560832906026	23.42999999999999	0.0
C 	73.78536440243417	24.13999999999999	0.0
C 	14.757072880486835	25.559999999999995	0.0
C 	15.986828953860735	26.269999999999996	0.0
C 	17.21658502723464	25.559999999999995	0.0
C 	18.44634110060854	26.269999999999996	0.0
C 	19.676097173982445	25.56	0.0
C 	20.905853247356344	26.269999999999996	0.0
C 	22.13560932073025	25.56	0.0
C 	23.365365394104153	26.269999999999996	0.0
C 	24.595121467478055	25.559999999999995	0.0
C 	25.824877540851958	26.269999999999996	0.0
C 	27.054633614225857	25.559999999999995	0.0
C 	28.28438968759976	26.269999999999996	0.0
C 	29.514145760973665	25.559999999999995	0.0
C 	30.743901834347568	26.269999999999996	0.0
C 	31.973657907721474	25.559999999999995	0.0
C 	33.20341398109538	26.269999999999996	0.0
C 	34.43317005446927	25.55999999999999	0.0
C 	35.66292612784318	26.269999999999992	0.0
C 	36.892682201217085	25.559999999999995	0.0
C 	38.12243827459098	26.269999999999992	0.0
C 	39.35219434796489	25.559999999999995	0.0
C 	40.58195042133879	26.269999999999992	0.0
C 	41.81170649471269	25.55999999999999	0.0
C 	43.041462568086594	26.269999999999992	0.0
C 	44.2712186414605	25.55999999999999	0.0
C 	45.5009747148344	26.26999999999999	0.0
C 	46.730730788208305	25.559999999999995	0.0
C 	47.960486861582204	26.269999999999992	0.0
C 	49.19024293495611	25.55999999999999	0.0
C 	50.41999900833001	26.269999999999992	0.0
C 	51.649755081703915	25.559999999999995	0.0
C 	52.879511155077815	26.269999999999992	0.0
C 	54.10926722845172	25.559999999999995	0.0
C 	55.33902330182562	26.269999999999992	0.0
C 	56.568779375199526	25.55999999999999	0.0
C 	57.79853544857343	26.269999999999992	0.0
C 	59.028291521947324	25.55999999999999	0.0
C 	60.25804759532123	26.269999999999992	0.0
C 	61.487803668695136	25.559999999999995	0.0
C 	62.717559742069035	26.26999999999999	0.0
C 	63.94731581544294	25.55999999999999	0.0
C 	65.17707188881683	26.269999999999985	0.0
C 	66.40682796219075	25.55999999999999	0.0
C 	67.63658403556465	26.269999999999992	0.0
C 	68.86634010893856	25.559999999999995	0.0
C 	70.09609618231246	26.269999999999996	0.0
C 	71.32585225568636	25.559999999999995	0.0
C 	72.55560832906026	26.269999999999996	0.0
C 	73.78536440243415	25.559999999999988	0.0
C 	75.01512047580806	26.26999999999999	0.0
C 	15.986828953860735	27.689999999999994	0.0
C 	17.21658502723464	28.399999999999995	0.0
C 	18.446341100608542	27.689999999999994	0.0
C 	19.676097173982445	28.399999999999995	0.0
C 	20.905853247356344	27.689999999999994	0.0
C 	22.13560932073025	28.399999999999995	0.0
C 	23.365365394104153	27.689999999999994	0.0
C 	24.59512146747806	28.399999999999995	0.0
C 	25.824877540851954	27.689999999999994	0.0
C 	27.054633614225857	28.399999999999995	0.0
C 	28.284389687599763	27.689999999999994	0.0
C 	29.514145760973665	28.399999999999995	0.0
C 	30.74390183434757	27.689999999999994	0.0
C 	31.973657907721474	28.399999999999995	0.0
C 	33.20341398109537	27.68999999999999	0.0
C 	34.43317005446928	28.39999999999999	0.0
C 	35.66292612784318	27.689999999999994	0.0
C 	36.892682201217085	28.399999999999995	0.0
C 	38.122438274590984	27.689999999999994	0.0
C 	39.35219434796489	28.399999999999995	0.0
C 	40.58195042133879	27.689999999999994	0.0
C 	41.811706494712695	28.399999999999995	0.0
C 	43.041462568086594	27.689999999999994	0.0
C 	44.2712186414605	28.399999999999995	0.0
C 	45.500974714834406	27.689999999999994	0.0
C 	46.730730788208305	28.399999999999995	0.0
C 	47.960486861582204	27.68999999999999	0.0
C 	49.19024293495611	28.39999999999999	0.0
C 	50.41999900833002	27.689999999999994	0.0
C 	51.649755081703915	28.399999999999995	0.0
C 	52.87951115507782	27.689999999999994	0.0
C 	54.10926722845173	28.399999999999995	0.0
C 	55.33902330182562	27.68999999999999	0.0
C 	56.568779375199526	28.39999999999999	0.0
C 	57.79853544857343	27.689999999999994	0.0
C 	59.02829152194733	28.39999999999999	0.0
C 	60.25804759532124	27.689999999999994	0.0
C 	61.48780366869513	28.399999999999988	0.0
C 	62.717559742069035	27.689999999999994	0.0
C 	63.94731581544294	28.399999999999995	0.0
C 	65.17707188881684	27.68999999999999	0.0
C 	66.40682796219075	28.39999999999999	0.0
C 	67.63658403556464	27.689999999999987	0.0
C 	68.86634010893856	28.399999999999995	0.0
C 	70.09609618231245	27.689999999999994	0.0
C 	71.32585225568636	28.399999999999995	0.0
C 	72.55560832906026	27.68999999999999	0.0
C 	73.78536440243415	28.39999999999999	0.0
C 	75.01512047580808	27.689999999999994	0.0
C 	76.24487654918197	28.399999999999984	0.0
C 	17.21658502723464	29.819999999999997	0.0
C 	18.446341100608546	30.529999999999998	0.0
C 	19.676097173982445	29.819999999999997	0.0
C 	20.905853247356355	30.529999999999998	0.0
C 	22.13560932073025	29.819999999999993	0.0
C 	23.365365394104156	30.529999999999994	0.0
C 	24.59512146747806	29.819999999999997	0.0
C 	25.82487754085196	30.529999999999998	0.0
C 	27.054633614225867	29.819999999999997	0.0
C 	28.28438968759977	30.529999999999998	0.0
C 	29.514145760973665	29.819999999999997	0.0
C 	30.74390183434757	30.529999999999998	0.0
C 	31.973657907721474	29.819999999999997	0.0
C 	33.20341398109538	30.529999999999998	0.0
C 	34.43317005446928	29.819999999999997	0.0
C 	35.662926127843185	30.529999999999998	0.0
C 	36.892682201217085	29.819999999999993	0.0
C 	38.12243827459099	30.529999999999994	0.0
C 	39.35219434796488	29.819999999999993	0.0
C 	40.58195042133879	30.529999999999994	0.0
C 	41.811706494712695	29.819999999999993	0.0
C 	43.0414625680866	30.529999999999994	0.0
C 	44.2712186414605	29.819999999999993	0.0
C 	45.500974714834406	30.529999999999994	0.0
C 	46.730730788208305	29.81999999999999	0.0
C 	47.960486861582204	30.52999999999999	0.0
C 	49.19024293495611	29.819999999999993	0.0
C 	50.41999900833002	30.529999999999994	0.0
C 	51.649755081703915	29.819999999999993	0.0
C 	52.87951115507782	30.529999999999994	0.0
C 	54.10926722845172	29.819999999999993	0.0
C 	55.33902330182563	30.52999999999999	0.0
C 	56.568779375199526	29.819999999999993	0.0
C 	57.798535448573425	30.52999999999999	0.0
C 	59.02829152194734	29.819999999999993	0.0
C 	60.25804759532124	30.529999999999994	0.0
C 	61.487803668695136	29.819999999999993	0.0
C 	62.71755974206904	30.529999999999994	0.0
C 	63.947315815442934	29.81999999999999	0.0
C 	65.17707188881685	30.529999999999998	0.0
C 	66.40682796219073	29.819999999999986	0.0
C 	67.63658403556465	30.529999999999994	0.0
C 	68.86634010893856	29.819999999999993	0.0
C 	70.09609618231245	30.529999999999994	0.0
C 	71.32585225568637	29.819999999999997	0.0
C 	72.55560832906026	30.52999999999999	0.0
C 	73.78536440243417	29.819999999999997	0.0
C 	75.01512047580806	30.529999999999987	0.0
C 	76.24487654918197	29.81999999999999	0.0
C 	77.47463262255587	30.52999999999999	0.0
C 	18.446341100608542	31.949999999999996	0.0
C 	19.676097173982445	32.65999999999999	0.0
C 	20.905853247356347	31.949999999999992	0.0
C 	22.135609320730254	32.66	0.0
C 	23.365365394104156	31.949999999999996	0.0
C 	24.595121467478055	32.65999999999999	0.0
C 	25.824877540851958	31.949999999999992	0.0
C 	27.05463361422586	32.66	0.0
C 	28.284389687599766	31.949999999999996	0.0
C 	29.51414576097367	32.66	0.0
C 	30.743901834347568	31.949999999999992	0.0
C 	31.97365790772147	32.66	0.0
C 	33.20341398109537	31.949999999999992	0.0
C 	34.43317005446928	32.66	0.0
C 	35.66292612784318	31.949999999999996	0.0
C 	36.892682201217085	32.66	0.0
C 	38.122438274590984	31.949999999999992	0.0
C 	39.35219434796489	32.65999999999999	0.0
C 	40.58195042133879	31.949999999999992	0.0
C 	41.81170649471269	32.65999999999999	0.0
C 	43.0414625680866	31.949999999999996	0.0
C 	44.2712186414605	32.65999999999999	0.0
C 	45.5009747148344	31.949999999999992	0.0
C 	46.730730788208305	32.65999999999999	0.0
C 	47.96048686158221	31.949999999999992	0.0
C 	49.1902429349561	32.65999999999999	0.0
C 	50.41999900833002	31.949999999999992	0.0
C 	51.649755081703915	32.65999999999999	0.0
C 	52.879511155077815	31.949999999999992	0.0
C 	54.10926722845172	32.65999999999999	0.0
C 	55.33902330182563	31.949999999999992	0.0
C 	56.568779375199526	32.65999999999999	0.0
C 	57.79853544857343	31.949999999999992	0.0
C 	59.028291521947324	32.65999999999999	0.0
C 	60.25804759532124	31.949999999999992	0.0
C 	61.487803668695136	32.65999999999999	0.0
C 	62.717559742069035	31.94999999999999	0.0
C 	63.94731581544294	32.65999999999999	0.0
C 	65.17707188881685	31.949999999999992	0.0
C 	66.40682796219076	32.66	0.0
C 	67.63658403556465	31.949999999999992	0.0
C 	68.86634010893856	32.65999999999999	0.0
C 	70.09609618231245	31.94999999999999	0.0
C 	71.32585225568636	32.65999999999999	0.0
C 	72.55560832906026	31.949999999999996	0.0
C 	73.78536440243415	32.65999999999999	0.0
C 	75.01512047580806	31.949999999999992	0.0
C 	76.24487654918195	32.65999999999998	0.0
C 	77.47463262255587	31.949999999999985	0.0
C 	78.70438869592978	32.65999999999999	0.0
C 	19.676097173982445	34.07999999999999	0.0
C 	20.90585324735635	34.78999999999999	0.0
C 	22.135609320730254	34.07999999999999	0.0
C 	23.365365394104156	34.78999999999999	0.0
C 	24.595121467478055	34.07999999999999	0.0
C 	25.824877540851958	34.78999999999999	0.0
C 	27.054633614225864	34.07999999999999	0.0
C 	28.284389687599766	34.78999999999999	0.0
C 	29.514145760973665	34.07999999999999	0.0
C 	30.743901834347568	34.78999999999999	0.0
C 	31.97365790772147	34.07999999999999	0.0
C 	33.20341398109537	34.78999999999999	0.0
C 	34.43317005446928	34.07999999999999	0.0
C 	35.662926127843185	34.78999999999999	0.0
C 	36.89268220121708	34.07999999999999	0.0
C 	38.122438274590984	34.78999999999999	0.0
C 	39.35219434796489	34.07999999999999	0.0
C 	40.581950421338796	34.78999999999999	0.0
C 	41.811706494712695	34.07999999999999	0.0
C 	43.0414625680866	34.78999999999999	0.0
C 	44.2712186414605	34.07999999999999	0.0
C 	45.5009747148344	34.78999999999999	0.0
C 	46.730730788208305	34.07999999999999	0.0
C 	47.96048686158221	34.78999999999999	0.0
C 	49.19024293495611	34.07999999999999	0.0
C 	50.41999900833002	34.78999999999999	0.0
C 	51.649755081703915	34.07999999999999	0.0
C 	52.87951115507782	34.78999999999999	0.0
C 	54.10926722845172	34.07999999999999	0.0
C 	55.33902330182562	34.78999999999999	0.0
C 	56.56877937519953	34.07999999999999	0.0
C 	57.79853544857343	34.78999999999999	0.0
C 	59.02829152194733	34.07999999999999	0.0
C 	60.25804759532124	34.78999999999999	0.0
C 	61.487803668695136	34.07999999999999	0.0
C 	62.71755974206905	34.79	0.0
C 	63.947315815442934	34.079999999999984	0.0
C 	65.17707188881685	34.78999999999999	0.0
C 	66.40682796219075	34.07999999999999	0.0
C 	67.63658403556465	34.78999999999999	0.0
C 	68.86634010893854	34.07999999999999	0.0
C 	70.09609618231245	34.78999999999999	0.0
C 	71.32585225568636	34.07999999999999	0.0
C 	72.55560832906025	34.789999999999985	0.0
C 	73.78536440243417	34.07999999999999	0.0
C 	75.01512047580808	34.78999999999999	0.0
C 	76.24487654918197	34.07999999999999	0.0
C 	77.47463262255587	34.78999999999999	0.0
C 	78.70438869592977	34.079999999999984	0.0
C 	79.93414476930369	34.78999999999999	0.0
C 	20.90585324735635	36.209999999999994	0.0
C 	22.135609320730254	36.919999999999995	0.0
C 	23.36536539410416	36.209999999999994	0.0
C 	24.595121467478062	36.919999999999995	0.0
C 	25.82487754085196	36.209999999999994	0.0
C 	27.054633614225864	36.919999999999995	0.0
C 	28.284389687599766	36.209999999999994	0.0
C 	29.514145760973673	36.919999999999995	0.0
C 	30.743901834347575	36.209999999999994	0.0
C 	31.973657907721478	36.919999999999995	0.0
C 	33.20341398109537	36.209999999999994	0.0
C 	34.43317005446928	36.919999999999995	0.0
C 	35.662926127843185	36.209999999999994	0.0
C 	36.89268220121709	36.919999999999995	0.0
C 	38.12243827459099	36.209999999999994	0.0
C 	39.3521943479649	36.919999999999995	0.0
C 	40.581950421338796	36.209999999999994	0.0
C 	41.811706494712695	36.919999999999995	0.0
C 	43.041462568086594	36.209999999999994	0.0
C 	44.2712186414605	36.919999999999995	0.0
C 	45.500974714834406	36.209999999999994	0.0
C 	46.730730788208305	36.919999999999995	0.0
C 	47.96048686158221	36.209999999999994	0.0
C 	49.19024293495612	36.919999999999995	0.0
C 	50.41999900833002	36.20999999999999	0.0
C 	51.649755081703915	36.91999999999999	0.0
C 	52.87951115507782	36.209999999999994	0.0
C 	54.10926722845172	36.91999999999999	0.0
C 	55.33902330182563	36.209999999999994	0.0
C 	56.56877937519953	36.919999999999995	0.0
C 	57.79853544857343	36.20999999999999	0.0
C 	59.02829152194733	36.91999999999999	0.0
C 	60.25804759532123	36.20999999999999	0.0
C 	61.48780366869515	36.919999999999995	0.0
C 	62.71755974206904	36.209999999999994	0.0
C 	63.94731581544295	36.919999999999995	0.0
C 	65.17707188881684	36.209999999999994	0.0
C 	66.40682796219075	36.919999999999995	0.0
C 	67.63658403556467	36.209999999999994	0.0
C 	68.86634010893856	36.91999999999999	0.0
C 	70.09609618231246	36.209999999999994	0.0
C 	71.32585225568636	36.91999999999999	0.0
C 	72.55560832906026	36.209999999999994	0.0
C 	73.78536440243417	36.919999999999995	0.0
C 	75.01512047580806	36.20999999999999	0.0
C 	76.24487654918198	36.919999999999995	0.0
C 	77.47463262255586	36.20999999999999	0.0
C 	78.70438869592978	36.919999999999995	0.0
C 	79.93414476930369	36.20999999999999	0.0
C 	81.16390084267759	36.91999999999999	0.0
C 	22.13560932073025	38.33999999999999	0.0
C 	23.365365394104153	39.04999999999999	0.0
C 	24.59512146747806	38.33999999999999	0.0
C 	25.82487754085196	39.04999999999999	0.0
C 	27.05463361422586	38.33999999999999	0.0
C 	28.284389687599763	39.04999999999999	0.0
C 	29.514145760973665	38.33999999999999	0.0
C 	30.74390183434757	39.04999999999999	0.0
C 	31.973657907721474	38.339999999999996	0.0
C 	33.20341398109538	39.04999999999999	0.0
C 	34.43317005446927	38.33999999999999	0.0
C 	35.66292612784318	39.04999999999999	0.0
C 	36.892682201217085	38.33999999999999	0.0
C 	38.12243827459099	39.04999999999999	0.0
C 	39.35219434796489	38.33999999999999	0.0
C 	40.581950421338796	39.04999999999999	0.0
C 	41.811706494712695	38.33999999999999	0.0
C 	43.0414625680866	39.04999999999999	0.0
C 	44.27121864146049	38.33999999999999	0.0
C 	45.5009747148344	39.04999999999999	0.0
C 	46.730730788208305	38.33999999999999	0.0
C 	47.960486861582204	39.04999999999999	0.0
C 	49.19024293495611	38.33999999999999	0.0
C 	50.41999900833002	39.04999999999999	0.0
C 	51.649755081703915	38.33999999999999	0.0
C 	52.879511155077815	39.04999999999999	0.0
C 	54.10926722845173	38.33999999999999	0.0
C 	55.33902330182562	39.04999999999998	0.0
C 	56.568779375199526	38.33999999999999	0.0
C 	57.79853544857343	39.04999999999999	0.0
C 	59.02829152194733	38.33999999999999	0.0
C 	60.25804759532123	39.04999999999999	0.0
C 	61.48780366869513	38.33999999999998	0.0
C 	62.71755974206905	39.04999999999999	0.0
C 	63.94731581544294	38.33999999999999	0.0
C 	65.17707188881685	39.04999999999999	0.0
C 	66.40682796219075	38.33999999999999	0.0
C 	67.63658403556465	39.04999999999999	0.0
C 	68.86634010893856	38.33999999999999	0.0
C 	70.09609618231245	39.04999999999998	0.0
C 	71.32585225568636	38.33999999999999	0.0
C 	72.55560832906025	39.04999999999998	0.0
C 	73.78536440243415	38.33999999999999	0.0
C 	75.01512047580806	39.04999999999999	0.0
C 	76.24487654918197	38.33999999999999	0.0
C 	77.47463262255587	39.05	0.0
C 	78.70438869592977	38.33999999999998	0.0
C 	79.93414476930369	39.04999999999999	0.0
C 	81.16390084267758	38.33999999999998	0.0
C 	82.39365691605148	39.04999999999998	0.0
C 	23.365365394104156	40.46999999999999	0.0
C 	24.59512146747806	41.17999999999999	0.0
C 	25.82487754085196	40.46999999999999	0.0
C 	27.054633614225867	41.17999999999999	0.0
C 	28.284389687599763	40.46999999999999	0.0
C 	29.51414576097367	41.17999999999999	0.0
C 	30.74390183434757	40.46999999999999	0.0
C 	31.973657907721474	41.17999999999999	0.0
C 	33.20341398109537	40.46999999999999	0.0
C 	34.43317005446928	41.17999999999999	0.0
C 	35.66292612784318	40.46999999999999	0.0
C 	36.892682201217085	41.17999999999999	0.0
C 	38.12243827459099	40.46999999999999	0.0
C 	39.3521943479649	41.17999999999999	0.0
C 	40.58195042133879	40.46999999999999	0.0
C 	41.811706494712695	41.17999999999999	0.0
C 	43.0414625680866	40.46999999999999	0.0
C 	44.2712186414605	41.17999999999999	0.0
C 	45.500974714834406	40.46999999999999	0.0
C 	46.73073078820831	41.17999999999999	0.0
C 	47.960486861582204	40.46999999999999	0.0
C 	49.19024293495611	41.17999999999999	0.0
C 	50.41999900833002	40.46999999999999	0.0
C 	51.649755081703915	41.179999999999986	0.0
C 	52.87951115507782	40.46999999999999	0.0
C 	54.10926722845173	41.17999999999999	0.0
C 	55.33902330182563	40.46999999999999	0.0
C 	56.568779375199526	41.17999999999999	0.0
C 	57.798535448573425	40.469999999999985	0.0
C 	59.028291521947345	41.17999999999999	0.0
C 	60.25804759532124	40.46999999999999	0.0
C 	61.48780366869514	41.17999999999999	0.0
C 	62.71755974206904	40.46999999999999	0.0
C 	63.94731581544295	41.17999999999999	0.0
C 	65.17707188881685	40.46999999999999	0.0
C 	66.40682796219075	41.179999999999986	0.0
C 	67.63658403556465	40.46999999999999	0.0
C 	68.86634010893854	41.179999999999986	0.0
C 	70.09609618231246	40.46999999999999	0.0
C 	71.32585225568636	41.17999999999999	0.0
C 	72.55560832906026	40.469999999999985	0.0
C 	73.78536440243417	41.179999999999986	0.0
C 	75.01512047580806	40.469999999999985	0.0
C 	76.24487654918198	41.17999999999999	0.0
C 	77.47463262255587	40.46999999999999	0.0
C 	78.70438869592978	41.17999999999999	0.0
C 	79.93414476930367	40.469999999999985	0.0
C 	81.16390084267758	41.179999999999986	0.0
C 	82.3936569160515	40.46999999999999	0.0
C 	83.62341298942539	41.179999999999986	0.0
C 	24.595121467478055	42.59999999999999	0.0
C 	25.82487754085196	43.30999999999999	0.0
C 	27.05463361422586	42.59999999999999	0.0
C 	28.284389687599766	43.30999999999999	0.0
C 	29.514145760973662	42.59999999999999	0.0
C 	30.743901834347568	43.30999999999999	0.0
C 	31.97365790772147	42.59999999999999	0.0
C 	33.20341398109537	43.30999999999999	0.0
C 	34.43317005446927	42.59999999999999	0.0
C 	35.66292612784318	43.30999999999999	0.0
C 	36.89268220121708	42.59999999999999	0.0
C 	38.122438274590984	43.30999999999999	0.0
C 	39.35219434796489	42.59999999999999	0.0
C 	40.581950421338796	43.30999999999999	0.0
C 	41.81170649471269	42.59999999999999	0.0
C 	43.041462568086594	43.30999999999999	0.0
C 	44.2712186414605	42.59999999999999	0.0
C 	45.5009747148344	43.30999999999999	0.0
C 	46.730730788208305	42.59999999999999	0.0
C 	47.96048686158221	43.30999999999999	0.0
C 	49.19024293495611	42.59999999999999	0.0
C 	50.41999900833001	43.30999999999999	0.0
C 	51.64975508170392	42.599999999999994	0.0
C 	52.879511155077815	43.30999999999999	0.0
C 	54.10926722845172	42.59999999999999	0.0
C 	55.33902330182563	43.30999999999999	0.0
C 	56.568779375199526	42.59999999999999	0.0
C 	57.798535448573425	43.30999999999999	0.0
C 	59.028291521947324	42.59999999999998	0.0
C 	60.258047595321244	43.30999999999999	0.0
C 	61.487803668695136	42.59999999999999	0.0
C 	62.71755974206904	43.30999999999999	0.0
C 	63.94731581544294	42.59999999999999	0.0
C 	65.17707188881684	43.30999999999999	0.0
C 	66.40682796219076	42.599999999999994	0.0
C 	67.63658403556465	43.30999999999999	0.0
C 	68.86634010893856	42.59999999999999	0.0
C 	70.09609618231245	43.30999999999998	0.0
C 	71.32585225568636	42.59999999999999	0.0
C 	72.55560832906026	43.30999999999999	0.0
C 	73.78536440243415	42.59999999999999	0.0
C 	75.01512047580806	43.30999999999999	0.0
C 	76.24487654918197	42.59999999999998	0.0
C 	77.47463262255587	43.30999999999999	0.0
C 	78.70438869592978	42.59999999999999	0.0
C 	79.93414476930367	43.30999999999999	0.0
C 	81.16390084267758	42.59999999999999	0.0
C 	82.39365691605148	43.30999999999999	0.0
C 	83.62341298942539	42.59999999999999	0.0
C 	84.85316906279928	43.30999999999998	0.0
C 	25.82487754085196	44.72999999999999	0.0
C 	27.054633614225864	45.43999999999999	0.0
C 	28.284389687599766	44.72999999999999	0.0
C 	29.514145760973673	45.43999999999999	0.0
C 	30.743901834347568	44.72999999999999	0.0
C 	31.97365790772147	45.43999999999999	0.0
C 	33.20341398109537	44.72999999999999	0.0
C 	34.43317005446928	45.43999999999999	0.0
C 	35.662926127843185	44.72999999999999	0.0
C 	36.892682201217085	45.43999999999999	0.0
C 	38.122438274590984	44.72999999999999	0.0
C 	39.35219434796489	45.43999999999999	0.0
C 	40.581950421338796	44.72999999999999	0.0
C 	41.811706494712695	45.43999999999999	0.0
C 	43.0414625680866	44.72999999999999	0.0
C 	44.27121864146051	45.43999999999999	0.0
C 	45.500974714834406	44.72999999999999	0.0
C 	46.730730788208305	45.43999999999999	0.0
C 	47.960486861582204	44.72999999999999	0.0
C 	49.19024293495611	45.43999999999998	0.0
C 	50.41999900833002	44.72999999999999	0.0
C 	51.64975508170391	45.43999999999998	0.0
C 	52.87951115507782	44.72999999999999	0.0
C 	54.10926722845172	45.43999999999999	0.0
C 	55.33902330182562	44.72999999999998	0.0
C 	56.568779375199526	45.43999999999998	0.0
C 	57.798535448573425	44.72999999999998	0.0
C 	59.02829152194734	45.43999999999999	0.0
C 	60.25804759532124	44.72999999999999	0.0
C 	61.48780366869514	45.43999999999999	0.0
C 	62.717559742069035	44.72999999999998	0.0
C 	63.94731581544294	45.43999999999998	0.0
C 	65.17707188881685	44.72999999999999	0.0
C 	66.40682796219075	45.43999999999998	0.0
C 	67.63658403556465	44.72999999999999	0.0
C 	68.86634010893856	45.43999999999999	0.0
C 	70.09609618231245	44.72999999999999	0.0
C 	71.32585225568636	45.43999999999998	0.0
C 	72.55560832906026	44.72999999999998	0.0
C 	73.78536440243417	45.43999999999999	0.0
C 	75.01512047580806	44.72999999999998	0.0
C 	76.24487654918198	45.43999999999999	0.0
C 	77.47463262255587	44.72999999999999	0.0
C 	78.70438869592978	45.43999999999999	0.0
C 	79.93414476930369	44.72999999999999	0.0
C 	81.16390084267758	45.43999999999998	0.0
C 	82.39365691605148	44.72999999999999	0.0
C 	83.62341298942538	45.43999999999998	0.0
C 	84.8531690627993	44.72999999999998	0.0
C 	86.08292513617319	45.43999999999998	0.0
C 	27.054633614225864	46.85999999999999	0.0
C 	28.28438968759977	47.56999999999999	0.0
C 	29.514145760973673	46.85999999999999	0.0
C 	30.74390183434758	47.56999999999999	0.0
C 	31.973657907721474	46.85999999999999	0.0
C 	33.20341398109538	47.56999999999999	0.0
C 	34.43317005446928	46.85999999999999	0.0
C 	35.662926127843185	47.56999999999999	0.0
C 	36.892682201217085	46.85999999999999	0.0
C 	38.122438274590984	47.56999999999999	0.0
C 	39.35219434796489	46.85999999999999	0.0
C 	40.581950421338796	47.56999999999999	0.0
C 	41.8117064947127	46.85999999999999	0.0
C 	43.0414625680866	47.56999999999999	0.0
C 	44.2712186414605	46.85999999999999	0.0
C 	45.500974714834406	47.56999999999999	0.0
C 	46.73073078820831	46.859999999999985	0.0
C 	47.960486861582204	47.569999999999986	0.0
C 	49.19024293495612	46.85999999999999	0.0
C 	50.41999900833002	47.56999999999999	0.0
C 	51.649755081703915	46.859999999999985	0.0
C 	52.87951115507782	47.569999999999986	0.0
C 	54.10926722845172	46.859999999999985	0.0
C 	55.339023301825634	47.56999999999999	0.0
C 	56.56877937519953	46.85999999999999	0.0
C 	57.79853544857344	47.56999999999999	0.0
C 	59.02829152194733	46.859999999999985	0.0
C 	60.25804759532124	47.569999999999986	0.0
C 	61.48780366869515	46.85999999999999	0.0
C 	62.71755974206904	47.569999999999986	0.0
C 	63.94731581544295	46.85999999999999	0.0
C 	65.17707188881685	47.56999999999999	0.0
C 	66.40682796219075	46.859999999999985	0.0
C 	67.63658403556465	47.569999999999986	0.0
C 	68.86634010893856	46.859999999999985	0.0
C 	70.09609618231246	47.56999999999999	0.0
C 	71.32585225568636	46.859999999999985	0.0
C 	72.55560832906028	47.56999999999999	0.0
C 	73.78536440243417	46.859999999999985	0.0
C 	75.01512047580808	47.569999999999986	0.0
C 	76.24487654918197	46.859999999999985	0.0
C 	77.47463262255587	47.569999999999986	0.0
C 	78.70438869592978	46.85999999999999	0.0
C 	79.93414476930367	47.569999999999986	0.0
C 	81.16390084267758	46.85999999999999	0.0
C 	82.39365691605148	47.56999999999999	0.0
C 	83.62341298942539	46.859999999999985	0.0
C 	84.8531690627993	47.569999999999986	0.0
C 	86.08292513617319	46.85999999999998	0.0
C 	87.31268120954711	47.569999999999986	0.0
C 	28.284389687599763	48.98999999999999	0.0
C 	29.51414576097367	49.69999999999999	0.0
C 	30.74390183434757	48.98999999999999	0.0
C 	31.973657907721478	49.69999999999999	0.0
C 	33.20341398109537	48.98999999999999	0.0
C 	34.43317005446928	49.69999999999999	0.0
C 	35.66292612784318	48.98999999999999	0.0
C 	36.892682201217085	49.69999999999999	0.0
C 	38.122438274590984	48.98999999999999	0.0
C 	39.35219434796488	49.69999999999999	0.0
C 	40.58195042133879	48.98999999999999	0.0
C 	41.811706494712695	49.69999999999999	0.0
C 	43.041462568086594	48.98999999999999	0.0
C 	44.2712186414605	49.69999999999999	0.0
C 	45.5009747148344	48.98999999999999	0.0
C 	46.730730788208305	49.69999999999998	0.0
C 	47.96048686158221	48.98999999999999	0.0
C 	49.1902429349561	49.69999999999998	0.0
C 	50.41999900833002	48.98999999999999	0.0
C 	51.64975508170392	49.69999999999999	0.0
C 	52.879511155077815	48.98999999999999	0.0
C 	54.10926722845172	49.69999999999999	0.0
C 	55.33902330182562	48.98999999999998	0.0
C 	56.56877937519953	49.69999999999999	0.0
C 	57.79853544857343	48.98999999999999	0.0
C 	59.02829152194734	49.69999999999999	0.0
C 	60.25804759532124	48.98999999999999	0.0
C 	61.487803668695136	49.69999999999999	0.0
C 	62.71755974206905	48.98999999999999	0.0
C 	63.94731581544294	49.69999999999998	0.0
C 	65.17707188881685	48.98999999999999	0.0
C 	66.40682796219075	49.69999999999999	0.0
C 	67.63658403556465	48.98999999999999	0.0
C 	68.86634010893856	49.69999999999999	0.0
C 	70.09609618231245	48.98999999999998	0.0
C 	71.32585225568637	49.69999999999999	0.0
C 	72.55560832906025	48.98999999999998	0.0
C 	73.78536440243417	49.69999999999999	0.0
C 	75.01512047580806	48.98999999999999	0.0
C 	76.24487654918197	49.69999999999999	0.0
C 	77.47463262255587	48.98999999999998	0.0
C 	78.70438869592978	49.69999999999998	0.0
C 	79.93414476930369	48.98999999999999	0.0
C 	81.16390084267758	49.69999999999998	0.0
C 	82.39365691605148	48.98999999999999	0.0
C 	83.62341298942539	49.69999999999999	0.0
C 	84.85316906279928	48.98999999999998	0.0
C 	86.08292513617319	49.69999999999998	0.0
C 	87.3126812095471	48.98999999999998	0.0
C 	88.542437282921	49.69999999999999	0.0
C 	29.51414576097367	51.11999999999999	0.0
C 	30.74390183434757	51.82999999999999	0.0
C 	31.973657907721474	51.11999999999999	0.0
C 	33.20341398109538	51.82999999999999	0.0
C 	34.43317005446928	51.11999999999999	0.0
C 	35.66292612784318	51.82999999999999	0.0
C 	36.892682201217085	51.11999999999999	0.0
C 	38.12243827459099	51.82999999999999	0.0
C 	39.35219434796489	51.12	0.0
C 	40.581950421338796	51.83	0.0
C 	41.811706494712695	51.11999999999999	0.0
C 	43.041462568086594	51.82999999999999	0.0
C 	44.2712186414605	51.12	0.0
C 	45.5009747148344	51.82999999999999	0.0
C 	46.73073078820831	51.11999999999999	0.0
C 	47.96048686158221	51.82999999999999	0.0
C 	49.19024293495611	51.11999999999999	0.0
C 	50.41999900833002	51.82999999999999	0.0
C 	51.649755081703915	51.11999999999998	0.0
C 	52.879511155077815	51.829999999999984	0.0
C 	54.10926722845171	51.11999999999999	0.0
C 	55.33902330182563	51.83	0.0
C 	56.568779375199526	51.11999999999999	0.0
C 	57.79853544857343	51.82999999999999	0.0
C 	59.02829152194733	51.11999999999999	0.0
C 	60.25804759532124	51.82999999999999	0.0
C 	61.48780366869514	51.11999999999999	0.0
C 	62.717559742069035	51.829999999999984	0.0
C 	63.94731581544295	51.11999999999999	0.0
C 	65.17707188881685	51.82999999999999	0.0
C 	66.40682796219075	51.11999999999999	0.0
C 	67.63658403556465	51.82999999999999	0.0
C 	68.86634010893854	51.11999999999998	0.0
C 	70.09609618231246	51.82999999999999	0.0
C 	71.32585225568636	51.11999999999999	0.0
C 	72.55560832906026	51.82999999999999	0.0
C 	73.78536440243417	51.11999999999999	0.0
C 	75.01512047580806	51.82999999999999	0.0
C 	76.24487654918198	51.11999999999999	0.0
C 	77.47463262255587	51.829999999999984	0.0
C 	78.70438869592978	51.11999999999999	0.0
C 	79.93414476930367	51.829999999999984	0.0
C 	81.16390084267758	51.11999999999999	0.0
C 	82.39365691605148	51.82999999999999	0.0
C 	83.62341298942538	51.11999999999998	0.0
C 	84.8531690627993	51.82999999999999	0.0
C 	86.08292513617319	51.11999999999998	0.0
C 	87.3126812095471	51.82999999999999	0.0
C 	88.542437282921	51.11999999999998	0.0
C 	89.7721933562949	51.829999999999984	0.0
C 	53.56577213170112	-0.21273442286747718	2.15
C 	54.941160220503775	0.14040521690661756	2.15
C 	55.32302636577745	1.508096061759294	2.15
C 	51.196862099369476	0.44867714243700296	2.15
C 	52.57225018817214	0.8018167822110976	2.15
C 	52.95411633344582	2.169507627063774	2.15
C 	54.32950442224847	2.5226472668378688	2.15
C 	54.711370567522145	3.8903381116905456	2.15
C 	56.086758656324804	4.243477751464633	2.15
C 	56.46862480159848	5.6111685963173095	2.15
C 	57.84401289040113	5.964308236091404	2.15
C 	58.225879035674815	7.331999080944081	2.15
C 	47.07069783296151	-0.6107417768852726	2.15
C 	48.446085921764166	-0.2576021371111797	2.15
C 	48.82795206703785	1.1100887077414967	2.15
C 	50.20334015584051	1.4632283475155847	2.15
C 	50.585206301114184	2.830919192368261	2.15
C 	51.96059438991684	3.184058832142354	2.15
C 	52.34246053519052	4.551749676995031	2.15
C 	53.71784862399317	4.904889316769127	2.15
C 	54.099714769266846	6.2725801616218035	2.15
C 	55.4751028580695	6.625719801395891	2.15
C 	55.85696900334318	7.993410646248568	2.15
C 	57.23235709214584	8.346550286022662	2.15
C 	57.614223237419516	9.714241130875338	2.15
C 	58.989611326222175	10.067380770649432	2.15
C 	59.37147747149585	11.435071615502109	2.15
C 	60.746865560298495	11.7882112552762	2.15
C 	61.12873170557217	13.155902100128877	2.15
C 	62.50411979437483	13.509041739902969	2.15
C 	62.88598593964851	14.876732584755645	2.15
C 	44.70178780062987	0.05066978841920567	2.15
C 	46.07717588943253	0.40380942819330384	2.15
C 	46.45904203470621	1.7715002730459768	2.15
C 	47.83443012350887	2.124639912820077	2.15
C 	48.21629626878254	3.49233075767275	2.15
C 	49.5916843575852	3.8454703974468396	2.15
C 	49.97355050285888	5.213161242299512	2.15
C 	51.348938591661536	5.566300882073611	2.15
C 	51.73080473693521	6.933991726926283	2.15
C 	53.10619282573787	7.28713136670038	2.15
C 	53.488058971011554	8.654822211553054	2.15
C 	54.8634470598142	9.007961851327146	2.15
C 	55.24531320508788	10.37565269617982	2.15
C 	56.620701293890534	10.728792335953917	2.15
C 	57.00256743916421	12.09648318080659	2.15
C 	58.37795552796687	12.44962282058069	2.15
C 	58.759821673240545	13.817313665433362	2.15
C 	60.135209762043196	14.170453305207452	2.15
C 	60.51707590731687	15.538144150060125	2.15
C 	61.89246399611954	15.891283789834224	2.15
C 	62.274330141393214	17.258974634686897	2.15
C 	63.649718230195866	17.612114274460993	2.15
C 	64.03158437546955	18.979805119313667	2.15
C 	65.4069724642722	19.332944759087756	2.15
C 	65.78883860954588	20.700635603940434	2.15
C 	42.33287776829823	0.7120813537237013	2.15
C 	43.70826585710089	1.0652209934977874	2.15
C 	44.09013200237457	2.432911838350464	2.15
C 	45.46552009117723	2.7860514781245587	2.15
C 	45.84738623645091	4.1537423229772354	2.15
C 	47.22277432525357	4.50688196275133	2.15
C 	47.604640470527244	5.8745728076040065	2.15
C 	48.980028559329895	6.227712447378096	2.15
C 	49.36189470460357	7.595403292230772	2.15
C 	50.73728279340623	7.948542932004865	2.15
C 	51.11914893867991	9.316233776857542	2.15
C 	52.49453702748257	9.669373416631636	2.15
C 	52.87640317275625	11.037064261484312	2.15
C 	54.25179126155891	11.390203901258399	2.15
C 	54.63365740683258	12.757894746111075	2.15
C 	56.00904549563523	13.111034385885175	2.15
C 	56.390911640908904	14.478725230737851	2.15
C 	57.76629972971156	14.831864870511943	2.15
C 	58.148165874985246	16.19955571536462	2.15
C 	59.5235539637879	16.55269535513871	2.15
C 	59.90542010906158	17.920386199991384	2.15
C 	61.28080819786424	18.273525839765476	2.15
C 	61.662674343137915	19.641216684618154	2.15
C 	63.03806243194056	19.994356324392253	2.15
C 	63.419928577214236	21.362047169244928	2.15
C 	64.7953166660169	21.715186809019016	2.15
C 	65.17718281129058	23.08287765387169	2.15
C 	66.55257090009323	23.43601729364578	2.15
C 	66.9344370453669	24.803708138498454	2.15
C 	68.30982513416957	25.156847778272557	2.15
C 	68.69169127944325	26.52453862312523	2.15
C 	70.0670793682459	26.877678262899316	2.15
C 	70.44894551351959	28.245369107751994	2.15
C 	38.20671350189027	-0.3473375655985779	2.15
C 	39.58210159069293	0.0058020741755099884	2.15
C 	39.963967735966605	1.3734929190281864	2.15
C 	41.33935582476926	1.7266325588022813	2.15
C 	41.72122197004294	3.0943234036549576	2.15
C 	43.09661005884559	3.4474630434290474	2.15
C 	43.47847620411927	4.815153888281724	2.15
C 	44.85386429292193	5.168293528055817	2.15
C 	45.2357304381956	6.535984372908493	2.15
C 	46.61111852699826	6.889124012682588	2.15
C 	46.99298467227194	8.256814857535264	2.15
C 	48.368372761074596	8.609954497309353	2.15
C 	48.75023890634828	9.97764534216203	2.15
C 	50.12562699515094	10.330784981936123	2.15
C 	50.507493140424614	11.6984758267888	2.15
C 	51.882881229227266	12.051615466562895	2.15
C 	52.26474737450094	13.419306311415571	2.15
C 	53.6401354633036	13.77244595118966	2.15
C 	54.02200160857728	15.140136796042336	2.15
C 	55.39738969737993	15.49327643581643	2.15
C 	55.77925584265361	16.860967280669108	2.15
C 	57.15464393145627	17.2141069204432	2.15
C 	57.53651007672995	18.581797765295878	2.15
C 	58.9118981655326	18.934937405069967	2.15
C 	59.293764310806274	20.30262824992264	2.15
C 	60.66915239960893	20.655767889696737	2.15
C 	61.05101854488261	22.023458734549415	2.15
C 	62.42640663368526	22.376598374323507	2.15
C 	62.808272778958944	23.744289219176185	2.15
C 	64.1836608677616	24.097428858950273	2.15
C 	64.56552701303528	25.465119703802948	2.15
C 	65.94091510183793	25.818259343577036	2.15
C 	66.3227812471116	27.18595018842971	2.15
C 	67.69816933591427	27.539089828203814	2.15
C 	68.08003548118795	28.906780673056492	2.15
C 	69.4554235699906	29.259920312830577	2.15
C 	69.83728971526428	30.627611157683255	2.15
C 	71.21267780406693	30.980750797457343	2.15
C 	71.5945439493406	32.34844164231002	2.15
C 	72.96993203814327	32.70158128208412	2.15
C 	73.35179818341696	34.069272126936795	2.15
C 	74.72718627221961	34.42241176671089	2.15
C 	75.10905241749329	35.79010261156356	2.15
C 	35.83780346955864	0.3140739997059022	2.15
C 	37.21319155836129	0.6672136394800021	2.15
C 	37.595057703634964	2.0349044843326753	2.15
C 	38.97044579243762	2.3880441241067647	2.15
C 	39.3523119377113	3.755734968959438	2.15
C 	40.727700026513965	4.108874608733536	2.15
C 	41.10956617178764	5.476565453586209	2.15
C 	42.48495426059029	5.8297050933603005	2.15
C 	42.86682040586397	7.197395938212973	2.15
C 	44.24220849466662	7.550535577987073	2.15
C 	44.6240746399403	8.918226422839746	2.15
C 	45.999462728742955	9.271366062613843	2.15
C 	46.38132887401664	10.639056907466516	2.15
C 	47.75671696281929	10.992196547240606	2.15
C 	48.13858310809297	12.359887392093281	2.15
C 	49.51397119689564	12.713027031867377	2.15
C 	49.895837342169315	14.08071787672005	2.15
C 	51.27122543097197	14.43385751649415	2.15
C 	51.65309157624564	15.801548361346823	2.15
C 	53.028479665048295	16.154688001120913	2.15
C 	53.41034581032197	17.522378845973588	2.15
C 	54.78573389912464	17.875518485747683	2.15
C 	55.16760004439831	19.243209330600358	2.15
C 	56.54298813320097	19.59634897037445	2.15
C 	56.92485427847465	20.964039815227128	2.15
C 	58.30024236727729	21.31717945500122	2.15
C 	58.68210851255097	22.684870299853895	2.15
C 	60.05749660135363	23.038009939627994	2.15
C 	60.4393627466273	24.405700784480665	2.15
C 	61.81475083542997	24.75884042425476	2.15
C 	62.196616980703645	26.126531269107435	2.15
C 	63.572005069506304	26.479670908881523	2.15
C 	63.95387121477998	27.847361753734198	2.15
C 	65.32925930358263	28.200501393508286	2.15
C 	65.71112544885631	29.56819223836096	2.15
C 	67.08651353765896	29.921331878135067	2.15
C 	67.46837968293264	31.289022722987742	2.15
C 	68.8437677717353	31.64216236276183	2.15
C 	69.22563391700898	33.009853207614505	2.15
C 	70.60102200581163	33.3629928473886	2.15
C 	70.9828881510853	34.73068369224127	2.15
C 	72.35827623988797	35.08382333201537	2.15
C 	72.74014238516165	36.451514176868045	2.15
C 	74.1155304739643	36.80465381664214	2.15
C 	74.49739661923797	38.17234466149482	2.15
C 	75.87278470804064	38.525484301268904	2.15
C 	76.25465085331432	39.89317514612158	2.15
C 	31.711639203150668	-0.7453449196163734	2.15
C 	33.087027291953326	-0.39220527984228387	2.15
C 	33.468893437227	0.9754855650103926	2.15
C 	34.844281526029654	1.3286252047844858	2.15
C 	35.22614767130333	2.6963160496371623	2.15
C 	36.60153576010599	3.049455689411255	2.15
C 	36.98340190537967	4.417146534263932	2.15
C 	38.358789994182324	4.770286174038021	2.15
C 	38.740656139456	6.137977018890698	2.15
C 	40.11604422825866	6.491116658664791	2.15
C 	40.497910373532335	7.858807503517467	2.15
C 	41.873298462334986	8.211947143291557	2.15
C 	42.25516460760866	9.579637988144233	2.15
C 	43.63055269641132	9.932777627918327	2.15
C 	44.012418841685005	11.300468472771003	2.15
C 	45.387806930487656	11.653608112545099	2.15
C 	45.76967307576133	13.021298957397775	2.15
C 	47.14506116456399	13.374438597171862	2.15
C 	47.52692730983767	14.742129442024538	2.15
C 	48.902315398640326	15.095269081798634	2.15
C 	49.284181543914	16.46295992665131	2.15
C 	50.65956963271666	16.816099566425404	2.15
C 	51.041435777990344	18.183790411278082	2.15
C 	52.416823866792996	18.53693005105217	2.15
C 	52.79869001206668	19.904620895904845	2.15
C 	54.17407810086933	20.25776053567894	2.15
C 	54.55594424614301	21.625451380531615	2.15
C 	55.931332334945665	21.97859102030571	2.15
C 	56.31319848021934	23.34628186515839	2.15
C 	57.68858656902199	23.699421504932477	2.15
C 	58.07045271429567	25.067112349785152	2.15
C 	59.445840803098335	25.420251989559247	2.15
C 	59.82770694837201	26.787942834411922	2.15
C 	61.20309503717466	27.141082474186017	2.15
C 	61.58496118244834	28.508773319038696	2.15
C 	62.960349271251	28.86191295881278	2.15
C 	63.342215416524674	30.22960380366546	2.15
C 	64.71760350532733	30.582743443439544	2.15
C 	65.09946965060101	31.95043428829222	2.15
C 	66.47485773940366	32.30357392806633	2.15
C 	66.85672388467734	33.671264772919	2.15
C 	68.23211197348	34.02440441269309	2.15
C 	68.61397811875368	35.39209525754576	2.15
C 	69.98936620755633	35.745234897319854	2.15
C 	70.37123235283	37.11292574217253	2.15
C 	71.74662044163267	37.46606538194663	2.15
C 	72.12848658690635	38.83375622679931	2.15
C 	73.503874675709	39.186895866573394	2.15
C 	73.88574082098268	40.554586711426076	2.15
C 	75.26112890978534	40.90772635120016	2.15
C 	75.64299505505902	42.275417196052835	2.15
C 	29.34272917081903	-0.08393335431188732	2.15
C 	30.71811725962169	0.26920628546220654	2.15
C 	31.09998340489537	1.636897130314883	2.15
C 	32.47537149369802	1.990036770088976	2.15
C 	32.857237638971704	3.3577276149416524	2.15
C 	34.232625727774355	3.710867254715742	2.15
C 	34.61449187304804	5.0785580995684185	2.15
C 	35.98987996185069	5.431697739342515	2.15
C 	36.371746107124366	6.799388584195191	2.15
C 	37.747134195927025	7.152528223969278	2.15
C 	38.1290003412007	8.520219068821953	2.15
C 	39.50438843000335	8.87335870859605	2.15
C 	39.88625457527703	10.241049553448727	2.15
C 	41.26164266407969	10.594189193222814	2.15
C 	41.64350880935337	11.96188003807549	2.15
C 	43.01889689815602	12.315019677849586	2.15
C 	43.4007630434297	13.682710522702262	2.15
C 	44.77615113223236	14.035850162476356	2.15
C 	45.15801727750603	15.403541007329032	2.15
C 	46.533405366308685	15.756680647103122	2.15
C 	46.91527151158236	17.1243714919558	2.15
C 	48.29065960038502	17.47751113172989	2.15
C 	48.6725257456587	18.84520197658257	2.15
C 	50.04791383446136	19.19834161635666	2.15
C 	50.42977997973504	20.56603246120934	2.15
C 	51.8051680685377	20.919172100983427	2.15
C 	52.18703421381137	22.286862945836102	2.15
C 	53.562422302614024	22.6400025856102	2.15
C 	53.9442884478877	24.007693430462876	2.15
C 	55.31967653669036	24.360833070236968	2.15
C 	55.70154268196404	25.728523915089646	2.15
C 	57.076930770766694	26.081663554863734	2.15
C 	57.45879691604037	27.449354399716412	2.15
C 	58.83418500484303	27.802494039490504	2.15
C 	59.216051150116705	29.170184884343183	2.15
C 	60.59143923891936	29.523324524117278	2.15
C 	60.97330538419303	30.891015368969953	2.15
C 	62.34869347299569	31.24415500874404	2.15
C 	62.73055961826937	32.61184585359672	2.15
C 	64.10594770707203	32.964985493370804	2.15
C 	64.48781385234571	34.33267633822348	2.15
C 	65.86320194114836	34.685815977997585	2.15
C 	66.24506808642204	36.05350682285026	2.15
C 	67.6204561752247	36.406646462624344	2.15
C 	68.00232232049838	37.774337307477026	2.15
C 	69.37771040930103	38.12747694725111	2.15
C 	69.7595765545747	39.495167792103786	2.15
C 	71.13496464337736	39.84830743187789	2.15
C 	71.51683078865103	41.215998276730566	2.15
C 	72.89221887745369	41.56913791650465	2.15
C 	73.27408502272736	42.93682876135733	2.15
C 	74.64947311153003	43.28996840113142	2.15
C 	75.0313392568037	44.65765924598409	2.15
C 	26.973819138487396	0.5774782109925962	2.15
C 	28.349207227290055	0.9306178507666901	2.15
C 	28.73107337256373	2.298308695619363	2.15
C 	30.106461461366386	2.651448335393462	2.15
C 	30.488327606640063	4.019139180246135	2.15
C 	31.86371569544272	4.372278820020229	2.15
C 	32.2455818407164	5.739969664872902	2.15
C 	33.620969929519056	6.093109304646998	2.15
C 	34.00283607479273	7.460800149499672	2.15
C 	35.37822416359539	7.813939789273768	2.15
C 	35.76009030886907	9.18163063412644	2.15
C 	37.13547839767172	9.534770273900534	2.15
C 	37.517344542945395	10.902461118753207	2.15
C 	38.89273263174805	11.255600758527304	2.15
C 	39.27459877702174	12.623291603379977	2.15
C 	40.64998686582438	12.97643124315407	2.15
C 	41.031853011098065	14.344122088006744	2.15
C 	42.40724109990072	14.69726172778084	2.15
C 	42.7891072451744	16.064952572633512	2.15
C 	44.16449533397705	16.41809221240761	2.15
C 	44.54636147925073	17.785783057260286	2.15
C 	45.921749568053386	18.138922697034374	2.15
C 	46.30361571332706	19.50661354188705	2.15
C 	47.67900380212973	19.859753181661144	2.15
C 	48.060869947403404	21.22744402651382	2.15
C 	49.436258036206056	21.580583666287914	2.15
C 	49.81812418147973	22.94827451114059	2.15
C 	51.19351227028239	23.301414150914677	2.15
C 	51.57537841555607	24.669104995767356	2.15
C 	52.950766504358725	25.022244635541455	2.15
C 	53.3326326496324	26.389935480394126	2.15
C 	54.70802073843507	26.74307512016822	2.15
C 	55.08988688370874	28.110765965020896	2.15
C 	56.465274972511395	28.463905604794984	2.15
C 	56.84714111778507	29.831596449647662	2.15
C 	58.22252920658773	30.18473608942176	2.15
C 	58.604395351861406	31.552426934274433	2.15
C 	59.97978344066406	31.905566574048528	2.15
C 	60.361649585937734	33.2732574189012	2.15
C 	61.73703767474039	33.626397058675295	2.15
C 	62.118903820014076	34.99408790352797	2.15
C 	63.49429190881673	35.347227543302054	2.15
C 	63.87615805409041	36.71491838815473	2.15
C 	65.25154614289306	37.068058027928835	2.15
C 	65.63341228816674	38.43574887278151	2.15
C 	67.0088003769694	38.788888512555594	2.15
C 	67.39066652224308	40.156579357408276	2.15
C 	68.76605461104573	40.50971899718236	2.15
C 	69.14792075631941	41.87740984203504	2.15
C 	70.52330884512206	42.23054948180914	2.15
C 	70.90517499039574	43.598240326661816	2.15
C 	72.28056307919839	43.95137996643591	2.15
C 	72.66242922447208	45.31907081128858	2.15
C 	74.03781731327473	45.67221045106267	2.15
C 	22.847654872079428	-0.48194070832968633	2.15
C 	24.223042960882083	-0.12880106855558984	2.15
C 	24.604909106155763	1.238889776297085	2.15
C 	25.98029719495842	1.592029416071177	2.15
C 	26.362163340232097	2.9597202609238518	2.15
C 	27.73755142903475	3.3128599006979456	2.15
C 	28.11941757430843	4.680550745550621	2.15
C 	29.494805663111087	5.033690385324716	2.15
C 	29.876671808384764	6.401381230177391	2.15
C 	31.252059897187415	6.7545208699514845	2.15
C 	31.633926042461095	8.122211714804157	2.15
C 	33.00931413126375	8.475351354578251	2.15
C 	33.39118027653743	9.843042199430927	2.15
C 	34.766568365340085	10.196181839205025	2.15
C 	35.14843451061376	11.563872684057701	2.15
C 	36.52382259941642	11.917012323831788	2.15
C 	36.9056887446901	13.284703168684464	2.15
C 	38.281076833492754	13.63784280845856	2.15
C 	38.66294297876643	15.005533653311236	2.15
C 	40.03833106756909	15.358673293085323	2.15
C 	40.420197212842766	16.726364137938	2.15
C 	41.79558530164542	17.079503777712095	2.15
C 	42.17745144691909	18.447194622564773	2.15
C 	43.55283953572175	18.800334262338865	2.15
C 	43.934705680995435	20.168025107191543	2.15
C 	45.31009376979808	20.52116474696563	2.15
C 	45.69195991507176	21.88885559181831	2.15
C 	47.06734800387442	22.2419952315924	2.15
C 	47.4492141491481	23.609686076445076	2.15
C 	48.82460223795076	23.96282571621917	2.15
C 	49.20646838322443	25.33051656107185	2.15
C 	50.581856472027084	25.683656200845938	2.15
C 	50.96372261730076	27.051347045698613	2.15
C 	52.339110706103426	27.40448668547271	2.15
C 	52.7209768513771	28.772177530325386	2.15
C 	54.09636494017976	29.12531717009948	2.15
C 	54.47823108545344	30.493008014952157	2.15
C 	55.85361917425609	30.846147654726245	2.15
C 	56.235485319529765	32.21383849957892	2.15
C 	57.610873408332424	32.56697813935301	2.15
C 	57.9927395536061	33.93466898420569	2.15
C 	59.36812764240876	34.287808623979785	2.15
C 	59.749993787682435	35.65549946883247	2.15
C 	61.12538187648509	36.00863910860655	2.15
C 	61.50724802175877	37.376329953459226	2.15
C 	62.88263611056143	37.72946959323331	2.15
C 	63.264502255835104	39.09716043808599	2.15
C 	64.63989034463776	39.45030007786009	2.15
C 	65.02175648991144	40.81799092271277	2.15
C 	66.39714457871409	41.17113056248686	2.15
C 	66.77901072398777	42.53882140733953	2.15
C 	68.15439881279042	42.89196104711362	2.15
C 	68.5362649580641	44.2596518919663	2.15
C 	69.91165304686676	44.6127915317404	2.15
C 	70.29351919214044	45.98048237659307	2.15
C 	71.66890728094309	46.333622016367165	2.15
C 	20.47874483974779	0.17947085697480067	2.15
C 	21.854132928550445	0.5326104967488937	2.15
C 	22.235999073824125	1.9003013416015684	2.15
C 	23.611387162626784	2.253440981375665	2.15
C 	23.99325330790046	3.6211318262283396	2.15
C 	25.368641396703115	3.9742714660024325	2.15
C 	25.750507541976795	5.3419623108551075	2.15
C 	27.125895630779453	5.6951019506291995	2.15
C 	27.50776177605313	7.062792795481874	2.15
C 	28.88314986485578	7.4159324352559715	2.15
C 	29.26501601012946	8.783623280108644	2.15
C 	30.64040409893212	9.136762919882738	2.15
C 	31.022270244205796	10.504453764735414	2.15
C 	32.39765833300845	10.857593404509508	2.15
C 	32.77952447828213	12.225284249362181	2.15
C 	34.154912567084786	12.578423889136278	2.15
C 	34.53677871235846	13.946114733988951	2.15
C 	35.91216680116111	14.299254373763043	2.15
C 	36.2940329464348	15.666945218615718	2.15
C 	37.669421035237455	16.02008485838981	2.15
C 	38.05128718051113	17.387775703242486	2.15
C 	39.42667526931378	17.740915343016578	2.15
C 	39.80854141458746	19.108606187869253	2.15
C 	41.18392950339012	19.461745827643348	2.15
C 	41.565795648663794	20.829436672496023	2.15
C 	42.94118373746645	21.182576312270122	2.15
C 	43.32304988274013	22.550267157122796	2.15
C 	44.69843797154279	22.90340679689689	2.15
C 	45.080304116816464	24.271097641749556	2.15
C 	46.45569220561912	24.62423728152365	2.15
C 	46.8375583508928	25.99192812637633	2.15
C 	48.21294643969545	26.34506776615043	2.15
C 	48.59481258496913	27.7127586110031	2.15
C 	49.97020067377179	28.065898250777195	2.15
C 	50.35206681904546	29.433589095629863	2.15
C 	51.72745490784812	29.78672873540396	2.15
C 	52.109321053121796	31.154419580256636	2.15
C 	53.484709141924455	31.507559220030736	2.15
C 	53.86657528719813	32.87525006488341	2.15
C 	55.24196337600079	33.2283897046575	2.15
C 	55.623829521274466	34.59608054951017	2.15
C 	56.999217610077125	34.94922018928427	2.15
C 	57.38108375535081	36.31691103413694	2.15
C 	58.75647184415346	36.67005067391104	2.15
C 	59.138337989427136	38.03774151876372	2.15
C 	60.513726078229794	38.39088115853781	2.15
C 	60.89559222350347	39.758572003390476	2.15
C 	62.27098031230613	40.11171164316457	2.15
C 	62.652846457579805	41.47940248801724	2.15
C 	64.02823454638246	41.83254212779135	2.15
C 	64.41010069165614	43.200232972644024	2.15
C 	65.78548878045879	43.553372612418116	2.15
C 	66.16735492573247	44.92106345727078	2.15
C 	67.54274301453512	45.27420309704488	2.15
C 	16.352580573339825	-0.8799480623474785	2.15
C 	17.72796866214248	-0.5268084225733854	2.15
C 	18.109834807416156	0.8408824222792893	2.15
C 	19.48522289621881	1.1940220620533823	2.15
C 	19.86708904149249	2.561712906906057	2.15
C 	21.242477130295146	2.9148525466801503	2.15
C 	21.624343275568823	4.282543391532825	2.15
C 	22.999731364371478	4.635683031306922	2.15
C 	23.381597509645157	6.003373876159596	2.15
C 	24.75698559844782	6.356513515933688	2.15
C 	25.138851743721496	7.724204360786363	2.15
C 	26.514239832524147	8.077344000560457	2.15
C 	26.896105977797827	9.445034845413131	2.15
C 	28.271494066600486	9.798174485187225	2.15
C 	28.653360211874162	11.165865330039901	2.15
C 	30.028748300676813	11.519004969813997	2.15
C 	30.410614445950493	12.886695814666671	2.15
C 	31.786002534753152	13.239835454440762	2.15
C 	32.16786868002683	14.607526299293438	2.15
C 	33.54325676882948	14.960665939067534	2.15
C 	33.925122914103156	16.32835678392021	2.15
C 	35.300511002905814	16.6814964236943	2.15
C 	35.68237714817949	18.049187268546973	2.15
C 	37.05776523698215	18.40232690832107	2.15
C 	37.439631382255826	19.770017753173747	2.15
C 	38.815019471058484	20.12315739294783	2.15
C 	39.19688561633216	21.49084823780051	2.15
C 	40.57227370513481	21.843987877574605	2.15
C 	40.954139850408495	23.211678722427283	2.15
C 	42.329527939211154	23.564818362201375	2.15
C 	42.71139408448483	24.93250920705405	2.15
C 	44.08678217328748	25.285648846828142	2.15
C 	44.46864831856116	26.653339691680817	2.15
C 	45.84403640736382	27.006479331454912	2.15
C 	46.22590255263749	28.374170176307587	2.15
C 	47.60129064144016	28.727309816081682	2.15
C 	47.983156786713835	30.095000660934357	2.15
C 	49.358544875516486	30.448140300708445	2.15
C 	49.74041102079016	31.815831145561123	2.15
C 	51.115799109592814	32.16897078533522	2.15
C 	51.49766525486649	33.53666163018789	2.15
C 	52.87305334366915	33.889801269961985	2.15
C 	53.254919488942825	35.25749211481467	2.15
C 	54.630307577745484	35.61063175458875	2.15
C 	55.01217372301917	36.978322599441434	2.15
C 	56.387561811821826	37.331462239215526	2.15
C 	56.7694279570955	38.6991530840682	2.15
C 	58.14481604589815	39.0522927238423	2.15
C 	58.52668219117183	40.419983568694974	2.15
C 	59.90207027997449	40.77312320846906	2.15
C 	60.283936425248164	42.14081405332173	2.15
C 	61.65932451405082	42.493953693095825	2.15
C 	62.0411906593245	43.8616445379485	2.15
C 	63.41657874812716	44.2147841777226	2.15
C 	63.798444893400834	45.58247502257528	2.15
C 	65.17383298220349	45.935614662349366	2.15
C 	13.98367054100819	-0.2185364970429915	2.15
C 	15.359058629810844	0.13460314273110327	2.15
C 	15.740924775084522	1.502293987583778	2.15
C 	17.116312863887178	1.855433627357871	2.15
C 	17.498179009160857	3.2231244722105457	2.15
C 	18.873567097963512	3.576264111984639	2.15
C 	19.25543324323719	4.943954956837314	2.15
C 	20.630821332039844	5.297094596611407	2.15
C 	21.012687477313523	6.6647854414640815	2.15
C 	22.38807556611618	7.017925081238178	2.15
C 	22.769941711389855	8.385615926090853	2.15
C 	24.14532980019251	8.738755565864945	2.15
C 	24.52719594546619	10.106446410717618	2.15
C 	25.90258403426885	10.459586050491714	2.15
C 	26.284450179542524	11.82727689534439	2.15
C 	27.65983826834518	12.180416535118484	2.15
C 	28.04170441361886	13.548107379971162	2.15
C 	29.417092502421514	13.901247019745252	2.15
C 	29.79895864769519	15.268937864597925	2.15
C 	31.174346736497846	15.62207750437202	2.15
C 	31.556212881771526	16.989768349224697	2.15
C 	32.93160097057418	17.342907988998792	2.15
C 	33.31346711584786	18.710598833851467	2.15
C 	34.688855204650515	19.063738473625556	2.15
C 	35.07072134992419	20.431429318478234	2.15
C 	36.44610943872684	20.784568958252326	2.15
C 	36.82797558400053	22.152259803105004	2.15
C 	38.20336367280318	22.505399442879092	2.15
C 	38.58522981807686	23.87309028773177	2.15
C 	39.96061790687951	24.226229927505862	2.15
C 	40.342484052153196	25.59392077235854	2.15
C 	41.71787214095585	25.947060412132636	2.15
C 	42.099738286229524	27.31475125698531	2.15
C 	43.47512637503218	27.6678908967594	2.15
C 	43.85699252030586	29.035581741612074	2.15
C 	45.232380609108525	29.388721381386166	2.15
C 	45.6142467543822	30.756412226238844	2.15
C 	46.98963484318485	31.10955186601294	2.15
C 	47.37150098845853	32.47724271086562	2.15
C 	48.74688907726119	32.8303823506397	2.15
C 	49.12875522253486	34.198073195492384	2.15
C 	50.504143311337515	34.551212835266476	2.15
C 	50.88600945661119	35.91890368011915	2.15
C 	52.26139754541386	36.27204331989325	2.15
C 	52.64326369068753	37.639734164745924	2.15
C 	54.018651779490185	37.99287380452001	2.15
C 	54.40051792476386	39.36056464937269	2.15
C 	55.77590601356652	39.71370428914678	2.15
C 	56.157772158840196	41.08139513399946	2.15
C 	57.533160247642854	41.43453477377356	2.15
C 	57.91502639291654	42.80222561862623	2.15
C 	59.29041448171919	43.155365258400316	2.15
C 	59.67228062699287	44.523056103253	2.15
C 	61.047668715795524	44.87619574302708	2.15
C 	61.42953486106921	46.24388658787976	2.15
C 	62.80492294987186	46.59702622765386	2.15
C 	11.614760508676552	0.4428750682614942	2.15
C 	12.99014859747921	0.7960147080355885	2.15
C 	13.372014742752889	2.1637055528882634	2.15
C 	14.747402831555544	2.516845192662358	2.15
C 	15.129268976829222	3.8845360375150326	2.15
C 	16.504657065631875	4.2376756772891255	2.15
C 	16.886523210905555	5.605366522141801	2.15
C 	18.26191129970821	5.958506161915894	2.15
C 	18.64377744498189	7.326197006768568	2.15
C 	20.019165533784545	7.679336646542661	2.15
C 	20.40103167905822	9.047027491395337	2.15
C 	21.776419767860876	9.400167131169432	2.15
C 	22.158285913134556	10.767857976022105	2.15
C 	23.53367400193721	11.1209976157962	2.15
C 	23.915540147210887	12.488688460648877	2.15
C 	25.290928236013542	12.841828100422969	2.15
C 	25.67279438128722	14.209518945275642	2.15
C 	27.04818247008988	14.56265858504974	2.15
C 	27.430048615363557	15.930349429902412	2.15
C 	28.805436704166212	16.283489069676506	2.15
C 	29.18730284943989	17.651179914529184	2.15
C 	30.562690938242547	18.004319554303276	2.15
C 	30.944557083516223	19.372010399155947	2.15
C 	32.31994517231888	19.725150038930046	2.15
C 	32.70181131759256	21.09284088378272	2.15
C 	34.07719940639521	21.44598052355681	2.15
C 	34.459065551668886	22.813671368409484	2.15
C 	35.834453640471544	23.166811008183583	2.15
C 	36.21631978574522	24.534501853036254	2.15
C 	37.59170787454788	24.88764149281035	2.15
C 	37.973574019821555	26.25533233766302	2.15
C 	39.348962108624214	26.608471977437116	2.15
C 	39.73082825389789	27.97616282228979	2.15
C 	41.10621634270055	28.329302462063893	2.15
C 	41.488082487974225	29.696993306916564	2.15
C 	42.86347057677688	30.050132946690656	2.15
C 	43.24533672205055	31.417823791543327	2.15
C 	44.62072481085322	31.77096343131742	2.15
C 	45.002590956126895	33.138654276170094	2.15
C 	46.37797904492955	33.49179391594419	2.15
C 	46.75984519020323	34.85948476079687	2.15
C 	48.13523327900588	35.21262440057096	2.15
C 	48.51709942427956	36.580315245423634	2.15
C 	49.89248751308221	36.933454885197726	2.15
C 	50.27435365835589	38.30114573005041	2.15
C 	51.64974174715855	38.65428536982451	2.15
C 	52.03160789243223	40.021976214677174	2.15
C 	53.40699598123488	40.37511585445127	2.15
C 	53.788862126508555	41.74280669930394	2.15
C 	55.16425021531121	42.09594633907803	2.15
C 	55.54611636058489	43.46363718393071	2.15
C 	56.921504449387555	43.816776823704814	2.15
C 	57.30337059466123	45.18446766855748	2.15
C 	58.67875868346389	45.53760730833157	2.15
C 	7.488596242268583	-0.6165438510607866	2.15
C 	8.86398433107124	-0.2634042112866927	2.15
C 	9.245850476344918	1.104286633565982	2.15
C 	10.621238565147573	1.4574262733400751	2.15
C 	11.00310471042125	2.82511711819275	2.15
C 	12.37849279922391	3.178256757966844	2.15
C 	12.760358944497586	4.545947602819519	2.15
C 	14.135747033300243	4.8990872425936125	2.15
C 	14.51761317857392	6.266778087446289	2.15
C 	15.893001267376576	6.619917727220381	2.15
C 	16.274867412650252	7.987608572073057	2.15
C 	17.650255501452907	8.34074821184715	2.15
C 	18.032121646726587	9.708439056699826	2.15
C 	19.407509735529242	10.061578696473916	2.15
C 	19.789375880802922	11.429269541326592	2.15
C 	21.164763969605577	11.782409181100688	2.15
C 	21.546630114879253	13.150100025953364	2.15
C 	22.92201820368191	13.503239665727456	2.15
C 	23.303884348955588	14.870930510580132	2.15
C 	24.679272437758243	15.224070150354223	2.15
C 	25.06113858303192	16.5917609952069	2.15
C 	26.436526671834574	16.944900634980993	2.15
C 	26.818392817108254	18.31259147983367	2.15
C 	28.193780905910913	18.665731119607763	2.15
C 	28.57564705118459	20.033421964460437	2.15
C 	29.951035139987244	20.38656160423453	2.15
C 	30.332901285260924	21.754252449087208	2.15
C 	31.70828937406358	22.1073920888613	2.15
C 	32.09015551933726	23.475082933713978	2.15
C 	33.46554360813991	23.828222573488066	2.15
C 	33.84740975341359	25.19591341834074	2.15
C 	35.222797842216245	25.549053058114836	2.15
C 	35.60466398748992	26.916743902967514	2.15
C 	36.98005207629257	27.2698835427416	2.15
C 	37.361918221566256	28.637574387594277	2.15
C 	38.73730631036891	28.990714027368373	2.15
C 	39.119172455642584	30.358404872221048	2.15
C 	40.49456054444525	30.711544511995143	2.15
C 	40.876426689718926	32.07923535684782	2.15
C 	42.25181477852158	32.43237499662191	2.15
C 	42.633680923795254	33.800065841474584	2.15
C 	44.00906901259792	34.153205481248676	2.15
C 	44.390935157871596	35.52089632610135	2.15
C 	45.76632324667425	35.87403596587545	2.15
C 	46.14818939194792	37.241726810728125	2.15
C 	47.52357748075058	37.59486645050221	2.15
C 	47.905443626024265	38.96255729535489	2.15
C 	49.28083171482692	39.31569693512898	2.15
C 	49.66269786010059	40.683387779981665	2.15
C 	51.03808594890325	41.03652741975576	2.15
C 	51.41995209417693	42.40421826460843	2.15
C 	52.79534018297958	42.75735790438252	2.15
C 	53.177206328253256	44.1250487492352	2.15
C 	54.552594417055914	44.47818838900929	2.15
C 	54.9344605623296	45.84587923386197	2.15
C 	56.30984865113225	46.199018873636064	2.15
C 	5.119686209936948	0.04486771424370059	2.15
C 	6.495074298739605	0.39800735401779425	2.15
C 	6.876940444013282	1.765698198870469	2.15
C 	8.252328532815937	2.1188378386445628	2.15
C 	8.634194678089615	3.4865286834972378	2.15
C 	10.009582766892272	3.8396683232713307	2.15
C 	10.391448912165949	5.207359168124006	2.15
C 	11.766837000968605	5.5604988078981	2.15
C 	12.148703146242282	6.928189652750775	2.15
C 	13.52409123504494	7.28132929252487	2.15
C 	13.905957380318617	8.649020137377544	2.15
C 	15.281345469121273	9.002159777151638	2.15
C 	15.66321161439495	10.369850622004313	2.15
C 	17.038599703197605	10.722990261778405	2.15
C 	17.420465848471284	12.09068110663108	2.15
C 	18.79585393727394	12.443820746405175	2.15
C 	19.177720082547616	13.811511591257847	2.15
C 	20.553108171350274	14.164651231031947	2.15
C 	20.93497431662395	15.53234207588462	2.15
C 	22.31036240542661	15.88548171565871	2.15
C 	22.692228550700285	17.253172560511388	2.15
C 	24.06761663950294	17.60631220028548	2.15
C 	24.449482784776617	18.974003045138154	2.15
C 	25.824870873579275	19.327142684912253	2.15
C 	26.20673701885295	20.694833529764924	2.15
C 	27.582125107655607	21.047973169539016	2.15
C 	27.963991252929286	22.415664014391695	2.15
C 	29.339379341731945	22.768803654165787	2.15
C 	29.72124548700562	24.13649449901846	2.15
C 	31.096633575808276	24.48963413879256	2.15
C 	31.478499721081956	25.857324983645235	2.15
C 	32.85388780988461	26.210464623419323	2.15
C 	33.23575395515829	27.578155468272	2.15
C 	34.611142043960946	27.931295108046093	2.15
C 	34.99300818923462	29.298985952898764	2.15
C 	36.368396278037274	29.65212559267286	2.15
C 	36.75026242331095	31.019816437525527	2.15
C 	38.12565051211361	31.37295607729963	2.15
C 	38.507516657387285	32.74064692215231	2.15
C 	39.88290474618994	33.0937865619264	2.15
C 	40.26477089146362	34.46147740677907	2.15
C 	41.64015898026628	34.81461704655317	2.15
C 	42.022025125539955	36.182307891405834	2.15
C 	43.39741321434261	36.53544753117993	2.15
C 	43.77927935961629	37.903138376032615	2.15
C 	45.154667448418955	38.25627801580671	2.15
C 	45.53653359369263	39.623968860659375	2.15
C 	46.91192168249528	39.977108500433474	2.15
C 	47.29378782776896	41.34479934528614	2.15
C 	48.66917591657161	41.69793898506025	2.15
C 	49.05104206184529	43.06562982991292	2.15
C 	50.426430150647946	43.418769469687014	2.15
C 	50.80829629592162	44.78646031453968	2.15
C 	52.18368438472427	45.13959995431378	2.15
C 	52.56555052999795	46.50729079916645	2.15
C 	53.940938618800615	46.86043043894055	2.15
C 	2.750776177605313	0.7062792795481877	2.15
C 	4.126164266407969	1.0594189193222814	2.15
C 	4.508030411681647	2.4271097641749564	2.15
C 	5.883418500484303	2.78024940394905	2.15
C 	6.26528464575798	4.147940248801725	2.15
C 	7.640672734560637	4.501079888575819	2.15
C 	8.022538879834313	5.8687707334284935	2.15
C 	9.39792696863697	6.221910373202587	2.15
C 	9.779793113910646	7.58960121805526	2.15
C 	11.155181202713305	7.942740857829355	2.15
C 	11.53704734798698	9.310431702682031	2.15
C 	12.912435436789638	9.663571342456127	2.15
C 	13.294301582063314	11.0312621873088	2.15
C 	14.669689670865973	11.384401827082893	2.15
C 	15.051555816139649	12.752092671935568	2.15
C 	16.426943904942306	13.105232311709662	2.15
C 	16.808810050215982	14.472923156562334	2.15
C 	18.184198139018637	14.82606279633643	2.15
C 	18.566064284292313	16.1937536411891	2.15
C 	19.94145237309497	16.5468932809632	2.15
C 	20.323318518368648	17.914584125815875	2.15
C 	21.698706607171307	18.267723765589967	2.15
C 	22.080572752444983	19.63541461044264	2.15
C 	23.45596084124764	19.988554250216737	2.15
C 	23.837826986521318	21.356245095069408	2.15
C 	25.213215075323973	21.709384734843507	2.15
C 	25.595081220597653	23.07707557969618	2.15
C 	26.970469309400308	23.430215219470274	2.15
C 	27.352335454673984	24.797906064322948	2.15
C 	28.72772354347664	25.151045704097044	2.15
C 	29.109589688750315	26.518736548949715	2.15
C 	30.484977777552977	26.87187618872381	2.15
C 	30.866843922826654	28.23956703357649	2.15
C 	32.242232011629305	28.592706673350573	2.15
C 	32.62409815690299	29.96039751820325	2.15
C 	33.99948624570564	30.313537157977347	2.15
C 	34.381352390979316	31.68122800283002	2.15
C 	35.756740479781975	32.03436764260411	2.15
C 	36.13860662505565	33.402058487456785	2.15
C 	37.51399471385831	33.755198127230884	2.15
C 	37.895860859131986	35.12288897208356	2.15
C 	39.27124894793464	35.47602861185765	2.15
C 	39.65311509320832	36.84371945671033	2.15
C 	41.02850318201097	37.19685909648442	2.15
C 	41.41036932728465	38.56454994133709	2.15
C 	42.785757416087314	38.91768958111119	2.15
C 	43.16762356136099	40.285380425963865	2.15
C 	44.54301165016365	40.63852006573796	2.15
C 	44.924877795437325	42.00621091059064	2.15
C 	46.300265884239984	42.359350550364724	2.15
C 	46.68213202951366	43.7270413952174	2.15
C 	48.05752011831631	44.0801810349915	2.15
C 	48.43938626358999	45.44787187984417	2.15
C 	49.81477435239265	45.801011519618264	2.15
C 	1.7572542340763337	1.7208304846267686	2.15
C 	2.139120379350011	3.0885213294794434	2.15
C 	3.5145084681526675	3.441660969253537	2.15
C 	3.8963746134263446	4.809351814106212	2.15
C 	5.271762702229001	5.162491453880306	2.15
C 	5.653628847502678	6.5301822987329805	2.15
C 	7.029016936305335	6.883321938507074	2.15
C 	7.410883081579012	8.25101278335975	2.15
C 	8.786271170381669	8.604152423133842	2.15
C 	9.168137315655345	9.971843267986516	2.15
C 	10.543525404458002	10.324982907760612	2.15
C 	10.92539154973168	11.692673752613286	2.15
C 	12.300779638534337	12.04581339238738	2.15
C 	12.682645783808013	13.413504237240055	2.15
C 	14.05803387261067	13.766643877014149	2.15
C 	14.439900017884346	15.134334721866825	2.15
C 	15.815288106687003	15.487474361640917	2.15
C 	16.19715425196068	16.855165206493588	2.15
C 	17.572542340763338	17.208304846267684	2.15
C 	17.954408486037014	18.57599569112036	2.15
C 	19.32979657483967	18.929135330894457	2.15
C 	19.71166272011335	20.29682617574713	2.15
C 	21.087050808916004	20.649965815521224	2.15
C 	21.46891695418968	22.017656660373895	2.15
C 	22.84430504299234	22.37079630014799	2.15
C 	23.22617118826602	23.73848714500067	2.15
C 	24.601559277068674	24.09162678477476	2.15
C 	24.98342542234235	25.45931762962744	2.15
C 	26.358813511145005	25.81245726940153	2.15
C 	26.74067965641868	27.1801481142542	2.15
C 	28.11606774522134	27.533287754028297	2.15
C 	28.497933890495016	28.900978598880975	2.15
C 	29.87332197929767	29.254118238655067	2.15
C 	30.25518812457135	30.621809083507745	2.15
C 	31.630576213374006	30.974948723281834	2.15
C 	32.01244235864768	32.34263956813451	2.15
C 	33.38783044745034	32.69577920790861	2.15
C 	33.76969659272402	34.06347005276128	2.15
C 	35.145084681526676	34.41660969253537	2.15
C 	35.52695082680035	35.78430053738804	2.15
C 	36.902338915603	36.13744017716214	2.15
C 	37.28420506087669	37.505131022014815	2.15
C 	38.65959314967934	37.858270661788914	2.15
C 	39.041459294953015	39.22596150664159	2.15
C 	40.41684738375567	39.579101146415674	2.15
C 	40.79871352902935	40.94679199126835	2.15
C 	42.17410161783201	41.29993163104245	2.15
C 	42.555967763105684	42.66762247589512	2.15
C 	43.93135585190835	43.020762115669214	2.15
C 	44.313221997182026	44.388452960521896	2.15
C 	45.68861008598468	44.74159260029598	2.15
C 	46.070476231258354	46.109283445148655	2.15
C 	47.445864320061006	46.462423084922754	2.15
C 	4.6601069039737	7.544733503811561	2.15
C 	5.041973049247377	8.912424348664237	2.15
C 	6.417361138050033	9.265563988438329	2.15
C 	6.79922728332371	10.633254833291005	2.15
C 	8.174615372126366	10.986394473065097	2.15
C 	8.556481517400044	12.354085317917773	2.15
C 	9.931869606202701	12.707224957691867	2.15
C 	10.31373575147638	14.074915802544542	2.15
C 	11.689123840279034	14.428055442318636	2.15
C 	12.070989985552712	15.795746287171312	2.15
C 	13.446378074355367	16.148885926945404	2.15
C 	13.828244219629045	17.51657677179808	2.15
C 	15.2036323084317	17.86971641157217	2.15
C 	15.585498453705378	19.23740725642485	2.15
C 	16.960886542508035	19.59054689619894	2.15
C 	17.34275268778171	20.958237741051615	2.15
C 	18.71814077658437	21.31137738082571	2.15
C 	19.100006921858046	22.679068225678385	2.15
C 	20.475395010660705	23.032207865452477	2.15
C 	20.85726115593438	24.399898710305155	2.15
C 	22.232649244737036	24.753038350079244	2.15
C 	22.614515390010713	26.120729194931922	2.15
C 	23.98990347881337	26.473868834706018	2.15
C 	24.371769624087047	27.84155967955869	2.15
C 	25.747157712889706	28.194699319332784	2.15
C 	26.129023858163382	29.562390164185462	2.15
C 	27.504411946966037	29.915529803959554	2.15
C 	27.886278092239714	31.283220648812225	2.15
C 	29.261666181042372	31.636360288586328	2.15
C 	29.64353232631605	33.004051133439	2.15
C 	31.018920415118703	33.35719077321309	2.15
C 	31.40078656039238	34.72488161806576	2.15
C 	32.77617464919504	35.078021257839865	2.15
C 	33.15804079446872	36.44571210269253	2.15
C 	34.53342888327137	36.798851742466624	2.15
C 	34.915295028545046	38.1665425873193	2.15
C 	36.290683117347704	38.5196822270934	2.15
C 	36.67254926262138	39.887373071946065	2.15
C 	38.04793735142404	40.24051271172017	2.15
C 	38.429803496697716	41.60820355657284	2.15
C 	39.805191585500374	41.96134319634693	2.15
C 	40.18705773077405	43.329034041199606	2.15
C 	41.56244581957671	43.682173680973705	2.15
C 	41.944311964850385	45.04986452582637	2.15
C 	43.319700053653044	45.40300416560048	2.15
C 	9.3202138079474	15.089467007623123	2.15
C 	9.702079953221077	16.4571578524758	2.15
C 	11.077468042023733	16.810297492249894	2.15
C 	11.459334187297411	18.177988337102565	2.15
C 	12.834722276100067	18.531127976876657	2.15
C 	13.216588421373745	19.898818821729336	2.15
C 	14.591976510176401	20.25195846150343	2.15
C 	14.973842655450078	21.619649306356102	2.15
C 	16.349230744252733	21.972788946130194	2.15
C 	16.73109688952641	23.34047979098287	2.15
C 	18.106484978329068	23.693619430756964	2.15
C 	18.488351123602747	25.061310275609642	2.15
C 	19.863739212405402	25.414449915383734	2.15
C 	20.24560535767908	26.78214076023641	2.15
C 	21.620993446481734	27.1352804000105	2.15
C 	22.002859591755414	28.502971244863176	2.15
C 	23.37824768055807	28.85611088463727	2.15
C 	23.76011382583175	30.22380172948995	2.15
C 	25.135501914634403	30.57694136926404	2.15
C 	25.51736805990808	31.944632214116712	2.15
C 	26.892756148710735	32.29777185389081	2.15
C 	27.274622293984415	33.66546269874348	2.15
C 	28.65001038278707	34.01860233851758	2.15
C 	29.03187652806075	35.386293183370256	2.15
C 	30.4072646168634	35.73943282314434	2.15
C 	30.78913076213708	37.107123667997016	2.15
C 	32.164518850939736	37.460263307771115	2.15
C 	32.54638499621341	38.82795415262379	2.15
C 	33.92177308501607	39.18109379239788	2.15
C 	34.30363923028975	40.548784637250556	2.15
C 	35.679027319092405	40.90192427702465	2.15
C 	36.06089346436608	42.26961512187732	2.15
C 	37.43628155316874	42.62275476165142	2.15
C 	37.81814769844242	43.990445606504096	2.15
C 	39.19353578724507	44.34358524627819	2.15
C 	39.575401932518744	45.71127609113086	2.15
C 	40.95079002132141	46.064415730904955	2.15
C 	12.223066477844766	20.913370026807918	2.15
C 	12.604932623118442	22.28106087166059	2.15
C 	13.980320711921097	22.634200511434685	2.15
C 	14.362186857194775	24.00189135628736	2.15
C 	15.73757494599743	24.35503099606145	2.15
C 	16.119441091271106	25.722721840914126	2.15
C 	17.494829180073765	26.075861480688225	2.15
C 	17.87669532534744	27.443552325540896	2.15
C 	19.252083414150103	27.79669196531499	2.15
C 	19.63394955942378	29.164382810167663	2.15
C 	21.009337648226435	29.517522449941758	2.15
C 	21.391203793500114	30.885213294794436	2.15
C 	22.76659188230277	31.23835293456853	2.15
C 	23.148458027576446	32.606043779421206	2.15
C 	24.5238461163791	32.95918341919529	2.15
C 	24.905712261652777	34.32687426404797	2.15
C 	26.281100350455436	34.680013903822065	2.15
C 	26.662966495729115	36.04770474867474	2.15
C 	28.03835458453177	36.40084438844884	2.15
C 	28.420220729805447	37.76853523330151	2.15
C 	29.795608818608102	38.1216748730756	2.15
C 	30.177474963881778	39.48936571792828	2.15
C 	31.552863052684437	39.84250535770237	2.15
C 	31.934729197958113	41.210196202555046	2.15
C 	33.310117286760764	41.56333584232914	2.15
C 	33.69198343203445	42.93102668718181	2.15
C 	35.067371520837106	43.284166326955905	2.15
C 	35.44923766611078	44.65185717180859	2.15
C 	36.82462575491344	45.00499681158268	2.15
C 	37.20649190018712	46.37268765643535	2.15
C 	38.58187998898977	46.725827296209445	2.15
C 	16.883173381818462	28.45810353061948	2.15
C 	17.26503952709214	29.825794375472153	2.15
C 	18.6404276158948	30.178934015246245	2.15
C 	19.022293761168477	31.546624860098923	2.15
C 	20.397681849971132	31.899764499873008	2.15
C 	20.779547995244812	33.26745534472568	2.15
C 	22.154936084047467	33.62059498449979	2.15
C 	22.536802229321143	34.988285829352456	2.15
C 	23.912190318123802	35.341425469126555	2.15
C 	24.294056463397478	36.70911631397923	2.15
C 	25.669444552200133	37.062255953753315	2.15
C 	26.05131069747381	38.42994679860599	2.15
C 	27.426698786276468	38.783086438380096	2.15
C 	27.808564931550144	40.15077728323276	2.15
C 	29.183953020352803	40.50391692300686	2.15
C 	29.565819165626475	41.87160776785953	2.15
C 	30.941207254429134	42.22474740763362	2.15
C 	31.32307339970281	43.592438252486296	2.15
C 	32.698461488505465	43.94557789226039	2.15
C 	33.08032763377914	45.31326873711306	2.15
C 	34.4557157225818	45.66640837688717	2.15
C 	19.78602605171583	34.282006549804265	2.15
C 	20.16789219698951	35.64969739465695	2.15
C 	21.543280285792168	36.00283703443104	2.15
C 	21.925146431065844	37.37052787928371	2.15
C 	23.3005345198685	37.723667519057805	2.15
C 	23.682400665142175	39.09135836391048	2.15
C 	25.05778875394483	39.44449800368457	2.15
C 	25.43965489921851	40.812188848537254	2.15
C 	26.815042988021165	41.165328488311346	2.15
C 	27.19690913329484	42.53301933316402	2.15
C 	28.5722972220975	42.88615897293811	2.15
C 	28.954163367371176	44.25384981779079	2.15
C 	30.32955145617383	44.60698945756488	2.15
C 	30.71141760144751	45.97468030241756	2.15
C 	32.086805690250166	46.327819942191645	2.15
C 	24.44613295568953	41.826740053615836	2.15
C 	24.827999100963208	43.19443089846851	2.15
C 	26.203387189765863	43.5475705382426	2.15
C 	26.58525333503954	44.91526138309528	2.15
C 	27.960641423842194	45.26840102286937	2.15
H 	53.27264952723046	-1.2625816206769218	2.15
H 	55.70379326166334	-0.6383700038931398	2.15
H 	56.37878201140766	1.779168038768992	2.15
H 	50.90373949489883	-0.6011700553724418	2.15
H 	56.849391697484364	3.4647025306648724	2.15
H 	58.6066459315607	5.185533015291647	2.15
H 	59.28163468130502	7.603071057953772	2.15
H 	46.77757522849085	-1.6605889746947171	2.15
H 	49.20871896292373	-1.0363773579109379	2.15
H 	59.75224436738174	9.288605549849674	2.15
H 	61.509498601458056	11.009436034476437	2.15
H 	63.2667528355344	12.73026651910321	2.15
H 	63.94174158527872	15.147804561765337	2.15
H 	44.408665196159234	-0.9991774093902425	2.15
H 	64.41235127135543	16.83333905366123	2.15
H 	66.16960550543176	18.554169538287994	2.15
H 	66.84459425517609	20.97170758095013	2.15
H 	42.03975516382759	-0.3377658440857457	2.15
H 	67.31520394125279	22.65724207284602	2.15
H 	69.07245817532915	24.3780725574728	2.15
H 	70.82971240940546	26.098903042099554	2.15
H 	71.5047011591498	28.51644108476168	2.15
H 	37.91359089741963	-1.3971847634080254	2.15
H 	40.344734631852496	-0.7729731466242499	2.15
H 	71.97531084522649	30.20197557665758	2.15
H 	73.73256507930284	31.922806061284366	2.15
H 	75.48981931337919	33.64363654591113	2.15
H 	76.1648080631235	36.06117458857325	2.15
H 	35.544680865088	-0.7357731981035459	2.15
H 	76.6354177492002	37.746709080469145	2.15
H 	77.31040649894453	40.164247123131275	2.15
H 	31.41851659868003	-1.7951921174258207	2.15
H 	33.849660333112894	-1.1709805006420377	2.15
H 	76.69875070068923	42.54648917306252	2.15
H 	29.049606566348384	-1.1337805521213336	2.15
H 	76.08709490243392	44.92873122299379	2.15
H 	26.680696534016754	-0.47236898681685013	2.15
H 	74.33093991774537	46.722057648872116	2.15
H 	22.554532267608796	-1.5317879061391355	2.15
H 	24.98567600204165	-0.9075762893553461	2.15
H 	69.53088615098088	46.75925759739283	2.15
H 	71.96202988541373	47.383469214176614	2.15
H 	20.18562223527715	-0.870376340834647	2.15
H 	67.83586561900576	46.32405029485433	2.15
H 	16.059457968869186	-1.9297952601569262	2.15
H 	18.490601703302048	-1.3055836433731427	2.15
H 	65.46695558667413	46.985461860158814	2.15
H 	13.69054793653755	-1.2683836948524392	2.15
H 	60.66690181990964	47.022661808679516	2.15
H 	63.0980455543425	47.64687342546331	2.15
H 	11.321637904205911	-0.6069721295479529	2.15
H 	58.97188128793453	46.58745450614102	2.15
H 	7.195473637797942	-1.6663910488702336	2.15
H 	9.626617372230807	-1.0421794320864486	2.15
H 	56.60297125560288	47.24886607144551	2.15
H 	4.826563605466307	-1.0049794835657464	2.15
H 	51.802917488838375	47.2860660199662	2.15
H 	54.234061223271254	47.910277636749996	2.15
H 	2.457653573134673	-0.34356791826125976	2.15
H 	50.107896956863286	46.85085871742771	2.15
H 	0.7014985884461258	1.4497585076170765	2.15
H 	1.3764873381904428	3.867296550279199	2.15
H 	3.133741572266776	5.588127034905968	2.15
H 	45.30784319009879	46.888058665948414	2.15
H 	47.738986924531645	47.5122702827322	2.15
H 	3.604351258343492	7.273661526801869	2.15
H 	4.27934000808781	9.691199569463993	2.15
H 	6.036594242164143	11.412030054090762	2.15
H 	7.793848476240477	13.13286053871753	2.15
H 	43.61282265812368	46.45285136340993	2.15
H 	8.264458162317192	14.818395030613429	2.15
H 	8.939446912061507	17.235933073275554	2.15
H 	10.696701146137846	18.956763557902324	2.15
H 	41.243912625792056	47.114262928714396	2.15
H 	11.167310832214556	20.64229804979823	2.15
H 	11.842299581958871	23.059836092460344	2.15
H 	13.59955381603521	24.780666577087118	2.15
H 	15.356808050111535	26.501497061713877	2.15
H 	36.44385885902755	47.15146287723511	2.15
H 	38.87500259346041	47.775674494018894	2.15
H 	15.827417736188254	28.18703155360979	2.15
H 	16.50240648593257	30.604569596271908	2.15
H 	18.259660720008913	32.32540008089868	2.15
H 	34.74883832705244	46.71625557469662	2.15
H 	18.730270406085623	34.01093457279457	2.15
H 	19.405259155829942	36.428472615456705	2.15
H 	21.162513389906277	38.14930310008347	2.15
H 	22.919767623982608	39.87013358471024	2.15
H 	29.948784560287955	46.753455523217326	2.15
H 	32.379928294720806	47.377667140001094	2.15
H 	23.390377310059325	41.55566807660614	2.15
H 	24.06536605980364	43.97320611926827	2.15
H 	25.82262029387997	45.694036603895036	2.15
H 	28.253764028312826	46.31824822067882	2.15
