2328

C 	0.0	0.0	0.0
C 	1.2297560733739028	0.7099999999999999	0.0
C 	2.4595121467478056	-2.3647750424515833e-16	0.0
C 	3.689268220121708	0.7099999999999995	0.0
C 	4.919024293495611	-4.729550084903167e-16	0.0
C 	6.148780366869514	0.7099999999999993	0.0
C 	7.378536440243416	-7.09432512735475e-16	0.0
C 	8.60829251361732	0.7099999999999991	0.0
C 	9.838048586991222	-9.459100169806333e-16	0.0
C 	11.067804660365125	0.7099999999999989	0.0
C 	12.297560733739026	-1.1823875212257916e-15	0.0
C 	13.527316807112928	0.7099999999999986	0.0
C 	14.757072880486833	-1.41886502547095e-15	0.0
C 	15.986828953860735	0.7099999999999984	0.0
C 	17.21658502723464	-7.671641100159832e-16	0.0
C 	18.44634110060854	0.7099999999999982	0.0
C 	19.676097173982445	-1.8918200339612667e-15	0.0
C 	20.905853247356347	0.7099999999999989	0.0
C 	22.135609320730246	-2.128297538206425e-15	0.0
C 	23.36536539410415	0.7099999999999967	0.0
C 	24.59512146747805	-2.364775042451583e-15	0.0
C 	25.824877540851954	0.7099999999999983	0.0
C 	27.05463361422586	-8.248957072964913e-16	0.0
C 	28.284389687599763	0.7099999999999999	0.0
C 	29.514145760973665	-2.8377300509419e-15	0.0
C 	30.743901834347565	0.7099999999999961	0.0
C 	31.97365790772147	-3.0742075551870582e-15	0.0
C 	33.20341398109537	0.7099999999999976	0.0
C 	34.43317005446928	-1.5343282200319664e-15	0.0
C 	35.66292612784318	0.7099999999999992	0.0
C 	36.892682201217085	-1.7708057242771246e-15	0.0
C 	38.122438274590984	0.7099999999999972	0.0
C 	39.35219434796489	-3.783640067922533e-15	0.0
C 	40.58195042133879	0.7099999999999969	0.0
C 	41.811706494712695	-4.67403893367191e-16	0.0
C 	43.0414625680866	0.7100000000000002	0.0
C 	44.27121864146049	-4.25659507641285e-15	0.0
C 	45.5009747148344	0.7099999999999964	0.0
C 	46.730730788208305	-9.403589018575075e-16	0.0
C 	47.96048686158221	0.7099999999999997	0.0
C 	49.1902429349561	-4.729550084903166e-15	0.0
C 	50.41999900833001	0.709999999999996	0.0
C 	51.64975508170391	-1.413313910347824e-15	0.0
C 	52.879511155077815	0.7099999999999993	0.0
C 	54.10926722845172	-1.6497914145929826e-15	0.0
C 	55.33902330182562	0.7099999999999991	0.0
C 	56.56877937519952	-5.438982597638641e-15	0.0
C 	57.798535448573425	0.7099999999999953	0.0
C 	59.02829152194733	-5.6754601018838e-15	0.0
C 	60.25804759532124	0.709999999999995	0.0
C 	1.2297560733739028	2.1299999999999994	0.0
C 	2.4595121467478056	2.8399999999999994	0.0
C 	3.689268220121708	2.1299999999999994	0.0
C 	4.919024293495611	2.8399999999999994	0.0
C 	6.148780366869514	2.129999999999999	0.0
C 	7.378536440243416	2.839999999999999	0.0
C 	8.60829251361732	2.1299999999999986	0.0
C 	9.838048586991222	2.8399999999999985	0.0
C 	11.067804660365123	2.129999999999998	0.0
C 	12.297560733739028	2.839999999999999	0.0
C 	13.527316807112928	2.1299999999999977	0.0
C 	14.757072880486833	2.839999999999998	0.0
C 	15.986828953860735	2.129999999999998	0.0
C 	17.216585027234636	2.839999999999997	0.0
C 	18.446341100608542	2.129999999999998	0.0
C 	19.676097173982445	2.8399999999999985	0.0
C 	20.905853247356344	2.1299999999999977	0.0
C 	22.13560932073025	2.8399999999999985	0.0
C 	23.36536539410415	2.129999999999997	0.0
C 	24.595121467478055	2.839999999999997	0.0
C 	25.824877540851954	2.1299999999999963	0.0
C 	27.05463361422586	2.839999999999997	0.0
C 	28.284389687599763	2.129999999999998	0.0
C 	29.514145760973665	2.8399999999999985	0.0
C 	30.743901834347568	2.129999999999996	0.0
C 	31.97365790772147	2.8399999999999967	0.0
C 	33.20341398109537	2.129999999999996	0.0
C 	34.43317005446928	2.8399999999999963	0.0
C 	35.66292612784318	2.1299999999999972	0.0
C 	36.89268220121708	2.8399999999999963	0.0
C 	38.122438274590984	2.129999999999997	0.0
C 	39.35219434796489	2.8399999999999976	0.0
C 	40.58195042133879	2.1299999999999986	0.0
C 	41.81170649471269	2.839999999999996	0.0
C 	43.0414625680866	2.129999999999998	0.0
C 	44.2712186414605	2.8399999999999954	0.0
C 	45.5009747148344	2.129999999999998	0.0
C 	46.7307307882083	2.8399999999999954	0.0
C 	47.96048686158221	2.1299999999999977	0.0
C 	49.19024293495611	2.839999999999995	0.0
C 	50.41999900833001	2.1299999999999977	0.0
C 	51.64975508170391	2.8399999999999945	0.0
C 	52.879511155077815	2.1299999999999972	0.0
C 	54.10926722845171	2.8399999999999945	0.0
C 	55.33902330182563	2.130000000000001	0.0
C 	56.56877937519952	2.8399999999999976	0.0
C 	57.798535448573425	2.129999999999997	0.0
C 	59.028291521947324	2.839999999999994	0.0
C 	60.25804759532124	2.129999999999997	0.0
C 	61.487803668695136	2.8399999999999936	0.0
C 	2.4595121467478056	4.259999999999999	0.0
C 	3.689268220121708	4.969999999999999	0.0
C 	4.919024293495611	4.259999999999999	0.0
C 	6.148780366869514	4.969999999999999	0.0
C 	7.378536440243416	4.259999999999999	0.0
C 	8.60829251361732	4.969999999999999	0.0
C 	9.83804858699122	4.259999999999998	0.0
C 	11.067804660365125	4.969999999999999	0.0
C 	12.297560733739028	4.259999999999998	0.0
C 	13.52731680711293	4.969999999999998	0.0
C 	14.757072880486831	4.259999999999998	0.0
C 	15.986828953860735	4.969999999999998	0.0
C 	17.21658502723464	4.259999999999997	0.0
C 	18.446341100608542	4.969999999999998	0.0
C 	19.676097173982445	4.259999999999999	0.0
C 	20.905853247356347	4.969999999999997	0.0
C 	22.135609320730246	4.259999999999996	0.0
C 	23.365365394104153	4.969999999999997	0.0
C 	24.595121467478055	4.259999999999998	0.0
C 	25.824877540851958	4.969999999999997	0.0
C 	27.054633614225857	4.259999999999995	0.0
C 	28.28438968759976	4.969999999999996	0.0
C 	29.514145760973665	4.259999999999997	0.0
C 	30.743901834347568	4.969999999999997	0.0
C 	31.97365790772147	4.259999999999996	0.0
C 	33.20341398109537	4.969999999999995	0.0
C 	34.43317005446927	4.2599999999999945	0.0
C 	35.66292612784318	4.969999999999995	0.0
C 	36.892682201217085	4.259999999999996	0.0
C 	38.122438274590984	4.969999999999997	0.0
C 	39.35219434796489	4.259999999999997	0.0
C 	40.58195042133879	4.969999999999994	0.0
C 	41.81170649471269	4.259999999999995	0.0
C 	43.041462568086594	4.969999999999996	0.0
C 	44.2712186414605	4.259999999999997	0.0
C 	45.500974714834406	4.969999999999998	0.0
C 	46.7307307882083	4.259999999999994	0.0
C 	47.960486861582204	4.9699999999999935	0.0
C 	49.19024293495611	4.259999999999996	0.0
C 	50.41999900833001	4.969999999999997	0.0
C 	51.64975508170391	4.259999999999993	0.0
C 	52.879511155077815	4.9699999999999935	0.0
C 	54.10926722845171	4.259999999999996	0.0
C 	55.33902330182562	4.969999999999997	0.0
C 	56.568779375199526	4.259999999999996	0.0
C 	57.798535448573425	4.969999999999996	0.0
C 	59.028291521947324	4.259999999999995	0.0
C 	60.25804759532123	4.969999999999996	0.0
C 	61.487803668695136	4.259999999999992	0.0
C 	62.717559742069035	4.969999999999993	0.0
C 	3.6892682201217086	6.389999999999999	0.0
C 	4.919024293495611	7.099999999999999	0.0
C 	6.148780366869514	6.389999999999999	0.0
C 	7.378536440243416	7.099999999999999	0.0
C 	8.608292513617318	6.389999999999998	0.0
C 	9.838048586991222	7.099999999999999	0.0
C 	11.067804660365125	6.389999999999998	0.0
C 	12.297560733739028	7.099999999999998	0.0
C 	13.52731680711293	6.389999999999999	0.0
C 	14.757072880486833	7.099999999999998	0.0
C 	15.986828953860735	6.389999999999998	0.0
C 	17.216585027234636	7.099999999999997	0.0
C 	18.44634110060854	6.389999999999997	0.0
C 	19.676097173982445	7.099999999999998	0.0
C 	20.905853247356347	6.389999999999998	0.0
C 	22.13560932073025	7.099999999999997	0.0
C 	23.365365394104153	6.389999999999998	0.0
C 	24.59512146747805	7.099999999999997	0.0
C 	25.824877540851958	6.389999999999998	0.0
C 	27.054633614225857	7.099999999999997	0.0
C 	28.28438968759976	6.389999999999999	0.0
C 	29.514145760973662	7.099999999999997	0.0
C 	30.743901834347568	6.389999999999999	0.0
C 	31.97365790772147	7.099999999999998	0.0
C 	33.20341398109537	6.389999999999995	0.0
C 	34.43317005446928	7.099999999999994	0.0
C 	35.66292612784318	6.389999999999995	0.0
C 	36.892682201217085	7.099999999999996	0.0
C 	38.122438274590984	6.389999999999996	0.0
C 	39.35219434796489	7.099999999999997	0.0
C 	40.58195042133879	6.389999999999994	0.0
C 	41.811706494712695	7.099999999999995	0.0
C 	43.041462568086594	6.389999999999996	0.0
C 	44.2712186414605	7.099999999999997	0.0
C 	45.500974714834406	6.389999999999998	0.0
C 	46.730730788208305	7.099999999999998	0.0
C 	47.960486861582204	6.389999999999995	0.0
C 	49.19024293495611	7.099999999999996	0.0
C 	50.41999900833001	6.389999999999995	0.0
C 	51.649755081703915	7.099999999999996	0.0
C 	52.879511155077815	6.389999999999995	0.0
C 	54.10926722845172	7.099999999999996	0.0
C 	55.33902330182562	6.389999999999995	0.0
C 	56.568779375199526	7.099999999999995	0.0
C 	57.79853544857343	6.389999999999998	0.0
C 	59.02829152194733	7.099999999999999	0.0
C 	60.25804759532123	6.389999999999994	0.0
C 	61.487803668695136	7.099999999999995	0.0
C 	62.71755974206904	6.389999999999994	0.0
C 	63.94731581544294	7.099999999999995	0.0
C 	4.919024293495611	8.519999999999998	0.0
C 	6.148780366869514	9.229999999999999	0.0
C 	7.378536440243416	8.519999999999998	0.0
C 	8.60829251361732	9.229999999999999	0.0
C 	9.838048586991222	8.519999999999998	0.0
C 	11.067804660365125	9.229999999999999	0.0
C 	12.297560733739028	8.519999999999998	0.0
C 	13.52731680711293	9.229999999999997	0.0
C 	14.757072880486833	8.519999999999998	0.0
C 	15.986828953860737	9.229999999999999	0.0
C 	17.216585027234636	8.519999999999998	0.0
C 	18.44634110060854	9.229999999999997	0.0
C 	19.67609717398244	8.519999999999996	0.0
C 	20.905853247356347	9.229999999999997	0.0
C 	22.13560932073025	8.519999999999998	0.0
C 	23.365365394104153	9.229999999999999	0.0
C 	24.595121467478055	8.519999999999996	0.0
C 	25.824877540851954	9.229999999999995	0.0
C 	27.05463361422586	8.519999999999996	0.0
C 	28.284389687599763	9.229999999999997	0.0
C 	29.514145760973662	8.519999999999996	0.0
C 	30.743901834347565	9.229999999999995	0.0
C 	31.97365790772147	8.52	0.0
C 	33.20341398109537	9.229999999999997	0.0
C 	34.43317005446928	8.519999999999994	0.0
C 	35.66292612784318	9.229999999999995	0.0
C 	36.89268220121708	8.519999999999992	0.0
C 	38.122438274590984	9.229999999999993	0.0
C 	39.35219434796489	8.519999999999998	0.0
C 	40.58195042133879	9.229999999999995	0.0
C 	41.811706494712695	8.519999999999994	0.0
C 	43.0414625680866	9.229999999999995	0.0
C 	44.27121864146049	8.519999999999992	0.0
C 	45.5009747148344	9.229999999999993	0.0
C 	46.730730788208305	8.519999999999998	0.0
C 	47.960486861582204	9.229999999999995	0.0
C 	49.19024293495611	8.519999999999996	0.0
C 	50.41999900833001	9.229999999999993	0.0
C 	51.64975508170391	8.519999999999994	0.0
C 	52.879511155077815	9.229999999999995	0.0
C 	54.10926722845171	8.51999999999999	0.0
C 	55.33902330182562	9.229999999999992	0.0
C 	56.568779375199526	8.519999999999998	0.0
C 	57.798535448573425	9.229999999999995	0.0
C 	59.02829152194733	8.519999999999994	0.0
C 	60.25804759532123	9.229999999999993	0.0
C 	61.48780366869513	8.519999999999992	0.0
C 	62.717559742069035	9.229999999999993	0.0
C 	63.94731581544294	8.519999999999992	0.0
C 	65.17707188881684	9.22999999999999	0.0
C 	6.148780366869514	10.649999999999997	0.0
C 	7.378536440243416	11.359999999999998	0.0
C 	8.608292513617318	10.649999999999997	0.0
C 	9.838048586991222	11.359999999999998	0.0
C 	11.067804660365125	10.649999999999997	0.0
C 	12.297560733739028	11.359999999999996	0.0
C 	13.52731680711293	10.649999999999997	0.0
C 	14.757072880486831	11.359999999999996	0.0
C 	15.986828953860735	10.649999999999997	0.0
C 	17.216585027234636	11.359999999999996	0.0
C 	18.44634110060854	10.649999999999997	0.0
C 	19.676097173982445	11.359999999999998	0.0
C 	20.905853247356347	10.649999999999997	0.0
C 	22.13560932073025	11.359999999999996	0.0
C 	23.365365394104153	10.649999999999997	0.0
C 	24.595121467478055	11.359999999999996	0.0
C 	25.824877540851958	10.649999999999997	0.0
C 	27.05463361422586	11.359999999999996	0.0
C 	28.284389687599763	10.649999999999995	0.0
C 	29.514145760973662	11.359999999999994	0.0
C 	30.743901834347565	10.649999999999995	0.0
C 	31.97365790772147	11.359999999999996	0.0
C 	33.20341398109537	10.649999999999997	0.0
C 	34.43317005446928	11.359999999999998	0.0
C 	35.66292612784318	10.649999999999991	0.0
C 	36.89268220121708	11.359999999999992	0.0
C 	38.122438274590984	10.649999999999993	0.0
C 	39.35219434796489	11.359999999999994	0.0
C 	40.58195042133879	10.649999999999993	0.0
C 	41.811706494712695	11.359999999999994	0.0
C 	43.041462568086594	10.649999999999991	0.0
C 	44.2712186414605	11.359999999999992	0.0
C 	45.5009747148344	10.649999999999993	0.0
C 	46.730730788208305	11.359999999999994	0.0
C 	47.960486861582204	10.649999999999995	0.0
C 	49.19024293495611	11.359999999999996	0.0
C 	50.41999900833001	10.649999999999993	0.0
C 	51.649755081703915	11.359999999999994	0.0
C 	52.879511155077815	10.649999999999995	0.0
C 	54.10926722845172	11.359999999999996	0.0
C 	55.33902330182562	10.649999999999993	0.0
C 	56.568779375199526	11.359999999999994	0.0
C 	57.798535448573425	10.649999999999993	0.0
C 	59.02829152194733	11.359999999999992	0.0
C 	60.25804759532124	10.649999999999995	0.0
C 	61.487803668695136	11.359999999999996	0.0
C 	62.717559742069035	10.649999999999991	0.0
C 	63.94731581544294	11.359999999999992	0.0
C 	65.17707188881684	10.649999999999991	0.0
C 	66.40682796219075	11.359999999999992	0.0
C 	7.378536440243417	12.779999999999998	0.0
C 	8.60829251361732	13.489999999999998	0.0
C 	9.838048586991222	12.78	0.0
C 	11.067804660365125	13.489999999999997	0.0
C 	12.297560733739028	12.779999999999998	0.0
C 	13.527316807112932	13.489999999999998	0.0
C 	14.757072880486833	12.779999999999998	0.0
C 	15.986828953860737	13.489999999999997	0.0
C 	17.216585027234636	12.779999999999996	0.0
C 	18.446341100608542	13.489999999999997	0.0
C 	19.676097173982445	12.779999999999998	0.0
C 	20.905853247356347	13.489999999999997	0.0
C 	22.13560932073025	12.779999999999996	0.0
C 	23.36536539410415	13.489999999999995	0.0
C 	24.595121467478055	12.779999999999996	0.0
C 	25.824877540851958	13.489999999999997	0.0
C 	27.05463361422586	12.779999999999998	0.0
C 	28.284389687599763	13.489999999999997	0.0
C 	29.514145760973662	12.779999999999996	0.0
C 	30.743901834347568	13.489999999999997	0.0
C 	31.97365790772147	12.779999999999996	0.0
C 	33.20341398109537	13.489999999999997	0.0
C 	34.43317005446928	12.779999999999998	0.0
C 	35.66292612784318	13.489999999999995	0.0
C 	36.89268220121708	12.779999999999994	0.0
C 	38.122438274590984	13.489999999999995	0.0
C 	39.35219434796489	12.779999999999996	0.0
C 	40.581950421338796	13.489999999999997	0.0
C 	41.811706494712695	12.779999999999996	0.0
C 	43.041462568086594	13.489999999999993	0.0
C 	44.2712186414605	12.779999999999994	0.0
C 	45.5009747148344	13.489999999999995	0.0
C 	46.730730788208305	12.779999999999996	0.0
C 	47.96048686158221	13.489999999999997	0.0
C 	49.19024293495611	12.779999999999998	0.0
C 	50.41999900833001	13.489999999999995	0.0
C 	51.649755081703915	12.779999999999996	0.0
C 	52.879511155077815	13.489999999999993	0.0
C 	54.10926722845172	12.779999999999998	0.0
C 	55.33902330182563	13.489999999999998	0.0
C 	56.56877937519952	12.779999999999998	0.0
C 	57.798535448573425	13.489999999999997	0.0
C 	59.02829152194733	12.779999999999994	0.0
C 	60.25804759532123	13.489999999999991	0.0
C 	61.487803668695136	12.779999999999998	0.0
C 	62.71755974206904	13.489999999999998	0.0
C 	63.94731581544294	12.779999999999994	0.0
C 	65.17707188881684	13.489999999999995	0.0
C 	66.40682796219075	12.77999999999999	0.0
C 	67.63658403556465	13.489999999999988	0.0
C 	8.60829251361732	14.909999999999998	0.0
C 	9.838048586991222	15.619999999999996	0.0
C 	11.067804660365125	14.909999999999997	0.0
C 	12.297560733739026	15.619999999999996	0.0
C 	13.527316807112934	14.909999999999998	0.0
C 	14.757072880486831	15.619999999999996	0.0
C 	15.986828953860737	14.909999999999998	0.0
C 	17.21658502723464	15.619999999999997	0.0
C 	18.446341100608542	14.909999999999997	0.0
C 	19.676097173982445	15.619999999999996	0.0
C 	20.905853247356347	14.909999999999997	0.0
C 	22.135609320730246	15.619999999999996	0.0
C 	23.365365394104153	14.909999999999995	0.0
C 	24.595121467478055	15.619999999999996	0.0
C 	25.824877540851958	14.909999999999997	0.0
C 	27.05463361422586	15.619999999999996	0.0
C 	28.284389687599763	14.909999999999997	0.0
C 	29.514145760973665	15.619999999999996	0.0
C 	30.743901834347568	14.909999999999997	0.0
C 	31.973657907721474	15.619999999999997	0.0
C 	33.203413981095366	14.909999999999993	0.0
C 	34.43317005446927	15.619999999999994	0.0
C 	35.662926127843185	14.909999999999998	0.0
C 	36.892682201217085	15.619999999999996	0.0
C 	38.122438274590984	14.909999999999995	0.0
C 	39.35219434796489	15.619999999999996	0.0
C 	40.58195042133879	14.909999999999993	0.0
C 	41.811706494712695	15.619999999999994	0.0
C 	43.0414625680866	14.909999999999998	0.0
C 	44.2712186414605	15.619999999999996	0.0
C 	45.5009747148344	14.909999999999995	0.0
C 	46.730730788208305	15.619999999999996	0.0
C 	47.960486861582204	14.909999999999993	0.0
C 	49.19024293495611	15.619999999999994	0.0
C 	50.41999900833002	14.909999999999998	0.0
C 	51.649755081703915	15.619999999999996	0.0
C 	52.87951115507782	14.909999999999997	0.0
C 	54.10926722845171	15.619999999999994	0.0
C 	55.33902330182562	14.909999999999995	0.0
C 	56.568779375199526	15.619999999999994	0.0
C 	57.798535448573425	14.909999999999991	0.0
C 	59.028291521947324	15.619999999999992	0.0
C 	60.25804759532124	14.909999999999998	0.0
C 	61.487803668695136	15.619999999999996	0.0
C 	62.717559742069035	14.909999999999993	0.0
C 	63.94731581544294	15.619999999999994	0.0
C 	65.17707188881684	14.909999999999993	0.0
C 	66.40682796219075	15.619999999999994	0.0
C 	67.63658403556465	14.909999999999997	0.0
C 	68.86634010893854	15.61999999999999	0.0
C 	9.838048586991222	17.039999999999996	0.0
C 	11.067804660365127	17.749999999999996	0.0
C 	12.297560733739028	17.039999999999996	0.0
C 	13.527316807112932	17.749999999999996	0.0
C 	14.757072880486833	17.039999999999996	0.0
C 	15.986828953860735	17.749999999999996	0.0
C 	17.21658502723464	17.039999999999996	0.0
C 	18.446341100608546	17.749999999999996	0.0
C 	19.676097173982445	17.039999999999996	0.0
C 	20.905853247356347	17.749999999999996	0.0
C 	22.13560932073025	17.039999999999996	0.0
C 	23.365365394104153	17.749999999999996	0.0
C 	24.595121467478055	17.039999999999996	0.0
C 	25.82487754085196	17.749999999999996	0.0
C 	27.05463361422586	17.039999999999996	0.0
C 	28.28438968759977	17.75	0.0
C 	29.514145760973665	17.039999999999996	0.0
C 	30.74390183434757	17.749999999999996	0.0
C 	31.973657907721467	17.039999999999992	0.0
C 	33.20341398109537	17.749999999999993	0.0
C 	34.43317005446927	17.039999999999996	0.0
C 	35.66292612784318	17.749999999999996	0.0
C 	36.892682201217085	17.039999999999996	0.0
C 	38.122438274590984	17.749999999999996	0.0
C 	39.35219434796488	17.039999999999992	0.0
C 	40.58195042133879	17.749999999999993	0.0
C 	41.811706494712695	17.039999999999992	0.0
C 	43.041462568086594	17.749999999999993	0.0
C 	44.2712186414605	17.039999999999996	0.0
C 	45.500974714834406	17.749999999999996	0.0
C 	46.7307307882083	17.039999999999992	0.0
C 	47.960486861582204	17.749999999999993	0.0
C 	49.19024293495611	17.039999999999992	0.0
C 	50.41999900833002	17.749999999999993	0.0
C 	51.649755081703915	17.039999999999996	0.0
C 	52.87951115507782	17.749999999999996	0.0
C 	54.10926722845172	17.039999999999992	0.0
C 	55.33902330182562	17.749999999999993	0.0
C 	56.568779375199526	17.039999999999996	0.0
C 	57.79853544857343	17.749999999999996	0.0
C 	59.028291521947324	17.039999999999992	0.0
C 	60.25804759532123	17.749999999999993	0.0
C 	61.487803668695136	17.039999999999996	0.0
C 	62.71755974206904	17.749999999999996	0.0
C 	63.94731581544294	17.04	0.0
C 	65.17707188881684	17.749999999999993	0.0
C 	66.40682796219075	17.039999999999996	0.0
C 	67.63658403556464	17.74999999999999	0.0
C 	68.86634010893856	17.03999999999999	0.0
C 	70.09609618231246	17.74999999999999	0.0
C 	11.067804660365125	19.169999999999995	0.0
C 	12.297560733739026	19.879999999999995	0.0
C 	13.52731680711293	19.169999999999995	0.0
C 	14.757072880486831	19.879999999999995	0.0
C 	15.986828953860737	19.169999999999998	0.0
C 	17.216585027234636	19.879999999999992	0.0
C 	18.446341100608542	19.169999999999995	0.0
C 	19.676097173982445	19.879999999999995	0.0
C 	20.905853247356347	19.169999999999995	0.0
C 	22.135609320730246	19.879999999999995	0.0
C 	23.365365394104153	19.169999999999995	0.0
C 	24.59512146747805	19.879999999999995	0.0
C 	25.824877540851958	19.169999999999995	0.0
C 	27.05463361422586	19.879999999999995	0.0
C 	28.284389687599763	19.169999999999995	0.0
C 	29.51414576097367	19.879999999999995	0.0
C 	30.743901834347565	19.16999999999999	0.0
C 	31.97365790772147	19.879999999999992	0.0
C 	33.20341398109537	19.169999999999995	0.0
C 	34.43317005446927	19.879999999999992	0.0
C 	35.66292612784318	19.169999999999995	0.0
C 	36.89268220121708	19.879999999999992	0.0
C 	38.122438274590984	19.169999999999995	0.0
C 	39.35219434796488	19.879999999999992	0.0
C 	40.58195042133879	19.16999999999999	0.0
C 	41.81170649471269	19.87999999999999	0.0
C 	43.0414625680866	19.169999999999995	0.0
C 	44.27121864146049	19.879999999999992	0.0
C 	45.5009747148344	19.16999999999999	0.0
C 	46.730730788208305	19.879999999999992	0.0
C 	47.960486861582204	19.169999999999995	0.0
C 	49.1902429349561	19.879999999999992	0.0
C 	50.41999900833002	19.169999999999995	0.0
C 	51.649755081703915	19.879999999999992	0.0
C 	52.879511155077815	19.16999999999999	0.0
C 	54.10926722845172	19.879999999999992	0.0
C 	55.33902330182562	19.16999999999999	0.0
C 	56.56877937519952	19.879999999999992	0.0
C 	57.79853544857343	19.169999999999995	0.0
C 	59.02829152194733	19.879999999999992	0.0
C 	60.25804759532123	19.169999999999995	0.0
C 	61.48780366869513	19.879999999999992	0.0
C 	62.717559742069035	19.16999999999999	0.0
C 	63.94731581544294	19.879999999999992	0.0
C 	65.17707188881684	19.169999999999995	0.0
C 	66.40682796219075	19.87999999999999	0.0
C 	67.63658403556465	19.169999999999995	0.0
C 	68.86634010893854	19.87999999999999	0.0
C 	70.09609618231245	19.16999999999999	0.0
C 	71.32585225568636	19.879999999999992	0.0
C 	12.297560733739028	21.299999999999994	0.0
C 	13.527316807112932	22.009999999999994	0.0
C 	14.757072880486831	21.299999999999994	0.0
C 	15.986828953860735	22.009999999999994	0.0
C 	17.216585027234636	21.299999999999994	0.0
C 	18.44634110060854	22.009999999999994	0.0
C 	19.676097173982445	21.299999999999994	0.0
C 	20.905853247356347	22.009999999999994	0.0
C 	22.13560932073025	21.299999999999994	0.0
C 	23.365365394104153	22.009999999999994	0.0
C 	24.595121467478055	21.299999999999994	0.0
C 	25.824877540851958	22.009999999999994	0.0
C 	27.05463361422586	21.299999999999994	0.0
C 	28.284389687599766	22.009999999999994	0.0
C 	29.514145760973662	21.29999999999999	0.0
C 	30.743901834347568	22.00999999999999	0.0
C 	31.97365790772147	21.299999999999994	0.0
C 	33.20341398109537	22.009999999999994	0.0
C 	34.43317005446928	21.299999999999994	0.0
C 	35.662926127843185	22.009999999999994	0.0
C 	36.89268220121708	21.299999999999994	0.0
C 	38.122438274590984	22.009999999999994	0.0
C 	39.35219434796489	21.299999999999994	0.0
C 	40.58195042133879	22.009999999999994	0.0
C 	41.811706494712695	21.299999999999994	0.0
C 	43.0414625680866	22.009999999999994	0.0
C 	44.2712186414605	21.29999999999999	0.0
C 	45.5009747148344	22.00999999999999	0.0
C 	46.730730788208305	21.299999999999994	0.0
C 	47.96048686158221	22.009999999999994	0.0
C 	49.19024293495611	21.299999999999994	0.0
C 	50.41999900833002	22.009999999999994	0.0
C 	51.649755081703915	21.299999999999994	0.0
C 	52.879511155077815	22.00999999999999	0.0
C 	54.10926722845172	21.299999999999994	0.0
C 	55.33902330182563	22.009999999999994	0.0
C 	56.568779375199526	21.29999999999999	0.0
C 	57.798535448573425	22.00999999999999	0.0
C 	59.02829152194733	21.299999999999994	0.0
C 	60.25804759532124	22.009999999999994	0.0
C 	61.48780366869513	21.29999999999999	0.0
C 	62.717559742069035	22.00999999999999	0.0
C 	63.94731581544294	21.299999999999994	0.0
C 	65.17707188881684	22.009999999999987	0.0
C 	66.40682796219075	21.299999999999994	0.0
C 	67.63658403556465	22.009999999999994	0.0
C 	68.86634010893854	21.29999999999999	0.0
C 	70.09609618231245	22.00999999999999	0.0
C 	71.32585225568636	21.299999999999983	0.0
C 	72.55560832906026	22.00999999999999	0.0
C 	13.527316807112932	23.429999999999996	0.0
C 	14.757072880486836	24.139999999999997	0.0
C 	15.986828953860737	23.429999999999996	0.0
C 	17.216585027234643	24.139999999999997	0.0
C 	18.446341100608542	23.429999999999996	0.0
C 	19.676097173982445	24.139999999999997	0.0
C 	20.90585324735635	23.429999999999996	0.0
C 	22.135609320730254	24.139999999999997	0.0
C 	23.365365394104156	23.429999999999993	0.0
C 	24.595121467478062	24.139999999999997	0.0
C 	25.824877540851958	23.429999999999993	0.0
C 	27.054633614225864	24.139999999999993	0.0
C 	28.284389687599766	23.429999999999996	0.0
C 	29.514145760973673	24.139999999999997	0.0
C 	30.743901834347575	23.429999999999996	0.0
C 	31.973657907721478	24.139999999999997	0.0
C 	33.20341398109537	23.429999999999993	0.0
C 	34.43317005446928	24.139999999999993	0.0
C 	35.66292612784318	23.429999999999993	0.0
C 	36.892682201217085	24.139999999999993	0.0
C 	38.122438274590984	23.429999999999993	0.0
C 	39.35219434796489	24.139999999999993	0.0
C 	40.58195042133879	23.429999999999996	0.0
C 	41.811706494712695	24.139999999999993	0.0
C 	43.041462568086594	23.42999999999999	0.0
C 	44.2712186414605	24.13999999999999	0.0
C 	45.5009747148344	23.429999999999993	0.0
C 	46.730730788208305	24.139999999999993	0.0
C 	47.96048686158221	23.429999999999993	0.0
C 	49.19024293495611	24.139999999999993	0.0
C 	50.41999900833001	23.429999999999993	0.0
C 	51.649755081703915	24.13999999999999	0.0
C 	52.87951115507782	23.429999999999993	0.0
C 	54.10926722845172	24.139999999999993	0.0
C 	55.33902330182563	23.429999999999993	0.0
C 	56.56877937519953	24.139999999999993	0.0
C 	57.798535448573425	23.429999999999993	0.0
C 	59.02829152194733	24.139999999999993	0.0
C 	60.25804759532124	23.429999999999993	0.0
C 	61.487803668695136	24.13999999999999	0.0
C 	62.71755974206904	23.429999999999993	0.0
C 	63.947315815442934	24.139999999999986	0.0
C 	65.17707188881684	23.429999999999993	0.0
C 	66.40682796219075	24.139999999999993	0.0
C 	67.63658403556464	23.42999999999999	0.0
C 	68.86634010893856	24.139999999999997	0.0
C 	70.09609618231245	23.42999999999999	0.0
C 	71.32585225568636	24.139999999999997	0.0
C 	72.55560832906026	23.42999999999999	0.0
C 	73.78536440243417	24.13999999999999	0.0
C 	14.757072880486835	25.559999999999995	0.0
C 	15.986828953860735	26.269999999999996	0.0
C 	17.21658502723464	25.559999999999995	0.0
C 	18.44634110060854	26.269999999999996	0.0
C 	19.676097173982445	25.56	0.0
C 	20.905853247356344	26.269999999999996	0.0
C 	22.13560932073025	25.56	0.0
C 	23.365365394104153	26.269999999999996	0.0
C 	24.595121467478055	25.559999999999995	0.0
C 	25.824877540851958	26.269999999999996	0.0
C 	27.054633614225857	25.559999999999995	0.0
C 	28.28438968759976	26.269999999999996	0.0
C 	29.514145760973665	25.559999999999995	0.0
C 	30.743901834347568	26.269999999999996	0.0
C 	31.973657907721474	25.559999999999995	0.0
C 	33.20341398109538	26.269999999999996	0.0
C 	34.43317005446927	25.55999999999999	0.0
C 	35.66292612784318	26.269999999999992	0.0
C 	36.892682201217085	25.559999999999995	0.0
C 	38.12243827459098	26.269999999999992	0.0
C 	39.35219434796489	25.559999999999995	0.0
C 	40.58195042133879	26.269999999999992	0.0
C 	41.81170649471269	25.55999999999999	0.0
C 	43.041462568086594	26.269999999999992	0.0
C 	44.2712186414605	25.55999999999999	0.0
C 	45.5009747148344	26.26999999999999	0.0
C 	46.730730788208305	25.559999999999995	0.0
C 	47.960486861582204	26.269999999999992	0.0
C 	49.19024293495611	25.55999999999999	0.0
C 	50.41999900833001	26.269999999999992	0.0
C 	51.649755081703915	25.559999999999995	0.0
C 	52.879511155077815	26.269999999999992	0.0
C 	54.10926722845172	25.559999999999995	0.0
C 	55.33902330182562	26.269999999999992	0.0
C 	56.568779375199526	25.55999999999999	0.0
C 	57.79853544857343	26.269999999999992	0.0
C 	59.028291521947324	25.55999999999999	0.0
C 	60.25804759532123	26.269999999999992	0.0
C 	61.487803668695136	25.559999999999995	0.0
C 	62.717559742069035	26.26999999999999	0.0
C 	63.94731581544294	25.55999999999999	0.0
C 	65.17707188881683	26.269999999999985	0.0
C 	66.40682796219075	25.55999999999999	0.0
C 	67.63658403556465	26.269999999999992	0.0
C 	68.86634010893856	25.559999999999995	0.0
C 	70.09609618231246	26.269999999999996	0.0
C 	71.32585225568636	25.559999999999995	0.0
C 	72.55560832906026	26.269999999999996	0.0
C 	73.78536440243415	25.559999999999988	0.0
C 	75.01512047580806	26.26999999999999	0.0
C 	15.986828953860735	27.689999999999994	0.0
C 	17.21658502723464	28.399999999999995	0.0
C 	18.446341100608542	27.689999999999994	0.0
C 	19.676097173982445	28.399999999999995	0.0
C 	20.905853247356344	27.689999999999994	0.0
C 	22.13560932073025	28.399999999999995	0.0
C 	23.365365394104153	27.689999999999994	0.0
C 	24.59512146747806	28.399999999999995	0.0
C 	25.824877540851954	27.689999999999994	0.0
C 	27.054633614225857	28.399999999999995	0.0
C 	28.284389687599763	27.689999999999994	0.0
C 	29.514145760973665	28.399999999999995	0.0
C 	30.74390183434757	27.689999999999994	0.0
C 	31.973657907721474	28.399999999999995	0.0
C 	33.20341398109537	27.68999999999999	0.0
C 	34.43317005446928	28.39999999999999	0.0
C 	35.66292612784318	27.689999999999994	0.0
C 	36.892682201217085	28.399999999999995	0.0
C 	38.122438274590984	27.689999999999994	0.0
C 	39.35219434796489	28.399999999999995	0.0
C 	40.58195042133879	27.689999999999994	0.0
C 	41.811706494712695	28.399999999999995	0.0
C 	43.041462568086594	27.689999999999994	0.0
C 	44.2712186414605	28.399999999999995	0.0
C 	45.500974714834406	27.689999999999994	0.0
C 	46.730730788208305	28.399999999999995	0.0
C 	47.960486861582204	27.68999999999999	0.0
C 	49.19024293495611	28.39999999999999	0.0
C 	50.41999900833002	27.689999999999994	0.0
C 	51.649755081703915	28.399999999999995	0.0
C 	52.87951115507782	27.689999999999994	0.0
C 	54.10926722845173	28.399999999999995	0.0
C 	55.33902330182562	27.68999999999999	0.0
C 	56.568779375199526	28.39999999999999	0.0
C 	57.79853544857343	27.689999999999994	0.0
C 	59.02829152194733	28.39999999999999	0.0
C 	60.25804759532124	27.689999999999994	0.0
C 	61.48780366869513	28.399999999999988	0.0
C 	62.717559742069035	27.689999999999994	0.0
C 	63.94731581544294	28.399999999999995	0.0
C 	65.17707188881684	27.68999999999999	0.0
C 	66.40682796219075	28.39999999999999	0.0
C 	67.63658403556464	27.689999999999987	0.0
C 	68.86634010893856	28.399999999999995	0.0
C 	70.09609618231245	27.689999999999994	0.0
C 	71.32585225568636	28.399999999999995	0.0
C 	72.55560832906026	27.68999999999999	0.0
C 	73.78536440243415	28.39999999999999	0.0
C 	75.01512047580808	27.689999999999994	0.0
C 	76.24487654918197	28.399999999999984	0.0
C 	17.21658502723464	29.819999999999997	0.0
C 	18.446341100608546	30.529999999999998	0.0
C 	19.676097173982445	29.819999999999997	0.0
C 	20.905853247356355	30.529999999999998	0.0
C 	22.13560932073025	29.819999999999993	0.0
C 	23.365365394104156	30.529999999999994	0.0
C 	24.59512146747806	29.819999999999997	0.0
C 	25.82487754085196	30.529999999999998	0.0
C 	27.054633614225867	29.819999999999997	0.0
C 	28.28438968759977	30.529999999999998	0.0
C 	29.514145760973665	29.819999999999997	0.0
C 	30.74390183434757	30.529999999999998	0.0
C 	31.973657907721474	29.819999999999997	0.0
C 	33.20341398109538	30.529999999999998	0.0
C 	34.43317005446928	29.819999999999997	0.0
C 	35.662926127843185	30.529999999999998	0.0
C 	36.892682201217085	29.819999999999993	0.0
C 	38.12243827459099	30.529999999999994	0.0
C 	39.35219434796488	29.819999999999993	0.0
C 	40.58195042133879	30.529999999999994	0.0
C 	41.811706494712695	29.819999999999993	0.0
C 	43.0414625680866	30.529999999999994	0.0
C 	44.2712186414605	29.819999999999993	0.0
C 	45.500974714834406	30.529999999999994	0.0
C 	46.730730788208305	29.81999999999999	0.0
C 	47.960486861582204	30.52999999999999	0.0
C 	49.19024293495611	29.819999999999993	0.0
C 	50.41999900833002	30.529999999999994	0.0
C 	51.649755081703915	29.819999999999993	0.0
C 	52.87951115507782	30.529999999999994	0.0
C 	54.10926722845172	29.819999999999993	0.0
C 	55.33902330182563	30.52999999999999	0.0
C 	56.568779375199526	29.819999999999993	0.0
C 	57.798535448573425	30.52999999999999	0.0
C 	59.02829152194734	29.819999999999993	0.0
C 	60.25804759532124	30.529999999999994	0.0
C 	61.487803668695136	29.819999999999993	0.0
C 	62.71755974206904	30.529999999999994	0.0
C 	63.947315815442934	29.81999999999999	0.0
C 	65.17707188881685	30.529999999999998	0.0
C 	66.40682796219073	29.819999999999986	0.0
C 	67.63658403556465	30.529999999999994	0.0
C 	68.86634010893856	29.819999999999993	0.0
C 	70.09609618231245	30.529999999999994	0.0
C 	71.32585225568637	29.819999999999997	0.0
C 	72.55560832906026	30.52999999999999	0.0
C 	73.78536440243417	29.819999999999997	0.0
C 	75.01512047580806	30.529999999999987	0.0
C 	76.24487654918197	29.81999999999999	0.0
C 	77.47463262255587	30.52999999999999	0.0
C 	18.446341100608542	31.949999999999996	0.0
C 	19.676097173982445	32.65999999999999	0.0
C 	20.905853247356347	31.949999999999992	0.0
C 	22.135609320730254	32.66	0.0
C 	23.365365394104156	31.949999999999996	0.0
C 	24.595121467478055	32.65999999999999	0.0
C 	25.824877540851958	31.949999999999992	0.0
C 	27.05463361422586	32.66	0.0
C 	28.284389687599766	31.949999999999996	0.0
C 	29.51414576097367	32.66	0.0
C 	30.743901834347568	31.949999999999992	0.0
C 	31.97365790772147	32.66	0.0
C 	33.20341398109537	31.949999999999992	0.0
C 	34.43317005446928	32.66	0.0
C 	35.66292612784318	31.949999999999996	0.0
C 	36.892682201217085	32.66	0.0
C 	38.122438274590984	31.949999999999992	0.0
C 	39.35219434796489	32.65999999999999	0.0
C 	40.58195042133879	31.949999999999992	0.0
C 	41.81170649471269	32.65999999999999	0.0
C 	43.0414625680866	31.949999999999996	0.0
C 	44.2712186414605	32.65999999999999	0.0
C 	45.5009747148344	31.949999999999992	0.0
C 	46.730730788208305	32.65999999999999	0.0
C 	47.96048686158221	31.949999999999992	0.0
C 	49.1902429349561	32.65999999999999	0.0
C 	50.41999900833002	31.949999999999992	0.0
C 	51.649755081703915	32.65999999999999	0.0
C 	52.879511155077815	31.949999999999992	0.0
C 	54.10926722845172	32.65999999999999	0.0
C 	55.33902330182563	31.949999999999992	0.0
C 	56.568779375199526	32.65999999999999	0.0
C 	57.79853544857343	31.949999999999992	0.0
C 	59.028291521947324	32.65999999999999	0.0
C 	60.25804759532124	31.949999999999992	0.0
C 	61.487803668695136	32.65999999999999	0.0
C 	62.717559742069035	31.94999999999999	0.0
C 	63.94731581544294	32.65999999999999	0.0
C 	65.17707188881685	31.949999999999992	0.0
C 	66.40682796219076	32.66	0.0
C 	67.63658403556465	31.949999999999992	0.0
C 	68.86634010893856	32.65999999999999	0.0
C 	70.09609618231245	31.94999999999999	0.0
C 	71.32585225568636	32.65999999999999	0.0
C 	72.55560832906026	31.949999999999996	0.0
C 	73.78536440243415	32.65999999999999	0.0
C 	75.01512047580806	31.949999999999992	0.0
C 	76.24487654918195	32.65999999999998	0.0
C 	77.47463262255587	31.949999999999985	0.0
C 	78.70438869592978	32.65999999999999	0.0
C 	19.676097173982445	34.07999999999999	0.0
C 	20.90585324735635	34.78999999999999	0.0
C 	22.135609320730254	34.07999999999999	0.0
C 	23.365365394104156	34.78999999999999	0.0
C 	24.595121467478055	34.07999999999999	0.0
C 	25.824877540851958	34.78999999999999	0.0
C 	27.054633614225864	34.07999999999999	0.0
C 	28.284389687599766	34.78999999999999	0.0
C 	29.514145760973665	34.07999999999999	0.0
C 	30.743901834347568	34.78999999999999	0.0
C 	31.97365790772147	34.07999999999999	0.0
C 	33.20341398109537	34.78999999999999	0.0
C 	34.43317005446928	34.07999999999999	0.0
C 	35.662926127843185	34.78999999999999	0.0
C 	36.89268220121708	34.07999999999999	0.0
C 	38.122438274590984	34.78999999999999	0.0
C 	39.35219434796489	34.07999999999999	0.0
C 	40.581950421338796	34.78999999999999	0.0
C 	41.811706494712695	34.07999999999999	0.0
C 	43.0414625680866	34.78999999999999	0.0
C 	44.2712186414605	34.07999999999999	0.0
C 	45.5009747148344	34.78999999999999	0.0
C 	46.730730788208305	34.07999999999999	0.0
C 	47.96048686158221	34.78999999999999	0.0
C 	49.19024293495611	34.07999999999999	0.0
C 	50.41999900833002	34.78999999999999	0.0
C 	51.649755081703915	34.07999999999999	0.0
C 	52.87951115507782	34.78999999999999	0.0
C 	54.10926722845172	34.07999999999999	0.0
C 	55.33902330182562	34.78999999999999	0.0
C 	56.56877937519953	34.07999999999999	0.0
C 	57.79853544857343	34.78999999999999	0.0
C 	59.02829152194733	34.07999999999999	0.0
C 	60.25804759532124	34.78999999999999	0.0
C 	61.487803668695136	34.07999999999999	0.0
C 	62.71755974206905	34.79	0.0
C 	63.947315815442934	34.079999999999984	0.0
C 	65.17707188881685	34.78999999999999	0.0
C 	66.40682796219075	34.07999999999999	0.0
C 	67.63658403556465	34.78999999999999	0.0
C 	68.86634010893854	34.07999999999999	0.0
C 	70.09609618231245	34.78999999999999	0.0
C 	71.32585225568636	34.07999999999999	0.0
C 	72.55560832906025	34.789999999999985	0.0
C 	73.78536440243417	34.07999999999999	0.0
C 	75.01512047580808	34.78999999999999	0.0
C 	76.24487654918197	34.07999999999999	0.0
C 	77.47463262255587	34.78999999999999	0.0
C 	78.70438869592977	34.079999999999984	0.0
C 	79.93414476930369	34.78999999999999	0.0
C 	20.90585324735635	36.209999999999994	0.0
C 	22.135609320730254	36.919999999999995	0.0
C 	23.36536539410416	36.209999999999994	0.0
C 	24.595121467478062	36.919999999999995	0.0
C 	25.82487754085196	36.209999999999994	0.0
C 	27.054633614225864	36.919999999999995	0.0
C 	28.284389687599766	36.209999999999994	0.0
C 	29.514145760973673	36.919999999999995	0.0
C 	30.743901834347575	36.209999999999994	0.0
C 	31.973657907721478	36.919999999999995	0.0
C 	33.20341398109537	36.209999999999994	0.0
C 	34.43317005446928	36.919999999999995	0.0
C 	35.662926127843185	36.209999999999994	0.0
C 	36.89268220121709	36.919999999999995	0.0
C 	38.12243827459099	36.209999999999994	0.0
C 	39.3521943479649	36.919999999999995	0.0
C 	40.581950421338796	36.209999999999994	0.0
C 	41.811706494712695	36.919999999999995	0.0
C 	43.041462568086594	36.209999999999994	0.0
C 	44.2712186414605	36.919999999999995	0.0
C 	45.500974714834406	36.209999999999994	0.0
C 	46.730730788208305	36.919999999999995	0.0
C 	47.96048686158221	36.209999999999994	0.0
C 	49.19024293495612	36.919999999999995	0.0
C 	50.41999900833002	36.20999999999999	0.0
C 	51.649755081703915	36.91999999999999	0.0
C 	52.87951115507782	36.209999999999994	0.0
C 	54.10926722845172	36.91999999999999	0.0
C 	55.33902330182563	36.209999999999994	0.0
C 	56.56877937519953	36.919999999999995	0.0
C 	57.79853544857343	36.20999999999999	0.0
C 	59.02829152194733	36.91999999999999	0.0
C 	60.25804759532123	36.20999999999999	0.0
C 	61.48780366869515	36.919999999999995	0.0
C 	62.71755974206904	36.209999999999994	0.0
C 	63.94731581544295	36.919999999999995	0.0
C 	65.17707188881684	36.209999999999994	0.0
C 	66.40682796219075	36.919999999999995	0.0
C 	67.63658403556467	36.209999999999994	0.0
C 	68.86634010893856	36.91999999999999	0.0
C 	70.09609618231246	36.209999999999994	0.0
C 	71.32585225568636	36.91999999999999	0.0
C 	72.55560832906026	36.209999999999994	0.0
C 	73.78536440243417	36.919999999999995	0.0
C 	75.01512047580806	36.20999999999999	0.0
C 	76.24487654918198	36.919999999999995	0.0
C 	77.47463262255586	36.20999999999999	0.0
C 	78.70438869592978	36.919999999999995	0.0
C 	79.93414476930369	36.20999999999999	0.0
C 	81.16390084267759	36.91999999999999	0.0
C 	22.13560932073025	38.33999999999999	0.0
C 	23.365365394104153	39.04999999999999	0.0
C 	24.59512146747806	38.33999999999999	0.0
C 	25.82487754085196	39.04999999999999	0.0
C 	27.05463361422586	38.33999999999999	0.0
C 	28.284389687599763	39.04999999999999	0.0
C 	29.514145760973665	38.33999999999999	0.0
C 	30.74390183434757	39.04999999999999	0.0
C 	31.973657907721474	38.339999999999996	0.0
C 	33.20341398109538	39.04999999999999	0.0
C 	34.43317005446927	38.33999999999999	0.0
C 	35.66292612784318	39.04999999999999	0.0
C 	36.892682201217085	38.33999999999999	0.0
C 	38.12243827459099	39.04999999999999	0.0
C 	39.35219434796489	38.33999999999999	0.0
C 	40.581950421338796	39.04999999999999	0.0
C 	41.811706494712695	38.33999999999999	0.0
C 	43.0414625680866	39.04999999999999	0.0
C 	44.27121864146049	38.33999999999999	0.0
C 	45.5009747148344	39.04999999999999	0.0
C 	46.730730788208305	38.33999999999999	0.0
C 	47.960486861582204	39.04999999999999	0.0
C 	49.19024293495611	38.33999999999999	0.0
C 	50.41999900833002	39.04999999999999	0.0
C 	51.649755081703915	38.33999999999999	0.0
C 	52.879511155077815	39.04999999999999	0.0
C 	54.10926722845173	38.33999999999999	0.0
C 	55.33902330182562	39.04999999999998	0.0
C 	56.568779375199526	38.33999999999999	0.0
C 	57.79853544857343	39.04999999999999	0.0
C 	59.02829152194733	38.33999999999999	0.0
C 	60.25804759532123	39.04999999999999	0.0
C 	61.48780366869513	38.33999999999998	0.0
C 	62.71755974206905	39.04999999999999	0.0
C 	63.94731581544294	38.33999999999999	0.0
C 	65.17707188881685	39.04999999999999	0.0
C 	66.40682796219075	38.33999999999999	0.0
C 	67.63658403556465	39.04999999999999	0.0
C 	68.86634010893856	38.33999999999999	0.0
C 	70.09609618231245	39.04999999999998	0.0
C 	71.32585225568636	38.33999999999999	0.0
C 	72.55560832906025	39.04999999999998	0.0
C 	73.78536440243415	38.33999999999999	0.0
C 	75.01512047580806	39.04999999999999	0.0
C 	76.24487654918197	38.33999999999999	0.0
C 	77.47463262255587	39.05	0.0
C 	78.70438869592977	38.33999999999998	0.0
C 	79.93414476930369	39.04999999999999	0.0
C 	81.16390084267758	38.33999999999998	0.0
C 	82.39365691605148	39.04999999999998	0.0
C 	23.365365394104156	40.46999999999999	0.0
C 	24.59512146747806	41.17999999999999	0.0
C 	25.82487754085196	40.46999999999999	0.0
C 	27.054633614225867	41.17999999999999	0.0
C 	28.284389687599763	40.46999999999999	0.0
C 	29.51414576097367	41.17999999999999	0.0
C 	30.74390183434757	40.46999999999999	0.0
C 	31.973657907721474	41.17999999999999	0.0
C 	33.20341398109537	40.46999999999999	0.0
C 	34.43317005446928	41.17999999999999	0.0
C 	35.66292612784318	40.46999999999999	0.0
C 	36.892682201217085	41.17999999999999	0.0
C 	38.12243827459099	40.46999999999999	0.0
C 	39.3521943479649	41.17999999999999	0.0
C 	40.58195042133879	40.46999999999999	0.0
C 	41.811706494712695	41.17999999999999	0.0
C 	43.0414625680866	40.46999999999999	0.0
C 	44.2712186414605	41.17999999999999	0.0
C 	45.500974714834406	40.46999999999999	0.0
C 	46.73073078820831	41.17999999999999	0.0
C 	47.960486861582204	40.46999999999999	0.0
C 	49.19024293495611	41.17999999999999	0.0
C 	50.41999900833002	40.46999999999999	0.0
C 	51.649755081703915	41.179999999999986	0.0
C 	52.87951115507782	40.46999999999999	0.0
C 	54.10926722845173	41.17999999999999	0.0
C 	55.33902330182563	40.46999999999999	0.0
C 	56.568779375199526	41.17999999999999	0.0
C 	57.798535448573425	40.469999999999985	0.0
C 	59.028291521947345	41.17999999999999	0.0
C 	60.25804759532124	40.46999999999999	0.0
C 	61.48780366869514	41.17999999999999	0.0
C 	62.71755974206904	40.46999999999999	0.0
C 	63.94731581544295	41.17999999999999	0.0
C 	65.17707188881685	40.46999999999999	0.0
C 	66.40682796219075	41.179999999999986	0.0
C 	67.63658403556465	40.46999999999999	0.0
C 	68.86634010893854	41.179999999999986	0.0
C 	70.09609618231246	40.46999999999999	0.0
C 	71.32585225568636	41.17999999999999	0.0
C 	72.55560832906026	40.469999999999985	0.0
C 	73.78536440243417	41.179999999999986	0.0
C 	75.01512047580806	40.469999999999985	0.0
C 	76.24487654918198	41.17999999999999	0.0
C 	77.47463262255587	40.46999999999999	0.0
C 	78.70438869592978	41.17999999999999	0.0
C 	79.93414476930367	40.469999999999985	0.0
C 	81.16390084267758	41.179999999999986	0.0
C 	82.3936569160515	40.46999999999999	0.0
C 	83.62341298942539	41.179999999999986	0.0
C 	24.595121467478055	42.59999999999999	0.0
C 	25.82487754085196	43.30999999999999	0.0
C 	27.05463361422586	42.59999999999999	0.0
C 	28.284389687599766	43.30999999999999	0.0
C 	29.514145760973662	42.59999999999999	0.0
C 	30.743901834347568	43.30999999999999	0.0
C 	31.97365790772147	42.59999999999999	0.0
C 	33.20341398109537	43.30999999999999	0.0
C 	34.43317005446927	42.59999999999999	0.0
C 	35.66292612784318	43.30999999999999	0.0
C 	36.89268220121708	42.59999999999999	0.0
C 	38.122438274590984	43.30999999999999	0.0
C 	39.35219434796489	42.59999999999999	0.0
C 	40.581950421338796	43.30999999999999	0.0
C 	41.81170649471269	42.59999999999999	0.0
C 	43.041462568086594	43.30999999999999	0.0
C 	44.2712186414605	42.59999999999999	0.0
C 	45.5009747148344	43.30999999999999	0.0
C 	46.730730788208305	42.59999999999999	0.0
C 	47.96048686158221	43.30999999999999	0.0
C 	49.19024293495611	42.59999999999999	0.0
C 	50.41999900833001	43.30999999999999	0.0
C 	51.64975508170392	42.599999999999994	0.0
C 	52.879511155077815	43.30999999999999	0.0
C 	54.10926722845172	42.59999999999999	0.0
C 	55.33902330182563	43.30999999999999	0.0
C 	56.568779375199526	42.59999999999999	0.0
C 	57.798535448573425	43.30999999999999	0.0
C 	59.028291521947324	42.59999999999998	0.0
C 	60.258047595321244	43.30999999999999	0.0
C 	61.487803668695136	42.59999999999999	0.0
C 	62.71755974206904	43.30999999999999	0.0
C 	63.94731581544294	42.59999999999999	0.0
C 	65.17707188881684	43.30999999999999	0.0
C 	66.40682796219076	42.599999999999994	0.0
C 	67.63658403556465	43.30999999999999	0.0
C 	68.86634010893856	42.59999999999999	0.0
C 	70.09609618231245	43.30999999999998	0.0
C 	71.32585225568636	42.59999999999999	0.0
C 	72.55560832906026	43.30999999999999	0.0
C 	73.78536440243415	42.59999999999999	0.0
C 	75.01512047580806	43.30999999999999	0.0
C 	76.24487654918197	42.59999999999998	0.0
C 	77.47463262255587	43.30999999999999	0.0
C 	78.70438869592978	42.59999999999999	0.0
C 	79.93414476930367	43.30999999999999	0.0
C 	81.16390084267758	42.59999999999999	0.0
C 	82.39365691605148	43.30999999999999	0.0
C 	83.62341298942539	42.59999999999999	0.0
C 	84.85316906279928	43.30999999999998	0.0
C 	25.82487754085196	44.72999999999999	0.0
C 	27.054633614225864	45.43999999999999	0.0
C 	28.284389687599766	44.72999999999999	0.0
C 	29.514145760973673	45.43999999999999	0.0
C 	30.743901834347568	44.72999999999999	0.0
C 	31.97365790772147	45.43999999999999	0.0
C 	33.20341398109537	44.72999999999999	0.0
C 	34.43317005446928	45.43999999999999	0.0
C 	35.662926127843185	44.72999999999999	0.0
C 	36.892682201217085	45.43999999999999	0.0
C 	38.122438274590984	44.72999999999999	0.0
C 	39.35219434796489	45.43999999999999	0.0
C 	40.581950421338796	44.72999999999999	0.0
C 	41.811706494712695	45.43999999999999	0.0
C 	43.0414625680866	44.72999999999999	0.0
C 	44.27121864146051	45.43999999999999	0.0
C 	45.500974714834406	44.72999999999999	0.0
C 	46.730730788208305	45.43999999999999	0.0
C 	47.960486861582204	44.72999999999999	0.0
C 	49.19024293495611	45.43999999999998	0.0
C 	50.41999900833002	44.72999999999999	0.0
C 	51.64975508170391	45.43999999999998	0.0
C 	52.87951115507782	44.72999999999999	0.0
C 	54.10926722845172	45.43999999999999	0.0
C 	55.33902330182562	44.72999999999998	0.0
C 	56.568779375199526	45.43999999999998	0.0
C 	57.798535448573425	44.72999999999998	0.0
C 	59.02829152194734	45.43999999999999	0.0
C 	60.25804759532124	44.72999999999999	0.0
C 	61.48780366869514	45.43999999999999	0.0
C 	62.717559742069035	44.72999999999998	0.0
C 	63.94731581544294	45.43999999999998	0.0
C 	65.17707188881685	44.72999999999999	0.0
C 	66.40682796219075	45.43999999999998	0.0
C 	67.63658403556465	44.72999999999999	0.0
C 	68.86634010893856	45.43999999999999	0.0
C 	70.09609618231245	44.72999999999999	0.0
C 	71.32585225568636	45.43999999999998	0.0
C 	72.55560832906026	44.72999999999998	0.0
C 	73.78536440243417	45.43999999999999	0.0
C 	75.01512047580806	44.72999999999998	0.0
C 	76.24487654918198	45.43999999999999	0.0
C 	77.47463262255587	44.72999999999999	0.0
C 	78.70438869592978	45.43999999999999	0.0
C 	79.93414476930369	44.72999999999999	0.0
C 	81.16390084267758	45.43999999999998	0.0
C 	82.39365691605148	44.72999999999999	0.0
C 	83.62341298942538	45.43999999999998	0.0
C 	84.8531690627993	44.72999999999998	0.0
C 	86.08292513617319	45.43999999999998	0.0
C 	27.054633614225864	46.85999999999999	0.0
C 	28.28438968759977	47.56999999999999	0.0
C 	29.514145760973673	46.85999999999999	0.0
C 	30.74390183434758	47.56999999999999	0.0
C 	31.973657907721474	46.85999999999999	0.0
C 	33.20341398109538	47.56999999999999	0.0
C 	34.43317005446928	46.85999999999999	0.0
C 	35.662926127843185	47.56999999999999	0.0
C 	36.892682201217085	46.85999999999999	0.0
C 	38.122438274590984	47.56999999999999	0.0
C 	39.35219434796489	46.85999999999999	0.0
C 	40.581950421338796	47.56999999999999	0.0
C 	41.8117064947127	46.85999999999999	0.0
C 	43.0414625680866	47.56999999999999	0.0
C 	44.2712186414605	46.85999999999999	0.0
C 	45.500974714834406	47.56999999999999	0.0
C 	46.73073078820831	46.859999999999985	0.0
C 	47.960486861582204	47.569999999999986	0.0
C 	49.19024293495612	46.85999999999999	0.0
C 	50.41999900833002	47.56999999999999	0.0
C 	51.649755081703915	46.859999999999985	0.0
C 	52.87951115507782	47.569999999999986	0.0
C 	54.10926722845172	46.859999999999985	0.0
C 	55.339023301825634	47.56999999999999	0.0
C 	56.56877937519953	46.85999999999999	0.0
C 	57.79853544857344	47.56999999999999	0.0
C 	59.02829152194733	46.859999999999985	0.0
C 	60.25804759532124	47.569999999999986	0.0
C 	61.48780366869515	46.85999999999999	0.0
C 	62.71755974206904	47.569999999999986	0.0
C 	63.94731581544295	46.85999999999999	0.0
C 	65.17707188881685	47.56999999999999	0.0
C 	66.40682796219075	46.859999999999985	0.0
C 	67.63658403556465	47.569999999999986	0.0
C 	68.86634010893856	46.859999999999985	0.0
C 	70.09609618231246	47.56999999999999	0.0
C 	71.32585225568636	46.859999999999985	0.0
C 	72.55560832906028	47.56999999999999	0.0
C 	73.78536440243417	46.859999999999985	0.0
C 	75.01512047580808	47.569999999999986	0.0
C 	76.24487654918197	46.859999999999985	0.0
C 	77.47463262255587	47.569999999999986	0.0
C 	78.70438869592978	46.85999999999999	0.0
C 	79.93414476930367	47.569999999999986	0.0
C 	81.16390084267758	46.85999999999999	0.0
C 	82.39365691605148	47.56999999999999	0.0
C 	83.62341298942539	46.859999999999985	0.0
C 	84.8531690627993	47.569999999999986	0.0
C 	86.08292513617319	46.85999999999998	0.0
C 	87.31268120954711	47.569999999999986	0.0
C 	28.284389687599763	48.98999999999999	0.0
C 	29.51414576097367	49.69999999999999	0.0
C 	30.74390183434757	48.98999999999999	0.0
C 	31.973657907721478	49.69999999999999	0.0
C 	33.20341398109537	48.98999999999999	0.0
C 	34.43317005446928	49.69999999999999	0.0
C 	35.66292612784318	48.98999999999999	0.0
C 	36.892682201217085	49.69999999999999	0.0
C 	38.122438274590984	48.98999999999999	0.0
C 	39.35219434796488	49.69999999999999	0.0
C 	40.58195042133879	48.98999999999999	0.0
C 	41.811706494712695	49.69999999999999	0.0
C 	43.041462568086594	48.98999999999999	0.0
C 	44.2712186414605	49.69999999999999	0.0
C 	45.5009747148344	48.98999999999999	0.0
C 	46.730730788208305	49.69999999999998	0.0
C 	47.96048686158221	48.98999999999999	0.0
C 	49.1902429349561	49.69999999999998	0.0
C 	50.41999900833002	48.98999999999999	0.0
C 	51.64975508170392	49.69999999999999	0.0
C 	52.879511155077815	48.98999999999999	0.0
C 	54.10926722845172	49.69999999999999	0.0
C 	55.33902330182562	48.98999999999998	0.0
C 	56.56877937519953	49.69999999999999	0.0
C 	57.79853544857343	48.98999999999999	0.0
C 	59.02829152194734	49.69999999999999	0.0
C 	60.25804759532124	48.98999999999999	0.0
C 	61.487803668695136	49.69999999999999	0.0
C 	62.71755974206905	48.98999999999999	0.0
C 	63.94731581544294	49.69999999999998	0.0
C 	65.17707188881685	48.98999999999999	0.0
C 	66.40682796219075	49.69999999999999	0.0
C 	67.63658403556465	48.98999999999999	0.0
C 	68.86634010893856	49.69999999999999	0.0
C 	70.09609618231245	48.98999999999998	0.0
C 	71.32585225568637	49.69999999999999	0.0
C 	72.55560832906025	48.98999999999998	0.0
C 	73.78536440243417	49.69999999999999	0.0
C 	75.01512047580806	48.98999999999999	0.0
C 	76.24487654918197	49.69999999999999	0.0
C 	77.47463262255587	48.98999999999998	0.0
C 	78.70438869592978	49.69999999999998	0.0
C 	79.93414476930369	48.98999999999999	0.0
C 	81.16390084267758	49.69999999999998	0.0
C 	82.39365691605148	48.98999999999999	0.0
C 	83.62341298942539	49.69999999999999	0.0
C 	84.85316906279928	48.98999999999998	0.0
C 	86.08292513617319	49.69999999999998	0.0
C 	87.3126812095471	48.98999999999998	0.0
C 	88.542437282921	49.69999999999999	0.0
C 	29.51414576097367	51.11999999999999	0.0
C 	30.74390183434757	51.82999999999999	0.0
C 	31.973657907721474	51.11999999999999	0.0
C 	33.20341398109538	51.82999999999999	0.0
C 	34.43317005446928	51.11999999999999	0.0
C 	35.66292612784318	51.82999999999999	0.0
C 	36.892682201217085	51.11999999999999	0.0
C 	38.12243827459099	51.82999999999999	0.0
C 	39.35219434796489	51.12	0.0
C 	40.581950421338796	51.83	0.0
C 	41.811706494712695	51.11999999999999	0.0
C 	43.041462568086594	51.82999999999999	0.0
C 	44.2712186414605	51.12	0.0
C 	45.5009747148344	51.82999999999999	0.0
C 	46.73073078820831	51.11999999999999	0.0
C 	47.96048686158221	51.82999999999999	0.0
C 	49.19024293495611	51.11999999999999	0.0
C 	50.41999900833002	51.82999999999999	0.0
C 	51.649755081703915	51.11999999999998	0.0
C 	52.879511155077815	51.829999999999984	0.0
C 	54.10926722845171	51.11999999999999	0.0
C 	55.33902330182563	51.83	0.0
C 	56.568779375199526	51.11999999999999	0.0
C 	57.79853544857343	51.82999999999999	0.0
C 	59.02829152194733	51.11999999999999	0.0
C 	60.25804759532124	51.82999999999999	0.0
C 	61.48780366869514	51.11999999999999	0.0
C 	62.717559742069035	51.829999999999984	0.0
C 	63.94731581544295	51.11999999999999	0.0
C 	65.17707188881685	51.82999999999999	0.0
C 	66.40682796219075	51.11999999999999	0.0
C 	67.63658403556465	51.82999999999999	0.0
C 	68.86634010893854	51.11999999999998	0.0
C 	70.09609618231246	51.82999999999999	0.0
C 	71.32585225568636	51.11999999999999	0.0
C 	72.55560832906026	51.82999999999999	0.0
C 	73.78536440243417	51.11999999999999	0.0
C 	75.01512047580806	51.82999999999999	0.0
C 	76.24487654918198	51.11999999999999	0.0
C 	77.47463262255587	51.829999999999984	0.0
C 	78.70438869592978	51.11999999999999	0.0
C 	79.93414476930367	51.829999999999984	0.0
C 	81.16390084267758	51.11999999999999	0.0
C 	82.39365691605148	51.82999999999999	0.0
C 	83.62341298942538	51.11999999999998	0.0
C 	84.8531690627993	51.82999999999999	0.0
C 	86.08292513617319	51.11999999999998	0.0
C 	87.3126812095471	51.82999999999999	0.0
C 	88.542437282921	51.11999999999998	0.0
C 	89.7721933562949	51.829999999999984	0.0
C 	53.565062795378665	0.3482064432790883	2.15
C 	54.93667746870915	0.7157294873246673	2.15
C 	55.304200512754726	2.0873441606551464	2.15
C 	49.450218775387235	-0.7543626888576543	2.15
C 	50.821833448717705	-0.38683964481208033	2.15
C 	51.18935649276329	0.9847750285183985	2.15
C 	52.560971166093765	1.3522980725639775	2.15
C 	52.92849421013935	2.7239127458944563	2.15
C 	54.300108883469825	3.091435789940039	2.15
C 	54.6676319275154	4.463050463270518	2.15
C 	56.039246600845885	4.83057350731609	2.15
C 	56.40676964489146	6.202188180646569	2.15
C 	57.77838431822193	6.56971122469215	2.15
C 	58.145907362267515	7.941325898022629	2.15
C 	59.51752203559799	8.308848942068208	2.15
C 	59.885045079643575	9.680463615398686	2.15
C 	47.07451247277186	-0.1177941036183338	2.15
C 	48.446127146102334	0.2497289404272453	2.15
C 	48.81365019014792	1.6213436137577242	2.15
C 	50.18526486347839	1.9888666578032963	2.15
C 	50.55278790752397	3.360481331133775	2.15
C 	51.924402580854455	3.728004375179354	2.15
C 	52.29192562490003	5.099619048509833	2.15
C 	53.66354029823051	5.467142092555414	2.15
C 	54.03106334227609	6.8387567658858925	2.15
C 	55.40267801560656	7.206279809931469	2.15
C 	55.770201059652145	8.577894483261947	2.15
C 	57.14181573298262	8.945417527307526	2.15
C 	57.509338777028205	10.317032200638005	2.15
C 	58.88095345035868	10.684555244683585	2.15
C 	59.24847649440426	12.056169918014064	2.15
C 	60.62009116773473	12.42369296205964	2.15
C 	60.987614211780304	13.795307635390119	2.15
C 	62.35922888511079	14.162830679435697	2.15
C 	62.72675192915637	15.534445352766175	2.15
C 	44.69880617015648	0.5187744816209764	2.15
C 	46.07042084348696	0.8862975256665607	2.15
C 	46.43794388753254	2.257912198997036	2.15
C 	47.80955856086302	2.62543524304262	2.15
C 	48.177081604908594	3.9970499163730957	2.15
C 	49.54869627823908	4.364572960418672	2.15
C 	49.916219322284654	5.736187633749147	2.15
C 	51.28783399561513	6.103710677794729	2.15
C 	51.65535703966071	7.475325351125205	2.15
C 	53.02697171299119	7.842848395170788	2.15
C 	53.394494757036775	9.214463068501262	2.15
C 	54.766109430367244	9.58198611254684	2.15
C 	55.13363247441283	10.953600785877315	2.15
C 	56.505247147743304	11.321123829922902	2.15
C 	56.87277019178888	12.692738503253377	2.15
C 	58.244384865119365	13.060261547298959	2.15
C 	58.61190790916494	14.431876220629436	2.15
C 	59.98352258249541	14.799399264675012	2.15
C 	60.35104562654099	16.171013938005487	2.15
C 	61.72266029987147	16.53853698205107	2.15
C 	62.090183343917055	17.910151655381547	2.15
C 	63.46179801724753	18.277674699427127	2.15
C 	63.82932106129311	19.649289372757604	2.15
C 	65.20093573462358	20.016812416803177	2.15
C 	65.56845877866917	21.388427090133657	2.15
C 	66.94007345199965	21.75595013417923	2.15
C 	67.30759649604524	23.127564807509707	2.15
C 	40.58396215016505	-0.5837946505157576	2.15
C 	41.95557682349553	-0.21627160647017676	2.15
C 	42.32309986754111	1.155343066860302	2.15
C 	43.69471454087159	1.5228661109058743	2.15
C 	44.06223758491717	2.894480784236353	2.15
C 	45.43385225824764	3.262003828281934	2.15
C 	45.80137530229322	4.633618501612413	2.15
C 	47.1729899756237	5.001141545657994	2.15
C 	47.54051301966928	6.3727562189884726	2.15
C 	48.91212769299975	6.740279263034046	2.15
C 	49.27965073704533	8.111893936364526	2.15
C 	50.651265410375814	8.479416980410104	2.15
C 	51.0187884544214	9.851031653740582	2.15
C 	52.39040312775187	10.218554697786162	2.15
C 	52.75792617179745	11.590169371116641	2.15
C 	54.12954084512793	11.957692415162214	2.15
C 	54.49706388917351	13.329307088492692	2.15
C 	55.86867856250398	13.696830132538276	2.15
C 	56.23620160654956	15.068444805868754	2.15
C 	57.60781627988004	15.435967849914334	2.15
C 	57.975339323925624	16.807582523244815	2.15
C 	59.3469539972561	17.175105567290387	2.15
C 	59.714477041301684	18.546720240620864	2.15
C 	61.08609171463216	18.914243284666444	2.15
C 	61.45361475867774	20.28585795799692	2.15
C 	62.82522943200821	20.653381002042504	2.15
C 	63.19275247605378	22.024995675372985	2.15
C 	64.56436714938427	22.392518719418558	2.15
C 	64.93189019342985	23.764133392749034	2.15
C 	66.30350486676032	24.131656436794607	2.15
C 	66.6710279108059	25.503271110125088	2.15
C 	68.04264258413639	25.87079415417067	2.15
C 	68.41016562818197	27.24240882750115	2.15
C 	69.78178030151244	27.609931871546724	2.15
C 	70.14930334555802	28.9815465448772	2.15
C 	71.5209180188885	29.34906958892278	2.15
C 	71.88844106293408	30.720684262253258	2.15
C 	38.20825584754968	0.05277393472356802	2.15
C 	39.57987052088016	0.42029697876914024	2.15
C 	39.94739356492574	1.791911652099619	2.15
C 	41.31900823825621	2.1594346961452	2.15
C 	41.68653128230179	3.531049369475679	2.15
C 	43.05814595563226	3.898572413521253	2.15
C 	43.425668999677846	5.270187086851732	2.15
C 	44.79728367300833	5.637710130897311	2.15
C 	45.16480671705391	7.00932480422779	2.15
C 	46.53642139038438	7.37684784827337	2.15
C 	46.90394443442997	8.74846252160385	2.15
C 	48.27555910776044	9.115985565649423	2.15
C 	48.64308215180602	10.487600238979901	2.15
C 	50.0146968251365	10.855123283025481	2.15
C 	50.38221986918208	12.22673795635596	2.15
C 	51.75383454251256	12.594261000401541	2.15
C 	52.12135758655813	13.96587567373202	2.15
C 	53.49297225988861	14.333398717777593	2.15
C 	53.86049530393419	15.705013391108071	2.15
C 	55.23210997726466	16.07253643515365	2.15
C 	55.59963302131025	17.44415110848413	2.15
C 	56.971247694640724	17.811674152529708	2.15
C 	57.33877073868631	19.18328882586019	2.15
C 	58.710385412016784	19.550811869905765	2.15
C 	59.07790845606236	20.92242654323624	2.15
C 	60.449523129392844	21.28994958728182	2.15
C 	60.81704617343842	22.661564260612302	2.15
C 	62.18866084676889	23.02908730465788	2.15
C 	62.556183890814474	24.400701977988362	2.15
C 	63.92779856414495	24.76822502203393	2.15
C 	64.29532160819053	26.13983969536441	2.15
C 	65.66693628152102	26.507362739409984	2.15
C 	66.03445932556659	27.87897741274046	2.15
C 	67.40607399889707	28.246500456786052	2.15
C 	67.77359704294265	29.61811513011653	2.15
C 	69.14521171627312	29.9856381741621	2.15
C 	69.51273476031871	31.357252847492582	2.15
C 	70.88434943364918	31.724775891538155	2.15
C 	71.25187247769476	33.096390564868635	2.15
C 	72.62348715102524	33.46391360891422	2.15
C 	72.99101019507083	34.8355282822447	2.15
C 	74.3626248684013	35.20305132629027	2.15
C 	74.73014791244688	36.574665999620755	2.15
C 	76.10176258577735	36.942189043666325	2.15
C 	76.46928562982293	38.3138037169968	2.15
C 	35.8325495449343	0.68934251996288	2.15
C 	37.20416421826478	1.0568655640084643	2.15
C 	37.57168726231036	2.4284802373389396	2.15
C 	38.94330193564083	2.7960032813845155	2.15
C 	39.310824979686416	4.1676179547149905	2.15
C 	40.6824396530169	4.535140998760573	2.15
C 	41.049962697062476	5.906755672091049	2.15
C 	42.42157737039295	6.274278716136626	2.15
C 	42.78910041443853	7.645893389467101	2.15
C 	44.160715087769006	8.013416433512687	2.15
C 	44.52823813181458	9.385031106843162	2.15
C 	45.899852805145066	9.752554150888743	2.15
C 	46.26737584919065	11.124168824219218	2.15
C 	47.63899052252112	11.491691868264796	2.15
C 	48.0065135665667	12.863306541595271	2.15
C 	49.37812823989719	13.230829585640855	2.15
C 	49.74565128394276	14.60244425897133	2.15
C 	51.11726595727324	14.969967303016913	2.15
C 	51.484789001318816	16.34158197634739	2.15
C 	52.85640367464929	16.70910502039297	2.15
C 	53.22392671869487	18.08071969372344	2.15
C 	54.595541392025346	18.448242737769025	2.15
C 	54.96306443607093	19.819857411099502	2.15
C 	56.334679109401414	20.187380455145078	2.15
C 	56.70220215344699	21.55899512847556	2.15
C 	58.07381682677746	21.926518172521135	2.15
C 	58.441339870823036	23.29813284585161	2.15
C 	59.81295454415352	23.665655889897202	2.15
C 	60.180477588199096	25.037270563227672	2.15
C 	61.55209226152958	25.404793607273252	2.15
C 	61.919615305575164	26.77640828060373	2.15
C 	63.29122997890563	27.1439313246493	2.15
C 	63.65875302295122	28.515545997979782	2.15
C 	65.0303676962817	28.883069042025355	2.15
C 	65.39789074032727	30.25468371535583	2.15
C 	66.76950541365774	30.622206759401422	2.15
C 	67.13702845770332	31.993821432731902	2.15
C 	68.5086431310338	32.361344476777475	2.15
C 	68.87616617507939	33.73295915010795	2.15
C 	70.24778084840986	34.10048219415352	2.15
C 	70.61530389245544	35.472096867484005	2.15
C 	71.98691856578593	35.83961991152959	2.15
C 	72.35444160983151	37.211234584860065	2.15
C 	73.72605628316197	37.57875762890565	2.15
C 	74.09357932720755	38.950372302236126	2.15
C 	75.46519400053803	39.317895346281695	2.15
C 	75.83271704458362	40.68951001961217	2.15
C 	31.71770552494287	-0.4132266121738532	2.15
C 	33.08932019827335	-0.04570356812827839	2.15
C 	33.45684324231893	1.3259111052022003	2.15
C 	34.8284579156494	1.6934341492477796	2.15
C 	35.195980959694985	3.0650488225782584	2.15
C 	36.56759563302546	3.4325718666238374	2.15
C 	36.935118677071046	4.804186539954316	2.15
C 	38.306733350401515	5.17170958399989	2.15
C 	38.6742563944471	6.54332425733037	2.15
C 	40.045871067777576	6.910847301375949	2.15
C 	40.41339411182315	8.282461974706427	2.15
C 	41.78500878515363	8.649985018752002	2.15
C 	42.152531829199205	10.02159969208248	2.15
C 	43.52414650252969	10.389122736128058	2.15
C 	43.89166954657527	11.760737409458537	2.15
C 	45.26328421990574	12.128260453504119	2.15
C 	45.630807263951326	13.499875126834597	2.15
C 	47.0024219372818	13.86739817088017	2.15
C 	47.369944981327386	15.239012844210649	2.15
C 	48.74155965465786	15.60653588825623	2.15
C 	49.10908269870344	16.97815056158671	2.15
C 	50.480697372033916	17.34567360563229	2.15
C 	50.8482204160795	18.71728827896277	2.15
C 	52.219835089409976	19.084811323008342	2.15
C 	52.58735813345556	20.45642599633882	2.15
C 	53.958972806786036	20.8239490403844	2.15
C 	54.32649585083161	22.19556371371488	2.15
C 	55.69811052416209	22.56308675776046	2.15
C 	56.065633568207666	23.934701431090936	2.15
C 	57.43724824153814	24.302224475136512	2.15
C 	57.80477128558372	25.67383914846699	2.15
C 	59.1763859589142	26.04136219251257	2.15
C 	59.543909002959786	27.412976865843046	2.15
C 	60.91552367629026	27.78049990988863	2.15
C 	61.28304672033584	29.15211458321911	2.15
C 	62.65466139366632	29.519637627264682	2.15
C 	63.0221844377119	30.89125230059516	2.15
C 	64.39379911104237	31.258775344640732	2.15
C 	64.76132215508795	32.63039001797121	2.15
C 	66.13293682841844	32.9979130620168	2.15
C 	66.500459872464	34.369527735347276	2.15
C 	67.87207454579449	34.73705077939285	2.15
C 	68.23959758984007	36.10866545272333	2.15
C 	69.61121226317054	36.476188496768906	2.15
C 	69.97873530721613	37.84780317009938	2.15
C 	71.35034998054661	38.215326214144966	2.15
C 	71.7178730245922	39.58694088747545	2.15
C 	73.08948769792265	39.95446393152102	2.15
C 	73.45701074196823	41.326078604851496	2.15
C 	74.82862541529872	41.69360164889707	2.15
C 	75.1961484593443	43.06521632222755	2.15
C 	29.341999222327495	0.22334197306546474	2.15
C 	30.71361389565798	0.5908650171110439	2.15
C 	31.08113693970356	1.9624796904415227	2.15
C 	32.45275161303403	2.330002734487101	2.15
C 	32.82027465707961	3.70161740781758	2.15
C 	34.19188933041009	4.069140451863155	2.15
C 	34.55941237445567	5.4407551251936335	2.15
C 	35.931027047786145	5.808278169239216	2.15
C 	36.29855009183172	7.179892842569695	2.15
C 	37.670164765162205	7.547415886615267	2.15
C 	38.03768780920778	8.919030559945746	2.15
C 	39.40930248253826	9.286553603991328	2.15
C 	39.77682552658384	10.658168277321806	2.15
C 	41.14844019991431	11.025691321367377	2.15
C 	41.515963243959895	12.397305994697856	2.15
C 	42.887577917290365	12.764829038743438	2.15
C 	43.25510096133595	14.136443712073916	2.15
C 	44.62671563466643	14.503966756119496	2.15
C 	44.99423867871201	15.875581429449975	2.15
C 	46.365853352042485	16.24310447349555	2.15
C 	46.73337639608806	17.614719146826026	2.15
C 	48.104991069418546	17.982242190871606	2.15
C 	48.47251411346413	19.353856864202086	2.15
C 	49.8441287867946	19.721379908247666	2.15
C 	50.21165183084018	21.092994581578143	2.15
C 	51.58326650417066	21.46051762562372	2.15
C 	51.950789548216235	22.832132298954196	2.15
C 	53.32240422154671	23.19965534299978	2.15
C 	53.68992726559229	24.571270016330256	2.15
C 	55.06154193892277	24.938793060375836	2.15
C 	55.429064982968356	26.310407733706317	2.15
C 	56.800679656298826	26.67793077775189	2.15
C 	57.16820270034441	28.049545451082366	2.15
C 	58.539817373674886	28.417068495127946	2.15
C 	58.90734041772046	29.788683168458427	2.15
C 	60.27895509105094	30.156206212504006	2.15
C 	60.646478135096515	31.527820885834487	2.15
C 	62.018092808427	31.89534392988006	2.15
C 	62.385615852472576	33.26695860321054	2.15
C 	63.75723052580306	33.63448164725611	2.15
C 	64.12475356984864	35.006096320586586	2.15
C 	65.4963682431791	35.37361936463218	2.15
C 	65.86389128722469	36.74523403796265	2.15
C 	67.23550596055517	37.11275708200823	2.15
C 	67.60302900460076	38.48437175533871	2.15
C 	68.97464367793123	38.85189479938428	2.15
C 	69.34216672197681	40.22350947271476	2.15
C 	70.7137813953073	40.59103251676034	2.15
C 	71.08130443935286	41.96264719009083	2.15
C 	72.45291911268335	42.330170234136396	2.15
C 	72.82044215672892	43.70178490746688	2.15
C 	74.1920568300594	44.06930795151245	2.15
C 	74.55957987410497	45.440922624842926	2.15
C 	25.227155202336064	-0.8792271590712761	2.15
C 	26.59876987566654	-0.5117041150256952	2.15
C 	26.96629291971212	0.8599105583047801	2.15
C 	28.3379075930426	1.2274336023503591	2.15
C 	28.70543063708818	2.5990482756808344	2.15
C 	30.077045310418654	2.9665713197264187	2.15
C 	30.444568354464234	4.338185993056895	2.15
C 	31.816183027794718	4.705709037102474	2.15
C 	32.1837060718403	6.077323710432949	2.15
C 	33.55532074517077	6.44484675447853	2.15
C 	33.922843789216344	7.816461427809006	2.15
C 	35.29445846254683	8.183984471854588	2.15
C 	35.66198150659241	9.555599145185063	2.15
C 	37.03359617992288	9.923122189230643	2.15
C 	37.40111922396846	11.294736862561118	2.15
C 	38.77273389729894	11.6622599066067	2.15
C 	39.140256941344525	13.033874579937175	2.15
C 	40.511871614674995	13.401397623982753	2.15
C 	40.87939465872058	14.773012297313228	2.15
C 	42.251009332051055	15.140535341358811	2.15
C 	42.61853237609663	16.512150014689286	2.15
C 	43.99014704942711	16.87967305873487	2.15
C 	44.357670093472684	18.251287732065347	2.15
C 	45.72928476680317	18.618810776110923	2.15
C 	46.096807810848745	19.990425449441396	2.15
C 	47.46842248417923	20.35794849348698	2.15
C 	47.83594552822481	21.729563166817456	2.15
C 	49.20756020155529	22.097086210863036	2.15
C 	49.575083245600865	23.468700884193513	2.15
C 	50.94669791893134	23.83622392823909	2.15
C 	51.31422096297692	25.207838601569566	2.15
C 	52.685835636307395	25.575361645615157	2.15
C 	53.05335868035297	26.946976318945627	2.15
C 	54.424973353683455	27.314499362991207	2.15
C 	54.79249639772904	28.686114036321683	2.15
C 	56.16411107105951	29.05363708036726	2.15
C 	56.53163411510509	30.425251753697736	2.15
C 	57.90324878843557	30.792774797743323	2.15
C 	58.270771832481145	32.1643894710738	2.15
C 	59.64238650581162	32.53191251511938	2.15
C 	60.0099095498572	33.90352718844986	2.15
C 	61.38152422318768	34.271050232495426	2.15
C 	61.74904726723326	35.6426649058259	2.15
C 	63.12066194056374	36.01018794987148	2.15
C 	63.488184984609326	37.381802623201956	2.15
C 	64.8597996579398	37.74932566724755	2.15
C 	65.22732270198539	39.120940340578024	2.15
C 	66.59893737531586	39.4884633846236	2.15
C 	66.96646041936144	40.86007805795408	2.15
C 	68.33807509269191	41.22760110199965	2.15
C 	68.70559813673749	42.59921577533013	2.15
C 	70.07721281006798	42.96673881937571	2.15
C 	70.44473585411355	44.3383534927062	2.15
C 	71.81635052744403	44.70587653675177	2.15
C 	72.1838735714896	46.07749121008225	2.15
C 	73.55548824482008	46.44501425412782	2.15
C 	22.85144889972069	-0.24265857383195905	2.15
C 	24.223063573051167	0.12486447021362265	2.15
C 	24.590586617096747	1.4964791435440998	2.15
C 	25.962201290427227	1.864002187589677	2.15
C 	26.329724334472807	3.235616860920154	2.15
C 	27.70133900780328	3.6031399049657344	2.15
C 	28.06886205184886	4.974754578296212	2.15
C 	29.44047672517934	5.3422776223417925	2.15
C 	29.80799976922492	6.713892295672269	2.15
C 	31.179614442555394	7.081415339717848	2.15
C 	31.547137486600974	8.453030013048323	2.15
C 	32.91875215993146	8.820553057093903	2.15
C 	33.286275203977034	10.192167730424382	2.15
C 	34.65788987730751	10.559690774469964	2.15
C 	35.02541292135309	11.931305447800442	2.15
C 	36.39702759468357	12.298828491846013	2.15
C 	36.76455063872915	13.670443165176492	2.15
C 	38.13616531205962	14.037966209222075	2.15
C 	38.5036883561052	15.409580882552554	2.15
C 	39.87530302943568	15.777103926598127	2.15
C 	40.24282607348126	17.148718599928603	2.15
C 	41.61444074681174	17.516241643974187	2.15
C 	41.981963790857314	18.887856317304664	2.15
C 	43.35357846418779	19.255379361350244	2.15
C 	43.721101508233374	20.626994034680724	2.15
C 	45.092716181563844	20.994517078726297	2.15
C 	45.46023922560943	22.366131752056777	2.15
C 	46.83185389893991	22.733654796102353	2.15
C 	47.19937694298549	24.105269469432834	2.15
C 	48.57099161631597	24.472792513478414	2.15
C 	48.93851466036155	25.84440718680889	2.15
C 	50.310129333692025	26.211930230854467	2.15
C 	50.6776523777376	27.583544904184944	2.15
C 	52.04926705106807	27.951067948230527	2.15
C 	52.416790095113655	29.322682621561004	2.15
C 	53.78840476844414	29.690205665606584	2.15
C 	54.155927812489715	31.061820338937064	2.15
C 	55.52754248582019	31.429343382982637	2.15
C 	55.89506552986577	32.800958056313114	2.15
C 	57.26668020319625	33.1684811003587	2.15
C 	57.63420324724183	34.540095773689174	2.15
C 	59.005817920572305	34.90761881773476	2.15
C 	59.37334096461789	36.279233491065234	2.15
C 	60.74495563794836	36.646756535110804	2.15
C 	61.11247868199394	38.01837120844129	2.15
C 	62.48409335532442	38.38589425248686	2.15
C 	62.85161639937	39.75750892581733	2.15
C 	64.22323107270047	40.125031969862924	2.15
C 	64.59075411674606	41.49664664319341	2.15
C 	65.96236879007654	41.86416968723898	2.15
C 	66.32989183412212	43.235784360569454	2.15
C 	67.70150650745259	43.60330740461503	2.15
C 	68.06902955149816	44.97492207794551	2.15
C 	69.44064422482865	45.3424451219911	2.15
C 	20.475742597105317	0.3939100114073589	2.15
C 	21.847357270435793	0.7614330554529372	2.15
C 	22.214880314481373	2.1330477287834144	2.15
C 	23.58649498781185	2.500570772828997	2.15
C 	23.95401803185743	3.872185446159474	2.15
C 	25.325632705187907	4.239708490205052	2.15
C 	25.693155749233487	5.61132316353553	2.15
C 	27.064770422563964	5.978846207581107	2.15
C 	27.432293466609543	7.350460880911584	2.15
C 	28.80390813994002	7.717983924957167	2.15
C 	29.1714311839856	9.089598598287642	2.15
C 	30.54304585731608	9.457121642333222	2.15
C 	30.91056890136166	10.8287363156637	2.15
C 	32.282183574692134	11.196259359709279	2.15
C 	32.64970661873771	12.567874033039754	2.15
C 	34.021321292068194	12.935397077085335	2.15
C 	34.38884433611378	14.30701175041581	2.15
C 	35.76045900944425	14.67453479446139	2.15
C 	36.12798205348982	16.046149467791864	2.15
C 	37.49959672682031	16.413672511837447	2.15
C 	37.86711977086589	17.78528718516792	2.15
C 	39.23873444419636	18.1528102292135	2.15
C 	39.60625748824194	19.524424902543977	2.15
C 	40.97787216157242	19.89194794658956	2.15
C 	41.345395205618	21.263562619920034	2.15
C 	42.717009878948474	21.631085663965617	2.15
C 	43.08453292299406	23.002700337296094	2.15
C 	44.456147596324534	23.370223381341674	2.15
C 	44.82367064037011	24.741838054672144	2.15
C 	46.195285313700595	25.109361098717724	2.15
C 	46.56280835774617	26.480975772048204	2.15
C 	47.93442303107665	26.84849881609379	2.15
C 	48.301946075122224	28.220113489424264	2.15
C 	49.67356074845271	28.58763653346984	2.15
C 	50.041083792498284	29.959251206800314	2.15
C 	51.41269846582876	30.326774250845894	2.15
C 	51.780221509874345	31.698388924176374	2.15
C 	53.15183618320482	32.06591196822196	2.15
C 	53.5193592272504	33.43752664155243	2.15
C 	54.890973900580875	33.805049685598014	2.15
C 	55.25849694462645	35.176664358928484	2.15
C 	56.630111617956935	35.54418740297407	2.15
C 	56.99763466200251	36.915802076304544	2.15
C 	58.369249335332995	37.283325120350135	2.15
C 	58.73677237937857	38.654939793680605	2.15
C 	60.10838705270905	39.02246283772618	2.15
C 	60.475910096754625	40.39407751105666	2.15
C 	61.84752477008511	40.761600555102234	2.15
C 	62.215047814130685	42.133215228432704	2.15
C 	63.58666248746116	42.5007382724783	2.15
C 	63.95418553150674	43.87235294580877	2.15
C 	65.32580020483722	44.239875989854355	2.15
C 	65.6933232488828	45.611490663184824	2.15
C 	67.06493792221328	45.97901370723041	2.15
C 	16.360898577113886	-0.7086591207293769	2.15
C 	17.732513250444363	-0.3411360766837977	2.15
C 	18.100036294489943	1.0304785966466794	2.15
C 	19.471650967820416	1.3980016406922577	2.15
C 	19.839174011865996	2.7696163140227346	2.15
C 	21.210788685196476	3.137139358068313	2.15
C 	21.578311729242056	4.50875403139879	2.15
C 	22.949926402572533	4.876277075444372	2.15
C 	23.317449446618113	6.247891748774849	2.15
C 	24.689064119948593	6.615414792820427	2.15
C 	25.056587163994173	7.987029466150904	2.15
C 	26.428201837324647	8.354552510196484	2.15
C 	26.795724881370226	9.726167183526961	2.15
C 	28.167339554700707	10.093690227572539	2.15
C 	28.534862598746287	11.465304900903018	2.15
C 	29.90647727207676	11.832827944948601	2.15
C 	30.27400031612234	13.204442618279076	2.15
C 	31.645614989452817	13.57196566232465	2.15
C 	32.0131380334984	14.94358033565513	2.15
C 	33.38475270682887	15.311103379700711	2.15
C 	33.75227575087445	16.68271805303119	2.15
C 	35.12389042420493	17.05024109707676	2.15
C 	35.491413468250514	18.42185577040724	2.15
C 	36.86302814158098	18.789378814452824	2.15
C 	37.23055118562657	20.1609934877833	2.15
C 	38.602165858957044	20.528516531828874	2.15
C 	38.96968890300263	21.90013120515935	2.15
C 	40.3413035763331	22.267654249204934	2.15
C 	40.70882662037868	23.639268922535415	2.15
C 	42.080441293709164	24.00679196658099	2.15
C 	42.44796433775474	25.37840663991147	2.15
C 	43.81957901108522	25.745929683957044	2.15
C 	44.187102055130794	27.117544357287525	2.15
C 	45.55871672846127	27.485067401333104	2.15
C 	45.92623977250685	28.85668207466358	2.15
C 	47.29785444583733	29.22420511870916	2.15
C 	47.665377489882914	30.595819792039638	2.15
C 	49.036992163213384	30.963342836085214	2.15
C 	49.40451520725897	32.334957509415695	2.15
C 	50.776129880589444	32.70248055346127	2.15
C 	51.14365292463502	34.074095226791755	2.15
C 	52.515267597965504	34.44161827083733	2.15
C 	52.88279064201108	35.81323294416781	2.15
C 	54.25440531534155	36.180755988213384	2.15
C 	54.62192835938713	37.55237066154386	2.15
C 	55.99354303271761	37.919893705589445	2.15
C 	56.361066076763194	39.29150837891992	2.15
C 	57.73268075009367	39.659031422965505	2.15
C 	58.10020379413925	41.03064609629598	2.15
C 	59.47181846746973	41.39816914034156	2.15
C 	59.83934151151531	42.769783813672035	2.15
C 	61.210956184845784	43.137306857717604	2.15
C 	61.57847922889136	44.50892153104808	2.15
C 	62.95009390222184	44.87644457509367	2.15
C 	63.31761694626742	46.24805924842415	2.15
C 	64.6892316195979	46.615582292469725	2.15
C 	13.98519227449851	-0.07209053549005807	2.15
C 	15.35680694782899	0.29543250855552194	2.15
C 	15.72432999187457	1.667047181885999	2.15
C 	17.095944665205046	2.0345702259315774	2.15
C 	17.463467709250626	3.4061848992620543	2.15
C 	18.835082382581103	3.7737079433076337	2.15
C 	19.202605426626683	5.1453226166381105	2.15
C 	20.574220099957156	5.512845660683689	2.15
C 	20.941743144002736	6.884460334014166	2.15
C 	22.313357817333216	7.251983378059748	2.15
C 	22.680880861378796	8.623598051390225	2.15
C 	24.052495534709273	8.991121095435803	2.15
C 	24.420018578754853	10.362735768766278	2.15
C 	25.79163325208533	10.73025881281186	2.15
C 	26.15915629613091	12.101873486142338	2.15
C 	27.530770969461386	12.469396530187918	2.15
C 	27.898294013506966	13.841011203518397	2.15
C 	29.269908686837443	14.208534247563973	2.15
C 	29.63743173088302	15.580148920894448	2.15
C 	31.0090464042135	15.94767196494003	2.15
C 	31.37656944825908	17.31928663827051	2.15
C 	32.74818412158955	17.68680968231609	2.15
C 	33.115707165635136	19.05842435564657	2.15
C 	34.48732183896561	19.42594739969214	2.15
C 	34.85484488301119	20.79756207302262	2.15
C 	36.22645955634167	21.165085117068198	2.15
C 	36.59398260038725	22.53669979039868	2.15
C 	37.96559727371773	22.90422283444425	2.15
C 	38.3331203177633	24.27583750777473	2.15
C 	39.70473499109379	24.64336055182031	2.15
C 	40.07225803513936	26.01497522515079	2.15
C 	41.44387270846984	26.382498269196372	2.15
C 	41.811395752515416	27.75411294252685	2.15
C 	43.1830104258459	28.12163598657242	2.15
C 	43.55053346989148	29.493250659902902	2.15
C 	44.92214814322196	29.860773703948478	2.15
C 	45.289671187267544	31.23238837727896	2.15
C 	46.661285860598014	31.59991142132454	2.15
C 	47.02880890464359	32.97152609465502	2.15
C 	48.400423577974074	33.33904913870059	2.15
C 	48.76794662201965	34.71066381203107	2.15
C 	50.13956129535013	35.07818685607665	2.15
C 	50.5070843393957	36.44980152940713	2.15
C 	51.87869901272619	36.81732457345271	2.15
C 	52.24622205677177	38.188939246783185	2.15
C 	53.61783673010224	38.55646229082876	2.15
C 	53.985359774147824	39.92807696415924	2.15
C 	55.3569744474783	40.29560000820482	2.15
C 	55.72449749152388	41.6672146815353	2.15
C 	57.096112164854354	42.03473772558088	2.15
C 	57.46363520889993	43.40635239891136	2.15
C 	58.835249882230414	43.77387544295693	2.15
C 	59.20277292627599	45.14549011628741	2.15
C 	60.574387599606474	45.51301316033298	2.15
C 	11.609485971883135	0.564478049749259	2.15
C 	12.981100645213614	0.9320010937948385	2.15
C 	13.348623689259194	2.3036157671253155	2.15
C 	14.72023836258967	2.6711388111708962	2.15
C 	15.08776140663525	4.0427534845013735	2.15
C 	16.45937607996573	4.410276528546952	2.15
C 	16.82689912401131	5.781891201877428	2.15
C 	18.198513797341786	6.149414245923007	2.15
C 	18.566036841387366	7.521028919253484	2.15
C 	19.93765151471784	7.888551963299063	2.15
C 	20.30517455876342	9.26016663662954	2.15
C 	21.676789232093896	9.627689680675122	2.15
C 	22.044312276139475	10.999304354005597	2.15
C 	23.415926949469956	11.366827398051177	2.15
C 	23.783449993515536	12.738442071381655	2.15
C 	25.155064666846012	13.105965115427233	2.15
C 	25.522587710891592	14.477579788757708	2.15
C 	26.89420238422207	14.845102832803292	2.15
C 	27.261725428267646	16.21671750613377	2.15
C 	28.633340101598126	16.58424055017935	2.15
C 	29.000863145643706	17.955855223509825	2.15
C 	30.37247781897418	18.323378267555402	2.15
C 	30.74000086301976	19.69499294088588	2.15
C 	32.111615536350236	20.062515984931462	2.15
C 	32.47913858039582	21.43413065826194	2.15
C 	33.850753253726296	21.801653702307515	2.15
C 	34.21827629777187	23.17326837563799	2.15
C 	35.58989097110235	23.540791419683572	2.15
C 	35.95741401514793	24.91240609301405	2.15
C 	37.32902868847841	25.27992913705963	2.15
C 	37.696551732523986	26.651543810390102	2.15
C 	39.06816640585446	27.019066854435682	2.15
C 	39.435689449900046	28.390681527766162	2.15
C 	40.80730412323052	28.75820457181175	2.15
C 	41.1748271672761	30.12981924514222	2.15
C 	42.546441840606576	30.4973422891878	2.15
C 	42.91396488465215	31.868956962518272	2.15
C 	44.285579557982636	32.23648000656385	2.15
C 	44.65310260202822	33.60809467989433	2.15
C 	46.024717275358704	33.97561772393992	2.15
C 	46.39224031940428	35.34723239727039	2.15
C 	47.76385499273475	35.71475544131597	2.15
C 	48.131378036780326	37.08637011464644	2.15
C 	49.5029927101108	37.45389315869202	2.15
C 	49.87051575415638	38.8255078320225	2.15
C 	51.24213042748687	39.193030876068086	2.15
C 	51.60965347153245	40.564645549398556	2.15
C 	52.98126814486292	40.93216859344414	2.15
C 	53.3487911889085	42.30378326677461	2.15
C 	54.720405862238984	42.67130631082019	2.15
C 	55.08792890628456	44.04292098415067	2.15
C 	56.45954357961503	44.41044402819626	2.15
C 	56.827066623660606	45.78205870152673	2.15
C 	58.19868129699109	46.14958174557231	2.15
C 	7.494641951891705	-0.5380910823874785	2.15
C 	8.866256625222181	-0.17056803834189885	2.15
C 	9.233779669267761	1.2010466349885782	2.15
C 	10.605394342598238	1.5685696790341566	2.15
C 	10.972917386643818	2.940184352364634	2.15
C 	12.344532059974297	3.3077073964102137	2.15
C 	12.712055104019877	4.6793220697406905	2.15
C 	14.083669777350353	5.0468451137862695	2.15
C 	14.451192821395933	6.418459787116749	2.15
C 	15.822807494726408	6.785982831162325	2.15
C 	16.19033053877199	8.157597504492804	2.15
C 	17.561945212102465	8.52512054853838	2.15
C 	17.92946825614805	9.89673522186886	2.15
C 	19.301082929478522	10.264258265914437	2.15
C 	19.6686059735241	11.635872939244916	2.15
C 	21.040220646854582	12.003395983290496	2.15
C 	21.407743690900162	13.375010656620974	2.15
C 	22.779358364230635	13.742533700666552	2.15
C 	23.146881408276215	15.11414837399703	2.15
C 	24.518496081606692	15.481671418042607	2.15
C 	24.886019125652272	16.853286091373086	2.15
C 	26.257633798982752	17.220809135418666	2.15
C 	26.625156843028332	18.592423808749146	2.15
C 	27.996771516358805	18.959946852794722	2.15
C 	28.364294560404385	20.3315615261252	2.15
C 	29.735909233734866	20.69908457017078	2.15
C 	30.103432277780446	22.070699243501256	2.15
C 	31.47504695111092	22.438222287546836	2.15
C 	31.8425699951565	23.809836960877316	2.15
C 	33.21418466848698	24.17736000492289	2.15
C 	33.581707712532555	25.54897467825337	2.15
C 	34.95332238586303	25.91649772229895	2.15
C 	35.320845429908616	27.288112395629426	2.15
C 	36.69246010323909	27.655635439675	2.15
C 	37.05998314728467	29.02725011300548	2.15
C 	38.431597820615146	29.39477315705106	2.15
C 	38.79912086466073	30.766387830381536	2.15
C 	40.170735537991206	31.13391087442712	2.15
C 	40.53825858203678	32.5055255477576	2.15
C 	41.90987325536726	32.87304859180317	2.15
C 	42.27739629941284	34.244663265133646	2.15
C 	43.649010972743326	34.61218630917923	2.15
C 	44.0165340167889	35.983800982509706	2.15
C 	45.38814869011938	36.35132402655529	2.15
C 	45.755671734164956	37.722938699885766	2.15
C 	47.12728640749544	38.090461743931336	2.15
C 	47.494809451541016	39.46207641726182	2.15
C 	48.866424124871486	39.829599461307396	2.15
C 	49.23394716891707	41.20121413463788	2.15
C 	50.60556184224755	41.568737178683456	2.15
C 	50.97308488629313	42.94035185201393	2.15
C 	52.344699559623606	43.30787489605951	2.15
C 	52.71222260366918	44.679489569389986	2.15
C 	54.08383727699967	45.04701261343557	2.15
C 	54.45136032104524	46.418627286766046	2.15
C 	55.82297499437572	46.78615033081163	2.15
C 	5.118935649276329	0.09847750285184015	2.15
C 	6.490550322606807	0.46600054689741927	2.15
C 	6.858073366652387	1.8376152202278964	2.15
C 	8.229688039982864	2.205138264273476	2.15
C 	8.597211084028444	3.5767529376039526	2.15
C 	9.96882575735892	3.9442759816495316	2.15
C 	10.3363488014045	5.3158906549800085	2.15
C 	11.707963474734978	5.683413699025588	2.15
C 	12.075486518780556	7.055028372356066	2.15
C 	13.447101192111035	7.422551416401646	2.15
C 	13.814624236156613	8.794166089732123	2.15
C 	15.18623890948709	9.161689133777701	2.15
C 	15.55376195353267	10.53330380710818	2.15
C 	16.925376626863148	10.900826851153758	2.15
C 	17.292899670908724	12.272441524484234	2.15
C 	18.664514344239205	12.639964568529814	2.15
C 	19.032037388284785	14.01157924186029	2.15
C 	20.40365206161526	14.379102285905875	2.15
C 	20.77117510566084	15.75071695923635	2.15
C 	22.142789778991318	16.118240003281926	2.15
C 	22.510312823036898	17.489854676612403	2.15
C 	23.881927496367375	17.857377720657986	2.15
C 	24.249450540412955	19.22899239398846	2.15
C 	25.621065213743435	19.596515438034043	2.15
C 	25.98858825778901	20.96813011136452	2.15
C 	27.360202931119492	21.335653155410096	2.15
C 	27.72772597516507	22.707267828740573	2.15
C 	29.099340648495545	23.074790872786156	2.15
C 	29.466863692541125	24.44640554611663	2.15
C 	30.838478365871605	24.813928590162213	2.15
C 	31.206001409917185	26.185543263492693	2.15
C 	32.57761608324766	26.553066307538266	2.15
C 	32.94513912729324	27.924680980868743	2.15
C 	34.316753800623715	28.292204024914327	2.15
C 	34.6842768446693	29.663818698244796	2.15
C 	36.05589151799977	30.031341742290376	2.15
C 	36.42341456204535	31.40295641562085	2.15
C 	37.79502923537583	31.770479459666436	2.15
C 	38.16255227942141	33.14209413299692	2.15
C 	39.53416695275189	33.50961717704249	2.15
C 	39.901689996797465	34.88123185037297	2.15
C 	41.27330467012794	35.248754894418546	2.15
C 	41.64082771417352	36.62036956774902	2.15
C 	43.012442387504	36.98789261179461	2.15
C 	43.379965431549586	38.35950728512508	2.15
C 	44.75158010488006	38.72703032917067	2.15
C 	45.11910314892564	40.09864500250114	2.15
C 	46.490717822256116	40.46616804654672	2.15
C 	46.8582408663017	41.83778271987719	2.15
C 	48.229855539632176	42.20530576392278	2.15
C 	48.59737858367775	43.57692043725326	2.15
C 	49.96899325700823	43.94444348129883	2.15
C 	50.336516301053805	45.31605815462931	2.15
C 	51.70813097438428	45.68358119867489	2.15
C 	2.7432293466609545	0.7350460880911586	2.15
C 	4.114844019991432	1.102569132136738	2.15
C 	4.482367064037012	2.474183805467215	2.15
C 	5.853981737367489	2.841706849512794	2.15
C 	6.221504781413068	4.213321522843271	2.15
C 	7.593119454743545	4.5808445668888504	2.15
C 	7.960642498789125	5.952459240219328	2.15
C 	9.332257172119602	6.319982284264907	2.15
C 	9.699780216165182	7.691596957595382	2.15
C 	11.071394889495659	8.059120001640963	2.15
C 	11.438917933541239	9.430734674971442	2.15
C 	12.810532606871718	9.798257719017021	2.15
C 	13.178055650917296	11.169872392347497	2.15
C 	14.549670324247773	11.537395436393078	2.15
C 	14.917193368293352	12.909010109723553	2.15
C 	16.28880804162383	13.276533153769133	2.15
C 	16.656331085669407	14.648147827099608	2.15
C 	18.027945758999884	15.015670871145188	2.15
C 	18.395468803045464	16.387285544475663	2.15
C 	19.767083476375944	16.754808588521247	2.15
C 	20.134606520421524	18.126423261851723	2.15
C 	21.506221193752	18.493946305897303	2.15
C 	21.87374423779758	19.865560979227777	2.15
C 	23.245358911128058	20.23308402327336	2.15
C 	23.612881955173638	21.604698696603833	2.15
C 	24.984496628504115	21.972221740649417	2.15
C 	25.352019672549694	23.343836413979894	2.15
C 	26.72363434588017	23.711359458025473	2.15
C 	27.09115738992575	25.082974131355947	2.15
C 	28.46277206325623	25.450497175401527	2.15
C 	28.830295107301808	26.822111848732003	2.15
C 	30.201909780632285	27.189634892777583	2.15
C 	30.569432824677865	28.561249566108064	2.15
C 	31.94104749800834	28.928772610153636	2.15
C 	32.30857054205392	30.300387283484117	2.15
C 	33.6801852153844	30.667910327529697	2.15
C 	34.047708259429974	32.03952500086017	2.15
C 	35.41932293276045	32.40704804490575	2.15
C 	35.786845976806035	33.77866271823623	2.15
C 	37.15846065013651	34.14618576228181	2.15
C 	37.52598369418209	35.51780043561229	2.15
C 	38.89759836751257	35.88532347965786	2.15
C 	39.26512141155815	37.25693815298835	2.15
C 	40.636736084888625	37.62446119703392	2.15
C 	41.00425912893421	38.99607587036439	2.15
C 	42.375873802264685	39.36359891440998	2.15
C 	42.74339684631026	40.73521358774045	2.15
C 	44.115011519640746	41.10273663178604	2.15
C 	44.48253456368632	42.474351305116514	2.15
C 	45.8541492370168	42.84187434916209	2.15
C 	46.22167228106238	44.21348902249257	2.15
C 	47.59328695439286	44.58101206653815	2.15
C 	47.960809998438435	45.95262673986863	2.15
C 	49.33242467176892	46.320149783914204	2.15
C 	1.739137717376057	1.7391377173760565	2.15
C 	2.1066607614216366	3.1107523907065335	2.15
C 	3.478275434752114	3.478275434752113	2.15
C 	3.8457984787976938	4.84989010808259	2.15
C 	5.217413152128171	5.217413152128169	2.15
C 	5.584936196173751	6.589027825458646	2.15
C 	6.956550869504228	6.956550869504226	2.15
C 	7.324073913549808	8.328165542834702	2.15
C 	8.695688586880284	8.695688586880282	2.15
C 	9.063211630925863	10.067303260210759	2.15
C 	10.434826304256342	10.434826304256339	2.15
C 	10.802349348301922	11.806440977586815	2.15
C 	12.173964021632399	12.173964021632395	2.15
C 	12.541487065677979	13.545578694962872	2.15
C 	13.913101739008455	13.913101739008452	2.15
C 	14.280624783054035	15.28471641233893	2.15
C 	15.652239456384512	15.652239456384507	2.15
C 	16.01976250043009	17.023854129714984	2.15
C 	17.391377173760567	17.391377173760564	2.15
C 	17.758900217806147	18.76299184709104	2.15
C 	19.130514891136624	19.13051489113662	2.15
C 	19.498037935182204	20.5021295644671	2.15
C 	20.869652608512684	20.869652608512677	2.15
C 	21.237175652558264	22.24126728184315	2.15
C 	22.60879032588874	22.608790325888734	2.15
C 	22.97631336993432	23.98040499921921	2.15
C 	24.347928043264798	24.34792804326479	2.15
C 	24.715451087310377	25.71954271659527	2.15
C 	26.087065760640854	26.087065760640847	2.15
C 	26.45458880468643	27.458680433971324	2.15
C 	27.82620347801691	27.826203478016904	2.15
C 	28.19372652206249	29.19781815134738	2.15
C 	29.56534119539297	29.56534119539296	2.15
C 	29.93286423943855	30.93695586872344	2.15
C 	31.304478912769024	31.304478912769014	2.15
C 	31.672001956814604	32.67609358609949	2.15
C 	33.04361663014508	33.043616630145074	2.15
C 	33.411139674190665	34.41523130347555	2.15
C 	34.782754347521134	34.78275434752113	2.15
C 	35.15027739156672	36.154369020851604	2.15
C 	36.521892064897195	36.52189206489719	2.15
C 	36.88941510894278	37.893506738227664	2.15
C 	38.26102978227325	38.26102978227324	2.15
C 	38.62855282631883	39.632644455603725	2.15
C 	40.00016749964931	40.000167499649294	2.15
C 	40.367690543694884	41.37178217297977	2.15
C 	41.73930521702537	41.739305217025354	2.15
C 	42.10682826107095	43.11091989035583	2.15
C 	43.47844293440143	43.478442934401414	2.15
C 	43.845965978447005	44.85005760773189	2.15
C 	45.21758065177748	45.21758065177747	2.15
C 	4.580844566888854	7.593119454743544	2.15
C 	4.948367610934433	8.96473412807402	2.15
C 	6.31998228426491	9.332257172119599	2.15
C 	6.687505328310491	10.70387184545008	2.15
C 	8.059120001640967	11.071394889495656	2.15
C 	8.426643045686546	12.443009562826134	2.15
C 	9.798257719017025	12.810532606871714	2.15
C 	10.165780763062603	14.182147280202189	2.15
C 	11.537395436393082	14.549670324247769	2.15
C 	11.904918480438662	15.921284997578248	2.15
C 	13.276533153769138	16.288808041623824	2.15
C 	13.644056197814718	17.660422714954304	2.15
C 	15.015670871145193	18.02794575899988	2.15
C 	15.383193915190775	19.39956043233036	2.15
C 	16.75480858852125	19.767083476375937	2.15
C 	17.12233163256683	21.138698149706414	2.15
C 	18.493946305897307	21.506221193751994	2.15
C 	18.861469349942887	22.877835867082474	2.15
C 	20.233084023273367	23.24535891112805	2.15
C 	20.600607067318947	24.61697358445853	2.15
C 	21.972221740649424	24.984496628504107	2.15
C 	22.339744784695004	26.356111301834584	2.15
C 	23.71135945802548	26.723634345880164	2.15
C 	24.07888250207106	28.09524901921064	2.15
C 	25.450497175401537	28.46277206325622	2.15
C 	25.818020219447117	29.8343867365867	2.15
C 	27.189634892777594	30.20190978063228	2.15
C 	27.55715793682317	31.57352445396275	2.15
C 	28.92877261015365	31.941047498008338	2.15
C 	29.29629565419923	33.31266217133881	2.15
C 	30.667910327529707	33.68018521538439	2.15
C 	31.035433371575287	35.05179988871486	2.15
C 	32.407048044905764	35.41932293276045	2.15
C 	32.77457108895134	36.79093760609092	2.15
C 	34.146185762281824	37.158460650136504	2.15
C 	34.5137088063274	38.530075323466974	2.15
C 	35.88532347965788	38.897598367512565	2.15
C 	36.252846523703454	40.269213040843034	2.15
C 	37.62446119703394	40.63673608488862	2.15
C 	37.991984241079514	42.008350758219095	2.15
C 	39.36359891440999	42.37587380226467	2.15
C 	39.73112195845557	43.74748847559515	2.15
C 	41.10273663178605	44.11501151964073	2.15
C 	41.47025967583163	45.4866261929712	2.15
C 	42.84187434916211	45.85414923701679	2.15
C 	9.161689133777708	15.186238909487088	2.15
C 	9.529212177823288	16.557853582817568	2.15
C 	10.900826851153765	16.925376626863148	2.15
C 	11.268349895199343	18.29699130019362	2.15
C 	12.63996456852982	18.664514344239198	2.15
C 	13.007487612575401	20.036129017569678	2.15
C 	14.379102285905878	20.403652061615258	2.15
C 	14.746625329951456	21.775266734945735	2.15
C 	16.118240003281933	22.14278977899131	2.15
C 	16.485763047327513	23.514404452321788	2.15
C 	17.85737772065799	23.88192749636737	2.15
C 	18.22490076470357	25.253542169697848	2.15
C 	19.59651543803405	25.621065213743428	2.15
C 	19.96403848207963	26.992679887073905	2.15
C 	21.335653155410103	27.36020293111948	2.15
C 	21.703176199455683	28.731817604449958	2.15
C 	23.074790872786163	29.099340648495538	2.15
C 	23.442313916831743	30.47095532182602	2.15
C 	24.81392859016222	30.838478365871598	2.15
C 	25.1814516342078	32.21009303920207	2.15
C 	26.553066307538277	32.57761608324765	2.15
C 	26.920589351583857	33.94923075657813	2.15
C 	28.29220402491433	34.31675380062371	2.15
C 	28.65972706895991	35.688368473954185	2.15
C 	30.031341742290387	36.05589151799976	2.15
C 	30.39886478633597	37.42750619133024	2.15
C 	31.770479459666447	37.79502923537582	2.15
C 	32.13800250371203	39.1666439087063	2.15
C 	33.5096171770425	39.534166952751875	2.15
C 	33.877140221088084	40.90578162608235	2.15
C 	35.24875489441856	41.273304670127935	2.15
C 	35.61627793846414	42.64491934345841	2.15
C 	36.987892611794614	43.01244238750399	2.15
C 	37.3554156558402	44.38405706083447	2.15
C 	38.727030329170674	44.75158010488004	2.15
C 	39.09455337321625	46.123194778210525	2.15
C 	40.466168046546734	46.4907178222561	2.15
C 	13.74253370066656	22.77935836423063	2.15
C 	14.11005674471214	24.15097303756111	2.15
C 	15.481671418042614	24.51849608160669	2.15
C 	15.849194462088194	25.890110754937165	2.15
C 	17.220809135418673	26.25763379898275	2.15
C 	17.588332179464253	27.629248472313222	2.15
C 	18.959946852794733	27.996771516358802	2.15
C 	19.32746989684031	29.36838618968928	2.15
C 	20.69908457017079	29.73590923373486	2.15
C 	21.06660761421637	31.107523907065335	2.15
C 	22.438222287546846	31.475046951110915	2.15
C 	22.805745331592426	32.846661624441396	2.15
C 	24.177360004922903	33.21418466848697	2.15
C 	24.544883048968483	34.58579934181745	2.15
C 	25.91649772229896	34.953322385863025	2.15
C 	26.28402076634454	36.32493705919351	2.15
C 	27.655635439675017	36.692460103239085	2.15
C 	28.023158483720596	38.06407477656957	2.15
C 	29.39477315705107	38.43159782061514	2.15
C 	29.76229620109665	39.803212493945615	2.15
C 	31.13391087442713	40.1707355379912	2.15
C 	31.50143391847271	41.542350211321676	2.15
C 	32.87304859180318	41.90987325536725	2.15
C 	33.24057163584877	43.28148792869773	2.15
C 	34.61218630917924	43.64901097274331	2.15
C 	34.97970935322482	45.02062564607379	2.15
C 	36.351324026555304	45.388148690119365	2.15
C 	16.584240550179356	28.633340101598122	2.15
C 	16.951763594224932	30.004954774928596	2.15
C 	18.323378267555416	30.372477818974176	2.15
C 	18.690901311600996	31.744092492304656	2.15
C 	20.06251598493147	32.11161553635023	2.15
C 	20.43003902897705	33.483230209680706	2.15
C 	21.80165370230753	33.850753253726296	2.15
C 	22.169176746353106	35.222367927056766	2.15
C 	23.540791419683583	35.58989097110235	2.15
C 	23.908314463729162	36.961505644432826	2.15
C 	25.27992913705964	37.329028688478395	2.15
C 	25.647452181105223	38.70064336180888	2.15
C 	27.0190668544357	39.06816640585446	2.15
C 	27.38658989848128	40.43978107918493	2.15
C 	28.758204571811756	40.807304123230516	2.15
C 	29.125727615857333	42.178918796560986	2.15
C 	30.49734228918781	42.54644184060657	2.15
C 	30.86486533323339	43.918056513937046	2.15
C 	32.236480006563866	44.28557955798262	2.15
C 	32.60400305060945	45.6571942313131	2.15
C 	33.975617723939926	46.02471727535869	2.15
C 	21.16508511706821	36.226459556341666	2.15
C 	21.53260816111379	37.59807422967214	2.15
C 	22.904222834444266	37.96559727371772	2.15
C 	23.271745878489845	39.337211947048196	2.15
C 	24.643360551820322	39.70473499109377	2.15
C 	25.010883595865902	41.07634966442426	2.15
C 	26.382498269196383	41.44387270846983	2.15
C 	26.750021313241962	42.81548738180032	2.15
C 	28.121635986572436	43.183010425845886	2.15
C 	28.489159030618016	44.55462509917636	2.15
C 	29.860773703948496	44.922148143221946	2.15
C 	30.228296747994076	46.29376281655242	2.15
C 	31.59991142132455	46.661285860598	2.15
C 	25.745929683957062	43.81957901108521	2.15
C 	26.11345272800264	45.19119368441569	2.15
C 	27.48506740133312	45.55871672846126	2.15
H 	53.28295003621691	-0.7046527073759947	2.15
H 	55.70742386020249	-0.05501690416866378	2.15
H 	56.35705966340981	2.3694569198168978	2.15
H 	49.168106016225494	-1.8072218395127408	2.15
H 	51.59257984021104	-1.1575860363054242	2.15
H 	56.809992992339225	4.059827115822756	2.15
H 	58.549130709715264	5.798964833198808	2.15
H 	60.288268427091324	7.538102550574865	2.15
H 	60.937904230298656	9.962576374560436	2.15
H 	46.79239971361011	-1.1706532542734174	2.15
H 	61.39083755922806	11.652946570566298	2.15
H 	63.12997527660413	13.39208428794236	2.15
H 	63.77961107981145	15.816558111927925	2.15
H 	44.41669341099473	-0.5340846690341076	2.15
H 	64.23254440874086	17.506928307933794	2.15
H 	65.97168212611692	19.246066025309833	2.15
H 	67.71081984349298	20.985203742685886	2.15
H 	68.36045564670032	23.409677566671448	2.15
H 	40.3018493910033	-1.6366538011708416	2.15
H 	42.72632321498887	-0.9870179979635125	2.15
H 	68.81338897562974	25.10004776267734	2.15
H 	70.55252669300577	26.83918548005338	2.15
H 	72.29166441038183	28.578323197429437	2.15
H 	72.94130021358916	31.002797021415002	2.15
H 	37.926143088387924	-1.0000852159315154	2.15
H 	73.39423354251859	32.693167217420886	2.15
H 	75.13337125989463	34.432304934796925	2.15
H 	76.87250897727068	36.171442652172985	2.15
H 	77.52214478047802	38.59591647615855	2.15
H 	35.55043678577256	-0.36351663069220685	2.15
H 	76.8855761952387	40.97162277877392	2.15
H 	31.435592765781113	-1.4660857628289354	2.15
H 	33.86006658976668	-0.8164499596216166	2.15
H 	76.24900760999938	43.34732908138928	2.15
H 	29.05988646316574	-0.8295171775896174	2.15
H 	75.61243902476005	45.72303538400468	2.15
H 	24.945042443174316	-1.93208630972636	2.15
H 	27.36951626715988	-1.2824505065190297	2.15
H 	71.41312717999627	46.84823760157559	2.15
H 	73.83760100398183	47.4978734047829	2.15
H 	22.569336140558946	-1.2955177244870442	2.15
H 	69.7227569839904	46.39530427264618	2.15
H 	20.193629837943572	-0.6589491392477262	2.15
H 	67.34705068137502	47.03187285788549	2.15
H 	16.078785817952134	-1.7615182713844608	2.15
H 	18.5032596419377	-1.1118824681771335	2.15
H 	62.54687055477408	47.01880563991749	2.15
H 	64.97134437875965	47.668441443124806	2.15
H 	13.703079515336762	-1.1249496861451425	2.15
H 	60.85650035876824	46.56587231098806	2.15
H 	11.327373212721385	-0.48838110090582476	2.15
H 	58.48079405615284	47.202440896227394	2.15
H 	7.212529192729956	-1.590950233042563	2.15
H 	9.637003016715518	-0.9413144298352358	2.15
H 	53.6806139295519	47.189373678259386	2.15
H 	56.10508775353748	47.83900948146671	2.15
H 	4.836822890114581	-0.9543816478032443	2.15
H 	51.99024373354602	46.736440349329975	2.15
H 	2.4611165874992067	-0.31781306256392583	2.15
H 	47.190063606945095	46.72337313136196	2.15
H 	49.61453743093068	47.373008934569285	2.15
H 	0.6862785667209725	1.4570249582143089	2.15
H 	1.3359143699282998	3.8814987821998703	2.15
H 	3.0750520873043574	5.6206364995759275	2.15
H 	45.49969341093923	46.27043980243255	2.15
H 	3.52798541623377	7.311006695581796	2.15
H 	4.1776212194410975	9.735480519567359	2.15
H 	5.916758936817157	11.474618236943419	2.15
H 	7.65589665419321	13.21375595431947	2.15
H 	43.12398710832386	46.90700838767187	2.15
H 	8.108829983122625	14.904126150325336	2.15
H 	8.758465786329953	17.328599974310904	2.15
H 	10.497603503706003	19.067737691686954	2.15
H 	12.236741221082067	20.806875409063018	2.15
H 	38.32380698172291	46.893941169703865	2.15
H 	40.7482808057085	47.54357697291118	2.15
H 	12.689674550011475	22.49724560506888	2.15
H 	13.339310353218805	24.92171942905445	2.15
H 	15.078448070594856	26.6608571464305	2.15
H 	36.63343678571705	46.441007840774446	2.15
H 	15.53138139952427	28.35122734243638	2.15
H 	16.18101720273159	30.77570116642193	2.15
H 	17.920154920107663	32.514838883798	2.15
H 	19.659292637483706	34.25397660117404	2.15
H 	34.257730483101675	47.07757642601377	2.15
H 	20.112225966413124	35.94434679717992	2.15
H 	20.761861769620456	38.36882062116548	2.15
H 	22.50099948699651	40.107958338541536	2.15
H 	24.24013720437257	41.847096055917596	2.15
H 	29.457550356500743	47.06450920804576	2.15
H 	31.88202418048629	47.71414501125309	2.15
H 	24.693070533301977	43.53746625192346	2.15
H 	25.3427063365093	45.96194007590902	2.15
H 	27.76718016049487	46.611575879116344	2.15
