2312

C 	0.0	0.0	0.0
C 	1.2297560733739028	0.7099999999999999	0.0
C 	2.4595121467478056	-2.3647750424515833e-16	0.0
C 	3.689268220121708	0.7099999999999995	0.0
C 	4.919024293495611	-4.729550084903167e-16	0.0
C 	6.148780366869514	0.7099999999999993	0.0
C 	7.378536440243416	-7.09432512735475e-16	0.0
C 	8.60829251361732	0.7099999999999991	0.0
C 	9.838048586991222	-9.459100169806333e-16	0.0
C 	11.067804660365125	0.7099999999999989	0.0
C 	12.297560733739026	-1.1823875212257916e-15	0.0
C 	13.527316807112928	0.7099999999999986	0.0
C 	14.757072880486833	-1.41886502547095e-15	0.0
C 	15.986828953860735	0.7099999999999984	0.0
C 	17.21658502723464	-7.671641100159832e-16	0.0
C 	18.44634110060854	0.7099999999999982	0.0
C 	19.676097173982445	-1.8918200339612667e-15	0.0
C 	20.905853247356347	0.7099999999999989	0.0
C 	22.135609320730246	-2.128297538206425e-15	0.0
C 	23.36536539410415	0.7099999999999967	0.0
C 	24.59512146747805	-2.364775042451583e-15	0.0
C 	25.824877540851954	0.7099999999999983	0.0
C 	27.05463361422586	-8.248957072964913e-16	0.0
C 	28.284389687599763	0.7099999999999999	0.0
C 	29.514145760973665	-2.8377300509419e-15	0.0
C 	30.743901834347565	0.7099999999999961	0.0
C 	31.97365790772147	-3.0742075551870582e-15	0.0
C 	33.20341398109537	0.7099999999999976	0.0
C 	34.43317005446928	-1.5343282200319664e-15	0.0
C 	35.66292612784318	0.7099999999999992	0.0
C 	36.892682201217085	-1.7708057242771246e-15	0.0
C 	38.122438274590984	0.7099999999999972	0.0
C 	39.35219434796489	-3.783640067922533e-15	0.0
C 	40.58195042133879	0.7099999999999969	0.0
C 	41.811706494712695	-4.67403893367191e-16	0.0
C 	43.0414625680866	0.7100000000000002	0.0
C 	44.27121864146049	-4.25659507641285e-15	0.0
C 	45.5009747148344	0.7099999999999964	0.0
C 	46.730730788208305	-9.403589018575075e-16	0.0
C 	47.96048686158221	0.7099999999999997	0.0
C 	49.1902429349561	-4.729550084903166e-15	0.0
C 	50.41999900833001	0.709999999999996	0.0
C 	51.64975508170391	-1.413313910347824e-15	0.0
C 	52.879511155077815	0.7099999999999993	0.0
C 	54.10926722845172	-1.6497914145929826e-15	0.0
C 	55.33902330182562	0.7099999999999991	0.0
C 	56.56877937519952	-5.438982597638641e-15	0.0
C 	57.798535448573425	0.7099999999999953	0.0
C 	59.02829152194733	-5.6754601018838e-15	0.0
C 	60.25804759532124	0.709999999999995	0.0
C 	1.2297560733739028	2.1299999999999994	0.0
C 	2.4595121467478056	2.8399999999999994	0.0
C 	3.689268220121708	2.1299999999999994	0.0
C 	4.919024293495611	2.8399999999999994	0.0
C 	6.148780366869514	2.129999999999999	0.0
C 	7.378536440243416	2.839999999999999	0.0
C 	8.60829251361732	2.1299999999999986	0.0
C 	9.838048586991222	2.8399999999999985	0.0
C 	11.067804660365123	2.129999999999998	0.0
C 	12.297560733739028	2.839999999999999	0.0
C 	13.527316807112928	2.1299999999999977	0.0
C 	14.757072880486833	2.839999999999998	0.0
C 	15.986828953860735	2.129999999999998	0.0
C 	17.216585027234636	2.839999999999997	0.0
C 	18.446341100608542	2.129999999999998	0.0
C 	19.676097173982445	2.8399999999999985	0.0
C 	20.905853247356344	2.1299999999999977	0.0
C 	22.13560932073025	2.8399999999999985	0.0
C 	23.36536539410415	2.129999999999997	0.0
C 	24.595121467478055	2.839999999999997	0.0
C 	25.824877540851954	2.1299999999999963	0.0
C 	27.05463361422586	2.839999999999997	0.0
C 	28.284389687599763	2.129999999999998	0.0
C 	29.514145760973665	2.8399999999999985	0.0
C 	30.743901834347568	2.129999999999996	0.0
C 	31.97365790772147	2.8399999999999967	0.0
C 	33.20341398109537	2.129999999999996	0.0
C 	34.43317005446928	2.8399999999999963	0.0
C 	35.66292612784318	2.1299999999999972	0.0
C 	36.89268220121708	2.8399999999999963	0.0
C 	38.122438274590984	2.129999999999997	0.0
C 	39.35219434796489	2.8399999999999976	0.0
C 	40.58195042133879	2.1299999999999986	0.0
C 	41.81170649471269	2.839999999999996	0.0
C 	43.0414625680866	2.129999999999998	0.0
C 	44.2712186414605	2.8399999999999954	0.0
C 	45.5009747148344	2.129999999999998	0.0
C 	46.7307307882083	2.8399999999999954	0.0
C 	47.96048686158221	2.1299999999999977	0.0
C 	49.19024293495611	2.839999999999995	0.0
C 	50.41999900833001	2.1299999999999977	0.0
C 	51.64975508170391	2.8399999999999945	0.0
C 	52.879511155077815	2.1299999999999972	0.0
C 	54.10926722845171	2.8399999999999945	0.0
C 	55.33902330182563	2.130000000000001	0.0
C 	56.56877937519952	2.8399999999999976	0.0
C 	57.798535448573425	2.129999999999997	0.0
C 	59.028291521947324	2.839999999999994	0.0
C 	60.25804759532124	2.129999999999997	0.0
C 	61.487803668695136	2.8399999999999936	0.0
C 	2.4595121467478056	4.259999999999999	0.0
C 	3.689268220121708	4.969999999999999	0.0
C 	4.919024293495611	4.259999999999999	0.0
C 	6.148780366869514	4.969999999999999	0.0
C 	7.378536440243416	4.259999999999999	0.0
C 	8.60829251361732	4.969999999999999	0.0
C 	9.83804858699122	4.259999999999998	0.0
C 	11.067804660365125	4.969999999999999	0.0
C 	12.297560733739028	4.259999999999998	0.0
C 	13.52731680711293	4.969999999999998	0.0
C 	14.757072880486831	4.259999999999998	0.0
C 	15.986828953860735	4.969999999999998	0.0
C 	17.21658502723464	4.259999999999997	0.0
C 	18.446341100608542	4.969999999999998	0.0
C 	19.676097173982445	4.259999999999999	0.0
C 	20.905853247356347	4.969999999999997	0.0
C 	22.135609320730246	4.259999999999996	0.0
C 	23.365365394104153	4.969999999999997	0.0
C 	24.595121467478055	4.259999999999998	0.0
C 	25.824877540851958	4.969999999999997	0.0
C 	27.054633614225857	4.259999999999995	0.0
C 	28.28438968759976	4.969999999999996	0.0
C 	29.514145760973665	4.259999999999997	0.0
C 	30.743901834347568	4.969999999999997	0.0
C 	31.97365790772147	4.259999999999996	0.0
C 	33.20341398109537	4.969999999999995	0.0
C 	34.43317005446927	4.2599999999999945	0.0
C 	35.66292612784318	4.969999999999995	0.0
C 	36.892682201217085	4.259999999999996	0.0
C 	38.122438274590984	4.969999999999997	0.0
C 	39.35219434796489	4.259999999999997	0.0
C 	40.58195042133879	4.969999999999994	0.0
C 	41.81170649471269	4.259999999999995	0.0
C 	43.041462568086594	4.969999999999996	0.0
C 	44.2712186414605	4.259999999999997	0.0
C 	45.500974714834406	4.969999999999998	0.0
C 	46.7307307882083	4.259999999999994	0.0
C 	47.960486861582204	4.9699999999999935	0.0
C 	49.19024293495611	4.259999999999996	0.0
C 	50.41999900833001	4.969999999999997	0.0
C 	51.64975508170391	4.259999999999993	0.0
C 	52.879511155077815	4.9699999999999935	0.0
C 	54.10926722845171	4.259999999999996	0.0
C 	55.33902330182562	4.969999999999997	0.0
C 	56.568779375199526	4.259999999999996	0.0
C 	57.798535448573425	4.969999999999996	0.0
C 	59.028291521947324	4.259999999999995	0.0
C 	60.25804759532123	4.969999999999996	0.0
C 	61.487803668695136	4.259999999999992	0.0
C 	62.717559742069035	4.969999999999993	0.0
C 	3.6892682201217086	6.389999999999999	0.0
C 	4.919024293495611	7.099999999999999	0.0
C 	6.148780366869514	6.389999999999999	0.0
C 	7.378536440243416	7.099999999999999	0.0
C 	8.608292513617318	6.389999999999998	0.0
C 	9.838048586991222	7.099999999999999	0.0
C 	11.067804660365125	6.389999999999998	0.0
C 	12.297560733739028	7.099999999999998	0.0
C 	13.52731680711293	6.389999999999999	0.0
C 	14.757072880486833	7.099999999999998	0.0
C 	15.986828953860735	6.389999999999998	0.0
C 	17.216585027234636	7.099999999999997	0.0
C 	18.44634110060854	6.389999999999997	0.0
C 	19.676097173982445	7.099999999999998	0.0
C 	20.905853247356347	6.389999999999998	0.0
C 	22.13560932073025	7.099999999999997	0.0
C 	23.365365394104153	6.389999999999998	0.0
C 	24.59512146747805	7.099999999999997	0.0
C 	25.824877540851958	6.389999999999998	0.0
C 	27.054633614225857	7.099999999999997	0.0
C 	28.28438968759976	6.389999999999999	0.0
C 	29.514145760973662	7.099999999999997	0.0
C 	30.743901834347568	6.389999999999999	0.0
C 	31.97365790772147	7.099999999999998	0.0
C 	33.20341398109537	6.389999999999995	0.0
C 	34.43317005446928	7.099999999999994	0.0
C 	35.66292612784318	6.389999999999995	0.0
C 	36.892682201217085	7.099999999999996	0.0
C 	38.122438274590984	6.389999999999996	0.0
C 	39.35219434796489	7.099999999999997	0.0
C 	40.58195042133879	6.389999999999994	0.0
C 	41.811706494712695	7.099999999999995	0.0
C 	43.041462568086594	6.389999999999996	0.0
C 	44.2712186414605	7.099999999999997	0.0
C 	45.500974714834406	6.389999999999998	0.0
C 	46.730730788208305	7.099999999999998	0.0
C 	47.960486861582204	6.389999999999995	0.0
C 	49.19024293495611	7.099999999999996	0.0
C 	50.41999900833001	6.389999999999995	0.0
C 	51.649755081703915	7.099999999999996	0.0
C 	52.879511155077815	6.389999999999995	0.0
C 	54.10926722845172	7.099999999999996	0.0
C 	55.33902330182562	6.389999999999995	0.0
C 	56.568779375199526	7.099999999999995	0.0
C 	57.79853544857343	6.389999999999998	0.0
C 	59.02829152194733	7.099999999999999	0.0
C 	60.25804759532123	6.389999999999994	0.0
C 	61.487803668695136	7.099999999999995	0.0
C 	62.71755974206904	6.389999999999994	0.0
C 	63.94731581544294	7.099999999999995	0.0
C 	4.919024293495611	8.519999999999998	0.0
C 	6.148780366869514	9.229999999999999	0.0
C 	7.378536440243416	8.519999999999998	0.0
C 	8.60829251361732	9.229999999999999	0.0
C 	9.838048586991222	8.519999999999998	0.0
C 	11.067804660365125	9.229999999999999	0.0
C 	12.297560733739028	8.519999999999998	0.0
C 	13.52731680711293	9.229999999999997	0.0
C 	14.757072880486833	8.519999999999998	0.0
C 	15.986828953860737	9.229999999999999	0.0
C 	17.216585027234636	8.519999999999998	0.0
C 	18.44634110060854	9.229999999999997	0.0
C 	19.67609717398244	8.519999999999996	0.0
C 	20.905853247356347	9.229999999999997	0.0
C 	22.13560932073025	8.519999999999998	0.0
C 	23.365365394104153	9.229999999999999	0.0
C 	24.595121467478055	8.519999999999996	0.0
C 	25.824877540851954	9.229999999999995	0.0
C 	27.05463361422586	8.519999999999996	0.0
C 	28.284389687599763	9.229999999999997	0.0
C 	29.514145760973662	8.519999999999996	0.0
C 	30.743901834347565	9.229999999999995	0.0
C 	31.97365790772147	8.52	0.0
C 	33.20341398109537	9.229999999999997	0.0
C 	34.43317005446928	8.519999999999994	0.0
C 	35.66292612784318	9.229999999999995	0.0
C 	36.89268220121708	8.519999999999992	0.0
C 	38.122438274590984	9.229999999999993	0.0
C 	39.35219434796489	8.519999999999998	0.0
C 	40.58195042133879	9.229999999999995	0.0
C 	41.811706494712695	8.519999999999994	0.0
C 	43.0414625680866	9.229999999999995	0.0
C 	44.27121864146049	8.519999999999992	0.0
C 	45.5009747148344	9.229999999999993	0.0
C 	46.730730788208305	8.519999999999998	0.0
C 	47.960486861582204	9.229999999999995	0.0
C 	49.19024293495611	8.519999999999996	0.0
C 	50.41999900833001	9.229999999999993	0.0
C 	51.64975508170391	8.519999999999994	0.0
C 	52.879511155077815	9.229999999999995	0.0
C 	54.10926722845171	8.51999999999999	0.0
C 	55.33902330182562	9.229999999999992	0.0
C 	56.568779375199526	8.519999999999998	0.0
C 	57.798535448573425	9.229999999999995	0.0
C 	59.02829152194733	8.519999999999994	0.0
C 	60.25804759532123	9.229999999999993	0.0
C 	61.48780366869513	8.519999999999992	0.0
C 	62.717559742069035	9.229999999999993	0.0
C 	63.94731581544294	8.519999999999992	0.0
C 	65.17707188881684	9.22999999999999	0.0
C 	6.148780366869514	10.649999999999997	0.0
C 	7.378536440243416	11.359999999999998	0.0
C 	8.608292513617318	10.649999999999997	0.0
C 	9.838048586991222	11.359999999999998	0.0
C 	11.067804660365125	10.649999999999997	0.0
C 	12.297560733739028	11.359999999999996	0.0
C 	13.52731680711293	10.649999999999997	0.0
C 	14.757072880486831	11.359999999999996	0.0
C 	15.986828953860735	10.649999999999997	0.0
C 	17.216585027234636	11.359999999999996	0.0
C 	18.44634110060854	10.649999999999997	0.0
C 	19.676097173982445	11.359999999999998	0.0
C 	20.905853247356347	10.649999999999997	0.0
C 	22.13560932073025	11.359999999999996	0.0
C 	23.365365394104153	10.649999999999997	0.0
C 	24.595121467478055	11.359999999999996	0.0
C 	25.824877540851958	10.649999999999997	0.0
C 	27.05463361422586	11.359999999999996	0.0
C 	28.284389687599763	10.649999999999995	0.0
C 	29.514145760973662	11.359999999999994	0.0
C 	30.743901834347565	10.649999999999995	0.0
C 	31.97365790772147	11.359999999999996	0.0
C 	33.20341398109537	10.649999999999997	0.0
C 	34.43317005446928	11.359999999999998	0.0
C 	35.66292612784318	10.649999999999991	0.0
C 	36.89268220121708	11.359999999999992	0.0
C 	38.122438274590984	10.649999999999993	0.0
C 	39.35219434796489	11.359999999999994	0.0
C 	40.58195042133879	10.649999999999993	0.0
C 	41.811706494712695	11.359999999999994	0.0
C 	43.041462568086594	10.649999999999991	0.0
C 	44.2712186414605	11.359999999999992	0.0
C 	45.5009747148344	10.649999999999993	0.0
C 	46.730730788208305	11.359999999999994	0.0
C 	47.960486861582204	10.649999999999995	0.0
C 	49.19024293495611	11.359999999999996	0.0
C 	50.41999900833001	10.649999999999993	0.0
C 	51.649755081703915	11.359999999999994	0.0
C 	52.879511155077815	10.649999999999995	0.0
C 	54.10926722845172	11.359999999999996	0.0
C 	55.33902330182562	10.649999999999993	0.0
C 	56.568779375199526	11.359999999999994	0.0
C 	57.798535448573425	10.649999999999993	0.0
C 	59.02829152194733	11.359999999999992	0.0
C 	60.25804759532124	10.649999999999995	0.0
C 	61.487803668695136	11.359999999999996	0.0
C 	62.717559742069035	10.649999999999991	0.0
C 	63.94731581544294	11.359999999999992	0.0
C 	65.17707188881684	10.649999999999991	0.0
C 	66.40682796219075	11.359999999999992	0.0
C 	7.378536440243417	12.779999999999998	0.0
C 	8.60829251361732	13.489999999999998	0.0
C 	9.838048586991222	12.78	0.0
C 	11.067804660365125	13.489999999999997	0.0
C 	12.297560733739028	12.779999999999998	0.0
C 	13.527316807112932	13.489999999999998	0.0
C 	14.757072880486833	12.779999999999998	0.0
C 	15.986828953860737	13.489999999999997	0.0
C 	17.216585027234636	12.779999999999996	0.0
C 	18.446341100608542	13.489999999999997	0.0
C 	19.676097173982445	12.779999999999998	0.0
C 	20.905853247356347	13.489999999999997	0.0
C 	22.13560932073025	12.779999999999996	0.0
C 	23.36536539410415	13.489999999999995	0.0
C 	24.595121467478055	12.779999999999996	0.0
C 	25.824877540851958	13.489999999999997	0.0
C 	27.05463361422586	12.779999999999998	0.0
C 	28.284389687599763	13.489999999999997	0.0
C 	29.514145760973662	12.779999999999996	0.0
C 	30.743901834347568	13.489999999999997	0.0
C 	31.97365790772147	12.779999999999996	0.0
C 	33.20341398109537	13.489999999999997	0.0
C 	34.43317005446928	12.779999999999998	0.0
C 	35.66292612784318	13.489999999999995	0.0
C 	36.89268220121708	12.779999999999994	0.0
C 	38.122438274590984	13.489999999999995	0.0
C 	39.35219434796489	12.779999999999996	0.0
C 	40.581950421338796	13.489999999999997	0.0
C 	41.811706494712695	12.779999999999996	0.0
C 	43.041462568086594	13.489999999999993	0.0
C 	44.2712186414605	12.779999999999994	0.0
C 	45.5009747148344	13.489999999999995	0.0
C 	46.730730788208305	12.779999999999996	0.0
C 	47.96048686158221	13.489999999999997	0.0
C 	49.19024293495611	12.779999999999998	0.0
C 	50.41999900833001	13.489999999999995	0.0
C 	51.649755081703915	12.779999999999996	0.0
C 	52.879511155077815	13.489999999999993	0.0
C 	54.10926722845172	12.779999999999998	0.0
C 	55.33902330182563	13.489999999999998	0.0
C 	56.56877937519952	12.779999999999998	0.0
C 	57.798535448573425	13.489999999999997	0.0
C 	59.02829152194733	12.779999999999994	0.0
C 	60.25804759532123	13.489999999999991	0.0
C 	61.487803668695136	12.779999999999998	0.0
C 	62.71755974206904	13.489999999999998	0.0
C 	63.94731581544294	12.779999999999994	0.0
C 	65.17707188881684	13.489999999999995	0.0
C 	66.40682796219075	12.77999999999999	0.0
C 	67.63658403556465	13.489999999999988	0.0
C 	8.60829251361732	14.909999999999998	0.0
C 	9.838048586991222	15.619999999999996	0.0
C 	11.067804660365125	14.909999999999997	0.0
C 	12.297560733739026	15.619999999999996	0.0
C 	13.527316807112934	14.909999999999998	0.0
C 	14.757072880486831	15.619999999999996	0.0
C 	15.986828953860737	14.909999999999998	0.0
C 	17.21658502723464	15.619999999999997	0.0
C 	18.446341100608542	14.909999999999997	0.0
C 	19.676097173982445	15.619999999999996	0.0
C 	20.905853247356347	14.909999999999997	0.0
C 	22.135609320730246	15.619999999999996	0.0
C 	23.365365394104153	14.909999999999995	0.0
C 	24.595121467478055	15.619999999999996	0.0
C 	25.824877540851958	14.909999999999997	0.0
C 	27.05463361422586	15.619999999999996	0.0
C 	28.284389687599763	14.909999999999997	0.0
C 	29.514145760973665	15.619999999999996	0.0
C 	30.743901834347568	14.909999999999997	0.0
C 	31.973657907721474	15.619999999999997	0.0
C 	33.203413981095366	14.909999999999993	0.0
C 	34.43317005446927	15.619999999999994	0.0
C 	35.662926127843185	14.909999999999998	0.0
C 	36.892682201217085	15.619999999999996	0.0
C 	38.122438274590984	14.909999999999995	0.0
C 	39.35219434796489	15.619999999999996	0.0
C 	40.58195042133879	14.909999999999993	0.0
C 	41.811706494712695	15.619999999999994	0.0
C 	43.0414625680866	14.909999999999998	0.0
C 	44.2712186414605	15.619999999999996	0.0
C 	45.5009747148344	14.909999999999995	0.0
C 	46.730730788208305	15.619999999999996	0.0
C 	47.960486861582204	14.909999999999993	0.0
C 	49.19024293495611	15.619999999999994	0.0
C 	50.41999900833002	14.909999999999998	0.0
C 	51.649755081703915	15.619999999999996	0.0
C 	52.87951115507782	14.909999999999997	0.0
C 	54.10926722845171	15.619999999999994	0.0
C 	55.33902330182562	14.909999999999995	0.0
C 	56.568779375199526	15.619999999999994	0.0
C 	57.798535448573425	14.909999999999991	0.0
C 	59.028291521947324	15.619999999999992	0.0
C 	60.25804759532124	14.909999999999998	0.0
C 	61.487803668695136	15.619999999999996	0.0
C 	62.717559742069035	14.909999999999993	0.0
C 	63.94731581544294	15.619999999999994	0.0
C 	65.17707188881684	14.909999999999993	0.0
C 	66.40682796219075	15.619999999999994	0.0
C 	67.63658403556465	14.909999999999997	0.0
C 	68.86634010893854	15.61999999999999	0.0
C 	9.838048586991222	17.039999999999996	0.0
C 	11.067804660365127	17.749999999999996	0.0
C 	12.297560733739028	17.039999999999996	0.0
C 	13.527316807112932	17.749999999999996	0.0
C 	14.757072880486833	17.039999999999996	0.0
C 	15.986828953860735	17.749999999999996	0.0
C 	17.21658502723464	17.039999999999996	0.0
C 	18.446341100608546	17.749999999999996	0.0
C 	19.676097173982445	17.039999999999996	0.0
C 	20.905853247356347	17.749999999999996	0.0
C 	22.13560932073025	17.039999999999996	0.0
C 	23.365365394104153	17.749999999999996	0.0
C 	24.595121467478055	17.039999999999996	0.0
C 	25.82487754085196	17.749999999999996	0.0
C 	27.05463361422586	17.039999999999996	0.0
C 	28.28438968759977	17.75	0.0
C 	29.514145760973665	17.039999999999996	0.0
C 	30.74390183434757	17.749999999999996	0.0
C 	31.973657907721467	17.039999999999992	0.0
C 	33.20341398109537	17.749999999999993	0.0
C 	34.43317005446927	17.039999999999996	0.0
C 	35.66292612784318	17.749999999999996	0.0
C 	36.892682201217085	17.039999999999996	0.0
C 	38.122438274590984	17.749999999999996	0.0
C 	39.35219434796488	17.039999999999992	0.0
C 	40.58195042133879	17.749999999999993	0.0
C 	41.811706494712695	17.039999999999992	0.0
C 	43.041462568086594	17.749999999999993	0.0
C 	44.2712186414605	17.039999999999996	0.0
C 	45.500974714834406	17.749999999999996	0.0
C 	46.7307307882083	17.039999999999992	0.0
C 	47.960486861582204	17.749999999999993	0.0
C 	49.19024293495611	17.039999999999992	0.0
C 	50.41999900833002	17.749999999999993	0.0
C 	51.649755081703915	17.039999999999996	0.0
C 	52.87951115507782	17.749999999999996	0.0
C 	54.10926722845172	17.039999999999992	0.0
C 	55.33902330182562	17.749999999999993	0.0
C 	56.568779375199526	17.039999999999996	0.0
C 	57.79853544857343	17.749999999999996	0.0
C 	59.028291521947324	17.039999999999992	0.0
C 	60.25804759532123	17.749999999999993	0.0
C 	61.487803668695136	17.039999999999996	0.0
C 	62.71755974206904	17.749999999999996	0.0
C 	63.94731581544294	17.04	0.0
C 	65.17707188881684	17.749999999999993	0.0
C 	66.40682796219075	17.039999999999996	0.0
C 	67.63658403556464	17.74999999999999	0.0
C 	68.86634010893856	17.03999999999999	0.0
C 	70.09609618231246	17.74999999999999	0.0
C 	11.067804660365125	19.169999999999995	0.0
C 	12.297560733739026	19.879999999999995	0.0
C 	13.52731680711293	19.169999999999995	0.0
C 	14.757072880486831	19.879999999999995	0.0
C 	15.986828953860737	19.169999999999998	0.0
C 	17.216585027234636	19.879999999999992	0.0
C 	18.446341100608542	19.169999999999995	0.0
C 	19.676097173982445	19.879999999999995	0.0
C 	20.905853247356347	19.169999999999995	0.0
C 	22.135609320730246	19.879999999999995	0.0
C 	23.365365394104153	19.169999999999995	0.0
C 	24.59512146747805	19.879999999999995	0.0
C 	25.824877540851958	19.169999999999995	0.0
C 	27.05463361422586	19.879999999999995	0.0
C 	28.284389687599763	19.169999999999995	0.0
C 	29.51414576097367	19.879999999999995	0.0
C 	30.743901834347565	19.16999999999999	0.0
C 	31.97365790772147	19.879999999999992	0.0
C 	33.20341398109537	19.169999999999995	0.0
C 	34.43317005446927	19.879999999999992	0.0
C 	35.66292612784318	19.169999999999995	0.0
C 	36.89268220121708	19.879999999999992	0.0
C 	38.122438274590984	19.169999999999995	0.0
C 	39.35219434796488	19.879999999999992	0.0
C 	40.58195042133879	19.16999999999999	0.0
C 	41.81170649471269	19.87999999999999	0.0
C 	43.0414625680866	19.169999999999995	0.0
C 	44.27121864146049	19.879999999999992	0.0
C 	45.5009747148344	19.16999999999999	0.0
C 	46.730730788208305	19.879999999999992	0.0
C 	47.960486861582204	19.169999999999995	0.0
C 	49.1902429349561	19.879999999999992	0.0
C 	50.41999900833002	19.169999999999995	0.0
C 	51.649755081703915	19.879999999999992	0.0
C 	52.879511155077815	19.16999999999999	0.0
C 	54.10926722845172	19.879999999999992	0.0
C 	55.33902330182562	19.16999999999999	0.0
C 	56.56877937519952	19.879999999999992	0.0
C 	57.79853544857343	19.169999999999995	0.0
C 	59.02829152194733	19.879999999999992	0.0
C 	60.25804759532123	19.169999999999995	0.0
C 	61.48780366869513	19.879999999999992	0.0
C 	62.717559742069035	19.16999999999999	0.0
C 	63.94731581544294	19.879999999999992	0.0
C 	65.17707188881684	19.169999999999995	0.0
C 	66.40682796219075	19.87999999999999	0.0
C 	67.63658403556465	19.169999999999995	0.0
C 	68.86634010893854	19.87999999999999	0.0
C 	70.09609618231245	19.16999999999999	0.0
C 	71.32585225568636	19.879999999999992	0.0
C 	12.297560733739028	21.299999999999994	0.0
C 	13.527316807112932	22.009999999999994	0.0
C 	14.757072880486831	21.299999999999994	0.0
C 	15.986828953860735	22.009999999999994	0.0
C 	17.216585027234636	21.299999999999994	0.0
C 	18.44634110060854	22.009999999999994	0.0
C 	19.676097173982445	21.299999999999994	0.0
C 	20.905853247356347	22.009999999999994	0.0
C 	22.13560932073025	21.299999999999994	0.0
C 	23.365365394104153	22.009999999999994	0.0
C 	24.595121467478055	21.299999999999994	0.0
C 	25.824877540851958	22.009999999999994	0.0
C 	27.05463361422586	21.299999999999994	0.0
C 	28.284389687599766	22.009999999999994	0.0
C 	29.514145760973662	21.29999999999999	0.0
C 	30.743901834347568	22.00999999999999	0.0
C 	31.97365790772147	21.299999999999994	0.0
C 	33.20341398109537	22.009999999999994	0.0
C 	34.43317005446928	21.299999999999994	0.0
C 	35.662926127843185	22.009999999999994	0.0
C 	36.89268220121708	21.299999999999994	0.0
C 	38.122438274590984	22.009999999999994	0.0
C 	39.35219434796489	21.299999999999994	0.0
C 	40.58195042133879	22.009999999999994	0.0
C 	41.811706494712695	21.299999999999994	0.0
C 	43.0414625680866	22.009999999999994	0.0
C 	44.2712186414605	21.29999999999999	0.0
C 	45.5009747148344	22.00999999999999	0.0
C 	46.730730788208305	21.299999999999994	0.0
C 	47.96048686158221	22.009999999999994	0.0
C 	49.19024293495611	21.299999999999994	0.0
C 	50.41999900833002	22.009999999999994	0.0
C 	51.649755081703915	21.299999999999994	0.0
C 	52.879511155077815	22.00999999999999	0.0
C 	54.10926722845172	21.299999999999994	0.0
C 	55.33902330182563	22.009999999999994	0.0
C 	56.568779375199526	21.29999999999999	0.0
C 	57.798535448573425	22.00999999999999	0.0
C 	59.02829152194733	21.299999999999994	0.0
C 	60.25804759532124	22.009999999999994	0.0
C 	61.48780366869513	21.29999999999999	0.0
C 	62.717559742069035	22.00999999999999	0.0
C 	63.94731581544294	21.299999999999994	0.0
C 	65.17707188881684	22.009999999999987	0.0
C 	66.40682796219075	21.299999999999994	0.0
C 	67.63658403556465	22.009999999999994	0.0
C 	68.86634010893854	21.29999999999999	0.0
C 	70.09609618231245	22.00999999999999	0.0
C 	71.32585225568636	21.299999999999983	0.0
C 	72.55560832906026	22.00999999999999	0.0
C 	13.527316807112932	23.429999999999996	0.0
C 	14.757072880486836	24.139999999999997	0.0
C 	15.986828953860737	23.429999999999996	0.0
C 	17.216585027234643	24.139999999999997	0.0
C 	18.446341100608542	23.429999999999996	0.0
C 	19.676097173982445	24.139999999999997	0.0
C 	20.90585324735635	23.429999999999996	0.0
C 	22.135609320730254	24.139999999999997	0.0
C 	23.365365394104156	23.429999999999993	0.0
C 	24.595121467478062	24.139999999999997	0.0
C 	25.824877540851958	23.429999999999993	0.0
C 	27.054633614225864	24.139999999999993	0.0
C 	28.284389687599766	23.429999999999996	0.0
C 	29.514145760973673	24.139999999999997	0.0
C 	30.743901834347575	23.429999999999996	0.0
C 	31.973657907721478	24.139999999999997	0.0
C 	33.20341398109537	23.429999999999993	0.0
C 	34.43317005446928	24.139999999999993	0.0
C 	35.66292612784318	23.429999999999993	0.0
C 	36.892682201217085	24.139999999999993	0.0
C 	38.122438274590984	23.429999999999993	0.0
C 	39.35219434796489	24.139999999999993	0.0
C 	40.58195042133879	23.429999999999996	0.0
C 	41.811706494712695	24.139999999999993	0.0
C 	43.041462568086594	23.42999999999999	0.0
C 	44.2712186414605	24.13999999999999	0.0
C 	45.5009747148344	23.429999999999993	0.0
C 	46.730730788208305	24.139999999999993	0.0
C 	47.96048686158221	23.429999999999993	0.0
C 	49.19024293495611	24.139999999999993	0.0
C 	50.41999900833001	23.429999999999993	0.0
C 	51.649755081703915	24.13999999999999	0.0
C 	52.87951115507782	23.429999999999993	0.0
C 	54.10926722845172	24.139999999999993	0.0
C 	55.33902330182563	23.429999999999993	0.0
C 	56.56877937519953	24.139999999999993	0.0
C 	57.798535448573425	23.429999999999993	0.0
C 	59.02829152194733	24.139999999999993	0.0
C 	60.25804759532124	23.429999999999993	0.0
C 	61.487803668695136	24.13999999999999	0.0
C 	62.71755974206904	23.429999999999993	0.0
C 	63.947315815442934	24.139999999999986	0.0
C 	65.17707188881684	23.429999999999993	0.0
C 	66.40682796219075	24.139999999999993	0.0
C 	67.63658403556464	23.42999999999999	0.0
C 	68.86634010893856	24.139999999999997	0.0
C 	70.09609618231245	23.42999999999999	0.0
C 	71.32585225568636	24.139999999999997	0.0
C 	72.55560832906026	23.42999999999999	0.0
C 	73.78536440243417	24.13999999999999	0.0
C 	14.757072880486835	25.559999999999995	0.0
C 	15.986828953860735	26.269999999999996	0.0
C 	17.21658502723464	25.559999999999995	0.0
C 	18.44634110060854	26.269999999999996	0.0
C 	19.676097173982445	25.56	0.0
C 	20.905853247356344	26.269999999999996	0.0
C 	22.13560932073025	25.56	0.0
C 	23.365365394104153	26.269999999999996	0.0
C 	24.595121467478055	25.559999999999995	0.0
C 	25.824877540851958	26.269999999999996	0.0
C 	27.054633614225857	25.559999999999995	0.0
C 	28.28438968759976	26.269999999999996	0.0
C 	29.514145760973665	25.559999999999995	0.0
C 	30.743901834347568	26.269999999999996	0.0
C 	31.973657907721474	25.559999999999995	0.0
C 	33.20341398109538	26.269999999999996	0.0
C 	34.43317005446927	25.55999999999999	0.0
C 	35.66292612784318	26.269999999999992	0.0
C 	36.892682201217085	25.559999999999995	0.0
C 	38.12243827459098	26.269999999999992	0.0
C 	39.35219434796489	25.559999999999995	0.0
C 	40.58195042133879	26.269999999999992	0.0
C 	41.81170649471269	25.55999999999999	0.0
C 	43.041462568086594	26.269999999999992	0.0
C 	44.2712186414605	25.55999999999999	0.0
C 	45.5009747148344	26.26999999999999	0.0
C 	46.730730788208305	25.559999999999995	0.0
C 	47.960486861582204	26.269999999999992	0.0
C 	49.19024293495611	25.55999999999999	0.0
C 	50.41999900833001	26.269999999999992	0.0
C 	51.649755081703915	25.559999999999995	0.0
C 	52.879511155077815	26.269999999999992	0.0
C 	54.10926722845172	25.559999999999995	0.0
C 	55.33902330182562	26.269999999999992	0.0
C 	56.568779375199526	25.55999999999999	0.0
C 	57.79853544857343	26.269999999999992	0.0
C 	59.028291521947324	25.55999999999999	0.0
C 	60.25804759532123	26.269999999999992	0.0
C 	61.487803668695136	25.559999999999995	0.0
C 	62.717559742069035	26.26999999999999	0.0
C 	63.94731581544294	25.55999999999999	0.0
C 	65.17707188881683	26.269999999999985	0.0
C 	66.40682796219075	25.55999999999999	0.0
C 	67.63658403556465	26.269999999999992	0.0
C 	68.86634010893856	25.559999999999995	0.0
C 	70.09609618231246	26.269999999999996	0.0
C 	71.32585225568636	25.559999999999995	0.0
C 	72.55560832906026	26.269999999999996	0.0
C 	73.78536440243415	25.559999999999988	0.0
C 	75.01512047580806	26.26999999999999	0.0
C 	15.986828953860735	27.689999999999994	0.0
C 	17.21658502723464	28.399999999999995	0.0
C 	18.446341100608542	27.689999999999994	0.0
C 	19.676097173982445	28.399999999999995	0.0
C 	20.905853247356344	27.689999999999994	0.0
C 	22.13560932073025	28.399999999999995	0.0
C 	23.365365394104153	27.689999999999994	0.0
C 	24.59512146747806	28.399999999999995	0.0
C 	25.824877540851954	27.689999999999994	0.0
C 	27.054633614225857	28.399999999999995	0.0
C 	28.284389687599763	27.689999999999994	0.0
C 	29.514145760973665	28.399999999999995	0.0
C 	30.74390183434757	27.689999999999994	0.0
C 	31.973657907721474	28.399999999999995	0.0
C 	33.20341398109537	27.68999999999999	0.0
C 	34.43317005446928	28.39999999999999	0.0
C 	35.66292612784318	27.689999999999994	0.0
C 	36.892682201217085	28.399999999999995	0.0
C 	38.122438274590984	27.689999999999994	0.0
C 	39.35219434796489	28.399999999999995	0.0
C 	40.58195042133879	27.689999999999994	0.0
C 	41.811706494712695	28.399999999999995	0.0
C 	43.041462568086594	27.689999999999994	0.0
C 	44.2712186414605	28.399999999999995	0.0
C 	45.500974714834406	27.689999999999994	0.0
C 	46.730730788208305	28.399999999999995	0.0
C 	47.960486861582204	27.68999999999999	0.0
C 	49.19024293495611	28.39999999999999	0.0
C 	50.41999900833002	27.689999999999994	0.0
C 	51.649755081703915	28.399999999999995	0.0
C 	52.87951115507782	27.689999999999994	0.0
C 	54.10926722845173	28.399999999999995	0.0
C 	55.33902330182562	27.68999999999999	0.0
C 	56.568779375199526	28.39999999999999	0.0
C 	57.79853544857343	27.689999999999994	0.0
C 	59.02829152194733	28.39999999999999	0.0
C 	60.25804759532124	27.689999999999994	0.0
C 	61.48780366869513	28.399999999999988	0.0
C 	62.717559742069035	27.689999999999994	0.0
C 	63.94731581544294	28.399999999999995	0.0
C 	65.17707188881684	27.68999999999999	0.0
C 	66.40682796219075	28.39999999999999	0.0
C 	67.63658403556464	27.689999999999987	0.0
C 	68.86634010893856	28.399999999999995	0.0
C 	70.09609618231245	27.689999999999994	0.0
C 	71.32585225568636	28.399999999999995	0.0
C 	72.55560832906026	27.68999999999999	0.0
C 	73.78536440243415	28.39999999999999	0.0
C 	75.01512047580808	27.689999999999994	0.0
C 	76.24487654918197	28.399999999999984	0.0
C 	17.21658502723464	29.819999999999997	0.0
C 	18.446341100608546	30.529999999999998	0.0
C 	19.676097173982445	29.819999999999997	0.0
C 	20.905853247356355	30.529999999999998	0.0
C 	22.13560932073025	29.819999999999993	0.0
C 	23.365365394104156	30.529999999999994	0.0
C 	24.59512146747806	29.819999999999997	0.0
C 	25.82487754085196	30.529999999999998	0.0
C 	27.054633614225867	29.819999999999997	0.0
C 	28.28438968759977	30.529999999999998	0.0
C 	29.514145760973665	29.819999999999997	0.0
C 	30.74390183434757	30.529999999999998	0.0
C 	31.973657907721474	29.819999999999997	0.0
C 	33.20341398109538	30.529999999999998	0.0
C 	34.43317005446928	29.819999999999997	0.0
C 	35.662926127843185	30.529999999999998	0.0
C 	36.892682201217085	29.819999999999993	0.0
C 	38.12243827459099	30.529999999999994	0.0
C 	39.35219434796488	29.819999999999993	0.0
C 	40.58195042133879	30.529999999999994	0.0
C 	41.811706494712695	29.819999999999993	0.0
C 	43.0414625680866	30.529999999999994	0.0
C 	44.2712186414605	29.819999999999993	0.0
C 	45.500974714834406	30.529999999999994	0.0
C 	46.730730788208305	29.81999999999999	0.0
C 	47.960486861582204	30.52999999999999	0.0
C 	49.19024293495611	29.819999999999993	0.0
C 	50.41999900833002	30.529999999999994	0.0
C 	51.649755081703915	29.819999999999993	0.0
C 	52.87951115507782	30.529999999999994	0.0
C 	54.10926722845172	29.819999999999993	0.0
C 	55.33902330182563	30.52999999999999	0.0
C 	56.568779375199526	29.819999999999993	0.0
C 	57.798535448573425	30.52999999999999	0.0
C 	59.02829152194734	29.819999999999993	0.0
C 	60.25804759532124	30.529999999999994	0.0
C 	61.487803668695136	29.819999999999993	0.0
C 	62.71755974206904	30.529999999999994	0.0
C 	63.947315815442934	29.81999999999999	0.0
C 	65.17707188881685	30.529999999999998	0.0
C 	66.40682796219073	29.819999999999986	0.0
C 	67.63658403556465	30.529999999999994	0.0
C 	68.86634010893856	29.819999999999993	0.0
C 	70.09609618231245	30.529999999999994	0.0
C 	71.32585225568637	29.819999999999997	0.0
C 	72.55560832906026	30.52999999999999	0.0
C 	73.78536440243417	29.819999999999997	0.0
C 	75.01512047580806	30.529999999999987	0.0
C 	76.24487654918197	29.81999999999999	0.0
C 	77.47463262255587	30.52999999999999	0.0
C 	18.446341100608542	31.949999999999996	0.0
C 	19.676097173982445	32.65999999999999	0.0
C 	20.905853247356347	31.949999999999992	0.0
C 	22.135609320730254	32.66	0.0
C 	23.365365394104156	31.949999999999996	0.0
C 	24.595121467478055	32.65999999999999	0.0
C 	25.824877540851958	31.949999999999992	0.0
C 	27.05463361422586	32.66	0.0
C 	28.284389687599766	31.949999999999996	0.0
C 	29.51414576097367	32.66	0.0
C 	30.743901834347568	31.949999999999992	0.0
C 	31.97365790772147	32.66	0.0
C 	33.20341398109537	31.949999999999992	0.0
C 	34.43317005446928	32.66	0.0
C 	35.66292612784318	31.949999999999996	0.0
C 	36.892682201217085	32.66	0.0
C 	38.122438274590984	31.949999999999992	0.0
C 	39.35219434796489	32.65999999999999	0.0
C 	40.58195042133879	31.949999999999992	0.0
C 	41.81170649471269	32.65999999999999	0.0
C 	43.0414625680866	31.949999999999996	0.0
C 	44.2712186414605	32.65999999999999	0.0
C 	45.5009747148344	31.949999999999992	0.0
C 	46.730730788208305	32.65999999999999	0.0
C 	47.96048686158221	31.949999999999992	0.0
C 	49.1902429349561	32.65999999999999	0.0
C 	50.41999900833002	31.949999999999992	0.0
C 	51.649755081703915	32.65999999999999	0.0
C 	52.879511155077815	31.949999999999992	0.0
C 	54.10926722845172	32.65999999999999	0.0
C 	55.33902330182563	31.949999999999992	0.0
C 	56.568779375199526	32.65999999999999	0.0
C 	57.79853544857343	31.949999999999992	0.0
C 	59.028291521947324	32.65999999999999	0.0
C 	60.25804759532124	31.949999999999992	0.0
C 	61.487803668695136	32.65999999999999	0.0
C 	62.717559742069035	31.94999999999999	0.0
C 	63.94731581544294	32.65999999999999	0.0
C 	65.17707188881685	31.949999999999992	0.0
C 	66.40682796219076	32.66	0.0
C 	67.63658403556465	31.949999999999992	0.0
C 	68.86634010893856	32.65999999999999	0.0
C 	70.09609618231245	31.94999999999999	0.0
C 	71.32585225568636	32.65999999999999	0.0
C 	72.55560832906026	31.949999999999996	0.0
C 	73.78536440243415	32.65999999999999	0.0
C 	75.01512047580806	31.949999999999992	0.0
C 	76.24487654918195	32.65999999999998	0.0
C 	77.47463262255587	31.949999999999985	0.0
C 	78.70438869592978	32.65999999999999	0.0
C 	19.676097173982445	34.07999999999999	0.0
C 	20.90585324735635	34.78999999999999	0.0
C 	22.135609320730254	34.07999999999999	0.0
C 	23.365365394104156	34.78999999999999	0.0
C 	24.595121467478055	34.07999999999999	0.0
C 	25.824877540851958	34.78999999999999	0.0
C 	27.054633614225864	34.07999999999999	0.0
C 	28.284389687599766	34.78999999999999	0.0
C 	29.514145760973665	34.07999999999999	0.0
C 	30.743901834347568	34.78999999999999	0.0
C 	31.97365790772147	34.07999999999999	0.0
C 	33.20341398109537	34.78999999999999	0.0
C 	34.43317005446928	34.07999999999999	0.0
C 	35.662926127843185	34.78999999999999	0.0
C 	36.89268220121708	34.07999999999999	0.0
C 	38.122438274590984	34.78999999999999	0.0
C 	39.35219434796489	34.07999999999999	0.0
C 	40.581950421338796	34.78999999999999	0.0
C 	41.811706494712695	34.07999999999999	0.0
C 	43.0414625680866	34.78999999999999	0.0
C 	44.2712186414605	34.07999999999999	0.0
C 	45.5009747148344	34.78999999999999	0.0
C 	46.730730788208305	34.07999999999999	0.0
C 	47.96048686158221	34.78999999999999	0.0
C 	49.19024293495611	34.07999999999999	0.0
C 	50.41999900833002	34.78999999999999	0.0
C 	51.649755081703915	34.07999999999999	0.0
C 	52.87951115507782	34.78999999999999	0.0
C 	54.10926722845172	34.07999999999999	0.0
C 	55.33902330182562	34.78999999999999	0.0
C 	56.56877937519953	34.07999999999999	0.0
C 	57.79853544857343	34.78999999999999	0.0
C 	59.02829152194733	34.07999999999999	0.0
C 	60.25804759532124	34.78999999999999	0.0
C 	61.487803668695136	34.07999999999999	0.0
C 	62.71755974206905	34.79	0.0
C 	63.947315815442934	34.079999999999984	0.0
C 	65.17707188881685	34.78999999999999	0.0
C 	66.40682796219075	34.07999999999999	0.0
C 	67.63658403556465	34.78999999999999	0.0
C 	68.86634010893854	34.07999999999999	0.0
C 	70.09609618231245	34.78999999999999	0.0
C 	71.32585225568636	34.07999999999999	0.0
C 	72.55560832906025	34.789999999999985	0.0
C 	73.78536440243417	34.07999999999999	0.0
C 	75.01512047580808	34.78999999999999	0.0
C 	76.24487654918197	34.07999999999999	0.0
C 	77.47463262255587	34.78999999999999	0.0
C 	78.70438869592977	34.079999999999984	0.0
C 	79.93414476930369	34.78999999999999	0.0
C 	20.90585324735635	36.209999999999994	0.0
C 	22.135609320730254	36.919999999999995	0.0
C 	23.36536539410416	36.209999999999994	0.0
C 	24.595121467478062	36.919999999999995	0.0
C 	25.82487754085196	36.209999999999994	0.0
C 	27.054633614225864	36.919999999999995	0.0
C 	28.284389687599766	36.209999999999994	0.0
C 	29.514145760973673	36.919999999999995	0.0
C 	30.743901834347575	36.209999999999994	0.0
C 	31.973657907721478	36.919999999999995	0.0
C 	33.20341398109537	36.209999999999994	0.0
C 	34.43317005446928	36.919999999999995	0.0
C 	35.662926127843185	36.209999999999994	0.0
C 	36.89268220121709	36.919999999999995	0.0
C 	38.12243827459099	36.209999999999994	0.0
C 	39.3521943479649	36.919999999999995	0.0
C 	40.581950421338796	36.209999999999994	0.0
C 	41.811706494712695	36.919999999999995	0.0
C 	43.041462568086594	36.209999999999994	0.0
C 	44.2712186414605	36.919999999999995	0.0
C 	45.500974714834406	36.209999999999994	0.0
C 	46.730730788208305	36.919999999999995	0.0
C 	47.96048686158221	36.209999999999994	0.0
C 	49.19024293495612	36.919999999999995	0.0
C 	50.41999900833002	36.20999999999999	0.0
C 	51.649755081703915	36.91999999999999	0.0
C 	52.87951115507782	36.209999999999994	0.0
C 	54.10926722845172	36.91999999999999	0.0
C 	55.33902330182563	36.209999999999994	0.0
C 	56.56877937519953	36.919999999999995	0.0
C 	57.79853544857343	36.20999999999999	0.0
C 	59.02829152194733	36.91999999999999	0.0
C 	60.25804759532123	36.20999999999999	0.0
C 	61.48780366869515	36.919999999999995	0.0
C 	62.71755974206904	36.209999999999994	0.0
C 	63.94731581544295	36.919999999999995	0.0
C 	65.17707188881684	36.209999999999994	0.0
C 	66.40682796219075	36.919999999999995	0.0
C 	67.63658403556467	36.209999999999994	0.0
C 	68.86634010893856	36.91999999999999	0.0
C 	70.09609618231246	36.209999999999994	0.0
C 	71.32585225568636	36.91999999999999	0.0
C 	72.55560832906026	36.209999999999994	0.0
C 	73.78536440243417	36.919999999999995	0.0
C 	75.01512047580806	36.20999999999999	0.0
C 	76.24487654918198	36.919999999999995	0.0
C 	77.47463262255586	36.20999999999999	0.0
C 	78.70438869592978	36.919999999999995	0.0
C 	79.93414476930369	36.20999999999999	0.0
C 	81.16390084267759	36.91999999999999	0.0
C 	22.13560932073025	38.33999999999999	0.0
C 	23.365365394104153	39.04999999999999	0.0
C 	24.59512146747806	38.33999999999999	0.0
C 	25.82487754085196	39.04999999999999	0.0
C 	27.05463361422586	38.33999999999999	0.0
C 	28.284389687599763	39.04999999999999	0.0
C 	29.514145760973665	38.33999999999999	0.0
C 	30.74390183434757	39.04999999999999	0.0
C 	31.973657907721474	38.339999999999996	0.0
C 	33.20341398109538	39.04999999999999	0.0
C 	34.43317005446927	38.33999999999999	0.0
C 	35.66292612784318	39.04999999999999	0.0
C 	36.892682201217085	38.33999999999999	0.0
C 	38.12243827459099	39.04999999999999	0.0
C 	39.35219434796489	38.33999999999999	0.0
C 	40.581950421338796	39.04999999999999	0.0
C 	41.811706494712695	38.33999999999999	0.0
C 	43.0414625680866	39.04999999999999	0.0
C 	44.27121864146049	38.33999999999999	0.0
C 	45.5009747148344	39.04999999999999	0.0
C 	46.730730788208305	38.33999999999999	0.0
C 	47.960486861582204	39.04999999999999	0.0
C 	49.19024293495611	38.33999999999999	0.0
C 	50.41999900833002	39.04999999999999	0.0
C 	51.649755081703915	38.33999999999999	0.0
C 	52.879511155077815	39.04999999999999	0.0
C 	54.10926722845173	38.33999999999999	0.0
C 	55.33902330182562	39.04999999999998	0.0
C 	56.568779375199526	38.33999999999999	0.0
C 	57.79853544857343	39.04999999999999	0.0
C 	59.02829152194733	38.33999999999999	0.0
C 	60.25804759532123	39.04999999999999	0.0
C 	61.48780366869513	38.33999999999998	0.0
C 	62.71755974206905	39.04999999999999	0.0
C 	63.94731581544294	38.33999999999999	0.0
C 	65.17707188881685	39.04999999999999	0.0
C 	66.40682796219075	38.33999999999999	0.0
C 	67.63658403556465	39.04999999999999	0.0
C 	68.86634010893856	38.33999999999999	0.0
C 	70.09609618231245	39.04999999999998	0.0
C 	71.32585225568636	38.33999999999999	0.0
C 	72.55560832906025	39.04999999999998	0.0
C 	73.78536440243415	38.33999999999999	0.0
C 	75.01512047580806	39.04999999999999	0.0
C 	76.24487654918197	38.33999999999999	0.0
C 	77.47463262255587	39.05	0.0
C 	78.70438869592977	38.33999999999998	0.0
C 	79.93414476930369	39.04999999999999	0.0
C 	81.16390084267758	38.33999999999998	0.0
C 	82.39365691605148	39.04999999999998	0.0
C 	23.365365394104156	40.46999999999999	0.0
C 	24.59512146747806	41.17999999999999	0.0
C 	25.82487754085196	40.46999999999999	0.0
C 	27.054633614225867	41.17999999999999	0.0
C 	28.284389687599763	40.46999999999999	0.0
C 	29.51414576097367	41.17999999999999	0.0
C 	30.74390183434757	40.46999999999999	0.0
C 	31.973657907721474	41.17999999999999	0.0
C 	33.20341398109537	40.46999999999999	0.0
C 	34.43317005446928	41.17999999999999	0.0
C 	35.66292612784318	40.46999999999999	0.0
C 	36.892682201217085	41.17999999999999	0.0
C 	38.12243827459099	40.46999999999999	0.0
C 	39.3521943479649	41.17999999999999	0.0
C 	40.58195042133879	40.46999999999999	0.0
C 	41.811706494712695	41.17999999999999	0.0
C 	43.0414625680866	40.46999999999999	0.0
C 	44.2712186414605	41.17999999999999	0.0
C 	45.500974714834406	40.46999999999999	0.0
C 	46.73073078820831	41.17999999999999	0.0
C 	47.960486861582204	40.46999999999999	0.0
C 	49.19024293495611	41.17999999999999	0.0
C 	50.41999900833002	40.46999999999999	0.0
C 	51.649755081703915	41.179999999999986	0.0
C 	52.87951115507782	40.46999999999999	0.0
C 	54.10926722845173	41.17999999999999	0.0
C 	55.33902330182563	40.46999999999999	0.0
C 	56.568779375199526	41.17999999999999	0.0
C 	57.798535448573425	40.469999999999985	0.0
C 	59.028291521947345	41.17999999999999	0.0
C 	60.25804759532124	40.46999999999999	0.0
C 	61.48780366869514	41.17999999999999	0.0
C 	62.71755974206904	40.46999999999999	0.0
C 	63.94731581544295	41.17999999999999	0.0
C 	65.17707188881685	40.46999999999999	0.0
C 	66.40682796219075	41.179999999999986	0.0
C 	67.63658403556465	40.46999999999999	0.0
C 	68.86634010893854	41.179999999999986	0.0
C 	70.09609618231246	40.46999999999999	0.0
C 	71.32585225568636	41.17999999999999	0.0
C 	72.55560832906026	40.469999999999985	0.0
C 	73.78536440243417	41.179999999999986	0.0
C 	75.01512047580806	40.469999999999985	0.0
C 	76.24487654918198	41.17999999999999	0.0
C 	77.47463262255587	40.46999999999999	0.0
C 	78.70438869592978	41.17999999999999	0.0
C 	79.93414476930367	40.469999999999985	0.0
C 	81.16390084267758	41.179999999999986	0.0
C 	82.3936569160515	40.46999999999999	0.0
C 	83.62341298942539	41.179999999999986	0.0
C 	24.595121467478055	42.59999999999999	0.0
C 	25.82487754085196	43.30999999999999	0.0
C 	27.05463361422586	42.59999999999999	0.0
C 	28.284389687599766	43.30999999999999	0.0
C 	29.514145760973662	42.59999999999999	0.0
C 	30.743901834347568	43.30999999999999	0.0
C 	31.97365790772147	42.59999999999999	0.0
C 	33.20341398109537	43.30999999999999	0.0
C 	34.43317005446927	42.59999999999999	0.0
C 	35.66292612784318	43.30999999999999	0.0
C 	36.89268220121708	42.59999999999999	0.0
C 	38.122438274590984	43.30999999999999	0.0
C 	39.35219434796489	42.59999999999999	0.0
C 	40.581950421338796	43.30999999999999	0.0
C 	41.81170649471269	42.59999999999999	0.0
C 	43.041462568086594	43.30999999999999	0.0
C 	44.2712186414605	42.59999999999999	0.0
C 	45.5009747148344	43.30999999999999	0.0
C 	46.730730788208305	42.59999999999999	0.0
C 	47.96048686158221	43.30999999999999	0.0
C 	49.19024293495611	42.59999999999999	0.0
C 	50.41999900833001	43.30999999999999	0.0
C 	51.64975508170392	42.599999999999994	0.0
C 	52.879511155077815	43.30999999999999	0.0
C 	54.10926722845172	42.59999999999999	0.0
C 	55.33902330182563	43.30999999999999	0.0
C 	56.568779375199526	42.59999999999999	0.0
C 	57.798535448573425	43.30999999999999	0.0
C 	59.028291521947324	42.59999999999998	0.0
C 	60.258047595321244	43.30999999999999	0.0
C 	61.487803668695136	42.59999999999999	0.0
C 	62.71755974206904	43.30999999999999	0.0
C 	63.94731581544294	42.59999999999999	0.0
C 	65.17707188881684	43.30999999999999	0.0
C 	66.40682796219076	42.599999999999994	0.0
C 	67.63658403556465	43.30999999999999	0.0
C 	68.86634010893856	42.59999999999999	0.0
C 	70.09609618231245	43.30999999999998	0.0
C 	71.32585225568636	42.59999999999999	0.0
C 	72.55560832906026	43.30999999999999	0.0
C 	73.78536440243415	42.59999999999999	0.0
C 	75.01512047580806	43.30999999999999	0.0
C 	76.24487654918197	42.59999999999998	0.0
C 	77.47463262255587	43.30999999999999	0.0
C 	78.70438869592978	42.59999999999999	0.0
C 	79.93414476930367	43.30999999999999	0.0
C 	81.16390084267758	42.59999999999999	0.0
C 	82.39365691605148	43.30999999999999	0.0
C 	83.62341298942539	42.59999999999999	0.0
C 	84.85316906279928	43.30999999999998	0.0
C 	25.82487754085196	44.72999999999999	0.0
C 	27.054633614225864	45.43999999999999	0.0
C 	28.284389687599766	44.72999999999999	0.0
C 	29.514145760973673	45.43999999999999	0.0
C 	30.743901834347568	44.72999999999999	0.0
C 	31.97365790772147	45.43999999999999	0.0
C 	33.20341398109537	44.72999999999999	0.0
C 	34.43317005446928	45.43999999999999	0.0
C 	35.662926127843185	44.72999999999999	0.0
C 	36.892682201217085	45.43999999999999	0.0
C 	38.122438274590984	44.72999999999999	0.0
C 	39.35219434796489	45.43999999999999	0.0
C 	40.581950421338796	44.72999999999999	0.0
C 	41.811706494712695	45.43999999999999	0.0
C 	43.0414625680866	44.72999999999999	0.0
C 	44.27121864146051	45.43999999999999	0.0
C 	45.500974714834406	44.72999999999999	0.0
C 	46.730730788208305	45.43999999999999	0.0
C 	47.960486861582204	44.72999999999999	0.0
C 	49.19024293495611	45.43999999999998	0.0
C 	50.41999900833002	44.72999999999999	0.0
C 	51.64975508170391	45.43999999999998	0.0
C 	52.87951115507782	44.72999999999999	0.0
C 	54.10926722845172	45.43999999999999	0.0
C 	55.33902330182562	44.72999999999998	0.0
C 	56.568779375199526	45.43999999999998	0.0
C 	57.798535448573425	44.72999999999998	0.0
C 	59.02829152194734	45.43999999999999	0.0
C 	60.25804759532124	44.72999999999999	0.0
C 	61.48780366869514	45.43999999999999	0.0
C 	62.717559742069035	44.72999999999998	0.0
C 	63.94731581544294	45.43999999999998	0.0
C 	65.17707188881685	44.72999999999999	0.0
C 	66.40682796219075	45.43999999999998	0.0
C 	67.63658403556465	44.72999999999999	0.0
C 	68.86634010893856	45.43999999999999	0.0
C 	70.09609618231245	44.72999999999999	0.0
C 	71.32585225568636	45.43999999999998	0.0
C 	72.55560832906026	44.72999999999998	0.0
C 	73.78536440243417	45.43999999999999	0.0
C 	75.01512047580806	44.72999999999998	0.0
C 	76.24487654918198	45.43999999999999	0.0
C 	77.47463262255587	44.72999999999999	0.0
C 	78.70438869592978	45.43999999999999	0.0
C 	79.93414476930369	44.72999999999999	0.0
C 	81.16390084267758	45.43999999999998	0.0
C 	82.39365691605148	44.72999999999999	0.0
C 	83.62341298942538	45.43999999999998	0.0
C 	84.8531690627993	44.72999999999998	0.0
C 	86.08292513617319	45.43999999999998	0.0
C 	27.054633614225864	46.85999999999999	0.0
C 	28.28438968759977	47.56999999999999	0.0
C 	29.514145760973673	46.85999999999999	0.0
C 	30.74390183434758	47.56999999999999	0.0
C 	31.973657907721474	46.85999999999999	0.0
C 	33.20341398109538	47.56999999999999	0.0
C 	34.43317005446928	46.85999999999999	0.0
C 	35.662926127843185	47.56999999999999	0.0
C 	36.892682201217085	46.85999999999999	0.0
C 	38.122438274590984	47.56999999999999	0.0
C 	39.35219434796489	46.85999999999999	0.0
C 	40.581950421338796	47.56999999999999	0.0
C 	41.8117064947127	46.85999999999999	0.0
C 	43.0414625680866	47.56999999999999	0.0
C 	44.2712186414605	46.85999999999999	0.0
C 	45.500974714834406	47.56999999999999	0.0
C 	46.73073078820831	46.859999999999985	0.0
C 	47.960486861582204	47.569999999999986	0.0
C 	49.19024293495612	46.85999999999999	0.0
C 	50.41999900833002	47.56999999999999	0.0
C 	51.649755081703915	46.859999999999985	0.0
C 	52.87951115507782	47.569999999999986	0.0
C 	54.10926722845172	46.859999999999985	0.0
C 	55.339023301825634	47.56999999999999	0.0
C 	56.56877937519953	46.85999999999999	0.0
C 	57.79853544857344	47.56999999999999	0.0
C 	59.02829152194733	46.859999999999985	0.0
C 	60.25804759532124	47.569999999999986	0.0
C 	61.48780366869515	46.85999999999999	0.0
C 	62.71755974206904	47.569999999999986	0.0
C 	63.94731581544295	46.85999999999999	0.0
C 	65.17707188881685	47.56999999999999	0.0
C 	66.40682796219075	46.859999999999985	0.0
C 	67.63658403556465	47.569999999999986	0.0
C 	68.86634010893856	46.859999999999985	0.0
C 	70.09609618231246	47.56999999999999	0.0
C 	71.32585225568636	46.859999999999985	0.0
C 	72.55560832906028	47.56999999999999	0.0
C 	73.78536440243417	46.859999999999985	0.0
C 	75.01512047580808	47.569999999999986	0.0
C 	76.24487654918197	46.859999999999985	0.0
C 	77.47463262255587	47.569999999999986	0.0
C 	78.70438869592978	46.85999999999999	0.0
C 	79.93414476930367	47.569999999999986	0.0
C 	81.16390084267758	46.85999999999999	0.0
C 	82.39365691605148	47.56999999999999	0.0
C 	83.62341298942539	46.859999999999985	0.0
C 	84.8531690627993	47.569999999999986	0.0
C 	86.08292513617319	46.85999999999998	0.0
C 	87.31268120954711	47.569999999999986	0.0
C 	28.284389687599763	48.98999999999999	0.0
C 	29.51414576097367	49.69999999999999	0.0
C 	30.74390183434757	48.98999999999999	0.0
C 	31.973657907721478	49.69999999999999	0.0
C 	33.20341398109537	48.98999999999999	0.0
C 	34.43317005446928	49.69999999999999	0.0
C 	35.66292612784318	48.98999999999999	0.0
C 	36.892682201217085	49.69999999999999	0.0
C 	38.122438274590984	48.98999999999999	0.0
C 	39.35219434796488	49.69999999999999	0.0
C 	40.58195042133879	48.98999999999999	0.0
C 	41.811706494712695	49.69999999999999	0.0
C 	43.041462568086594	48.98999999999999	0.0
C 	44.2712186414605	49.69999999999999	0.0
C 	45.5009747148344	48.98999999999999	0.0
C 	46.730730788208305	49.69999999999998	0.0
C 	47.96048686158221	48.98999999999999	0.0
C 	49.1902429349561	49.69999999999998	0.0
C 	50.41999900833002	48.98999999999999	0.0
C 	51.64975508170392	49.69999999999999	0.0
C 	52.879511155077815	48.98999999999999	0.0
C 	54.10926722845172	49.69999999999999	0.0
C 	55.33902330182562	48.98999999999998	0.0
C 	56.56877937519953	49.69999999999999	0.0
C 	57.79853544857343	48.98999999999999	0.0
C 	59.02829152194734	49.69999999999999	0.0
C 	60.25804759532124	48.98999999999999	0.0
C 	61.487803668695136	49.69999999999999	0.0
C 	62.71755974206905	48.98999999999999	0.0
C 	63.94731581544294	49.69999999999998	0.0
C 	65.17707188881685	48.98999999999999	0.0
C 	66.40682796219075	49.69999999999999	0.0
C 	67.63658403556465	48.98999999999999	0.0
C 	68.86634010893856	49.69999999999999	0.0
C 	70.09609618231245	48.98999999999998	0.0
C 	71.32585225568637	49.69999999999999	0.0
C 	72.55560832906025	48.98999999999998	0.0
C 	73.78536440243417	49.69999999999999	0.0
C 	75.01512047580806	48.98999999999999	0.0
C 	76.24487654918197	49.69999999999999	0.0
C 	77.47463262255587	48.98999999999998	0.0
C 	78.70438869592978	49.69999999999998	0.0
C 	79.93414476930369	48.98999999999999	0.0
C 	81.16390084267758	49.69999999999998	0.0
C 	82.39365691605148	48.98999999999999	0.0
C 	83.62341298942539	49.69999999999999	0.0
C 	84.85316906279928	48.98999999999998	0.0
C 	86.08292513617319	49.69999999999998	0.0
C 	87.3126812095471	48.98999999999998	0.0
C 	88.542437282921	49.69999999999999	0.0
C 	29.51414576097367	51.11999999999999	0.0
C 	30.74390183434757	51.82999999999999	0.0
C 	31.973657907721474	51.11999999999999	0.0
C 	33.20341398109538	51.82999999999999	0.0
C 	34.43317005446928	51.11999999999999	0.0
C 	35.66292612784318	51.82999999999999	0.0
C 	36.892682201217085	51.11999999999999	0.0
C 	38.12243827459099	51.82999999999999	0.0
C 	39.35219434796489	51.12	0.0
C 	40.581950421338796	51.83	0.0
C 	41.811706494712695	51.11999999999999	0.0
C 	43.041462568086594	51.82999999999999	0.0
C 	44.2712186414605	51.12	0.0
C 	45.5009747148344	51.82999999999999	0.0
C 	46.73073078820831	51.11999999999999	0.0
C 	47.96048686158221	51.82999999999999	0.0
C 	49.19024293495611	51.11999999999999	0.0
C 	50.41999900833002	51.82999999999999	0.0
C 	51.649755081703915	51.11999999999998	0.0
C 	52.879511155077815	51.829999999999984	0.0
C 	54.10926722845171	51.11999999999999	0.0
C 	55.33902330182563	51.83	0.0
C 	56.568779375199526	51.11999999999999	0.0
C 	57.79853544857343	51.82999999999999	0.0
C 	59.02829152194733	51.11999999999999	0.0
C 	60.25804759532124	51.82999999999999	0.0
C 	61.48780366869514	51.11999999999999	0.0
C 	62.717559742069035	51.829999999999984	0.0
C 	63.94731581544295	51.11999999999999	0.0
C 	65.17707188881685	51.82999999999999	0.0
C 	66.40682796219075	51.11999999999999	0.0
C 	67.63658403556465	51.82999999999999	0.0
C 	68.86634010893854	51.11999999999998	0.0
C 	70.09609618231246	51.82999999999999	0.0
C 	71.32585225568636	51.11999999999999	0.0
C 	72.55560832906026	51.82999999999999	0.0
C 	73.78536440243417	51.11999999999999	0.0
C 	75.01512047580806	51.82999999999999	0.0
C 	76.24487654918198	51.11999999999999	0.0
C 	77.47463262255587	51.829999999999984	0.0
C 	78.70438869592978	51.11999999999999	0.0
C 	79.93414476930367	51.829999999999984	0.0
C 	81.16390084267758	51.11999999999999	0.0
C 	82.39365691605148	51.82999999999999	0.0
C 	83.62341298942538	51.11999999999998	0.0
C 	84.8531690627993	51.82999999999999	0.0
C 	86.08292513617319	51.11999999999998	0.0
C 	87.3126812095471	51.82999999999999	0.0
C 	88.542437282921	51.11999999999998	0.0
C 	89.7721933562949	51.829999999999984	0.0
C 	53.45020010279088	0.5611675076244049	2.15
C 	54.76493633322108	1.0977014249066286	2.15
C 	54.95765244607779	2.50456335837608	2.15
C 	56.27238867650798	3.041097275658305	2.15
C 	56.465104789364695	4.447959209127756	2.15
C 	57.77984101979488	4.984493126409974	2.15
C 	57.97255713265159	6.391355059879426	2.15
C 	51.013443754787204	0.8949616065294093	2.15
C 	52.3281799852174	1.4314955238116258	2.15
C 	52.52089609807411	2.8383574572810772	2.15
C 	53.8356323285043	3.374891374563301	2.15
C 	54.02834844136102	4.781753308032752	2.15
C 	55.34308467179122	5.318287225314976	2.15
C 	55.535800784647925	6.725149158784428	2.15
C 	56.85053701507812	7.261683076066645	2.15
C 	57.04325312793483	8.668545009536096	2.15
C 	58.35798935836501	9.205078926818322	2.15
C 	58.550705471221725	10.611940860287772	2.15
C 	59.865441701651925	11.148474777569996	2.15
C 	60.05815781450864	12.555336711039448	2.15
C 	61.372894044938825	13.091870628321667	2.15
C 	61.56561015779554	14.498732561791119	2.15
C 	62.88034638822573	15.035266479073341	2.15
C 	63.07306250108244	16.442128412542793	2.15
C 	64.38779873151263	16.978662329825017	2.15
C 	64.58051484436935	18.385524263294467	2.15
C 	47.06923506349663	-0.7146401453172634	2.15
C 	48.38397129392682	-0.1781062280350398	2.15
C 	48.576687406783535	1.2287557054344118	2.15
C 	49.89142363721373	1.7652896227166364	2.15
C 	50.084139750070435	3.172151556186088	2.15
C 	51.39887598050063	3.7086854734683055	2.15
C 	51.59159209335734	5.115547406937757	2.15
C 	52.90632832378754	5.6520813242199806	2.15
C 	53.09904443664425	7.058943257689433	2.15
C 	54.41378066707444	7.595477174971656	2.15
C 	54.606496779931156	9.002339108441108	2.15
C 	55.92123301036135	9.538873025723325	2.15
C 	56.11394912321806	10.945734959192775	2.15
C 	57.42868535364825	11.482268876475	2.15
C 	57.62140146650496	12.889130809944453	2.15
C 	58.93613769693515	13.425664727226676	2.15
C 	59.12885380979186	14.832526660696129	2.15
C 	60.44359004022206	15.369060577978345	2.15
C 	60.63630615307877	16.775922511447796	2.15
C 	61.95104238350897	17.31245642873002	2.15
C 	62.143758496365685	18.71931836219947	2.15
C 	63.45849472679586	19.255852279481697	2.15
C 	63.65121083965257	20.662714212951148	2.15
C 	64.96594707008276	21.199248130233364	2.15
C 	65.15866318293948	22.606110063702815	2.15
C 	66.47339941336968	23.142643980985035	2.15
C 	66.66611552622639	24.549505914454485	2.15
C 	67.98085175665659	25.086039831736716	2.15
C 	68.1735678695133	26.492901765206167	2.15
C 	69.48830409994349	27.029435682488383	2.15
C 	69.6810202128002	28.436297615957837	2.15
C 	70.99575644323039	28.972831533240054	2.15
C 	71.1884725560871	30.379693466709508	2.15
C 	72.5032087865173	30.916227383991735	2.15
C 	72.695924899374	32.32308931746119	2.15
C 	44.63247871549295	-0.3808460464122609	2.15
C 	45.94721494592314	0.1556878708699566	2.15
C 	46.13993105877986	1.5625498043394082	2.15
C 	47.45466728921006	2.099083721621633	2.15
C 	47.647383402066765	3.505945655091084	2.15
C 	48.96211963249696	4.042479572373308	2.15
C 	49.15483574535367	5.449341505842759	2.15
C 	50.46957197578386	5.985875423124977	2.15
C 	50.66228808864057	7.392737356594429	2.15
C 	51.97702431907077	7.929271273876652	2.15
C 	52.16974043192749	9.336133207346103	2.15
C 	53.48447666235767	9.872667124628329	2.15
C 	53.67719277521439	11.27952905809778	2.15
C 	54.99192900564458	11.816062975379996	2.15
C 	55.18464511850129	13.222924908849448	2.15
C 	56.49938134893148	13.759458826131672	2.15
C 	56.692097461788194	15.166320759601124	2.15
C 	58.00683369221839	15.702854676883348	2.15
C 	58.1995498050751	17.1097166103528	2.15
C 	59.514286035505286	17.64625052763502	2.15
C 	59.707002148362	19.05311246110447	2.15
C 	61.02173837879219	19.589646378386693	2.15
C 	61.21445449164891	20.996508311856143	2.15
C 	62.5291907220791	21.53304222913837	2.15
C 	62.721906834935815	22.93990416260782	2.15
C 	64.03664306536601	23.476438079890038	2.15
C 	64.22935917822271	24.883300013359488	2.15
C 	65.54409540865291	25.419833930641705	2.15
C 	65.73681152150962	26.82669586411116	2.15
C 	67.05154775193982	27.36322978139339	2.15
C 	67.24426386479652	28.77009171486284	2.15
C 	68.55900009522672	29.306625632145057	2.15
C 	68.75171620808344	30.713487565614507	2.15
C 	70.06645243851361	31.250021482896727	2.15
C 	70.25916855137032	32.65688341636618	2.15
C 	71.57390478180054	33.193417333648405	2.15
C 	71.76662089465725	34.600279267117855	2.15
C 	73.08135712508744	35.136813184400076	2.15
C 	73.27407323794415	36.543675117869526	2.15
C 	74.58880946837435	37.080209035151746	2.15
C 	74.78152558123105	38.4870709686212	2.15
C 	42.19572236748928	-0.047051947507257434	2.15
C 	43.51045859791948	0.4894819697749662	2.15
C 	43.703174710776196	1.8963439032444178	2.15
C 	45.01791094120638	2.4328778205266355	2.15
C 	45.21062705406309	3.8397397539960867	2.15
C 	46.52536328449328	4.3762736712783115	2.15
C 	46.718079397349996	5.783135604747763	2.15
C 	48.032815627780195	6.319669522029987	2.15
C 	48.2255317406369	7.7265314554994395	2.15
C 	49.540267971067095	8.263065372781655	2.15
C 	49.73298408392381	9.669927306251108	2.15
C 	51.047720314354	10.206461223533331	2.15
C 	51.24043642721072	11.613323157002782	2.15
C 	52.55517265764091	12.149857074285007	2.15
C 	52.747888770497624	13.55671900775446	2.15
C 	54.06262500092781	14.093252925036676	2.15
C 	54.255341113784525	15.500114858506128	2.15
C 	55.57007734421472	16.03664877578835	2.15
C 	55.762793457071425	17.443510709257804	2.15
C 	57.077529687501624	17.980044626540028	2.15
C 	57.27024580035834	19.38690656000948	2.15
C 	58.58498203078852	19.923440477291695	2.15
C 	58.77769814364523	21.33030241076115	2.15
C 	60.092434374075424	21.866836328043373	2.15
C 	60.28515048693214	23.273698261512823	2.15
C 	61.59988671736233	23.810232178795047	2.15
C 	61.792602830219046	25.217094112264498	2.15
C 	63.107339060649245	25.753628029546714	2.15
C 	63.30005517350595	27.16048996301617	2.15
C 	64.61479140393615	27.697023880298385	2.15
C 	64.80750751679285	29.103885813767835	2.15
C 	66.12224374722304	29.640419731050066	2.15
C 	66.31495986007975	31.04728166451952	2.15
C 	67.62969609050995	31.583815581801737	2.15
C 	67.82241220336667	32.99067751527119	2.15
C 	69.13714843379687	33.5272114325534	2.15
C 	69.32986454665358	34.93407336602286	2.15
C 	70.64460077708377	35.470607283305085	2.15
C 	70.83731688994048	36.877469216774536	2.15
C 	72.15205312037067	37.414003134056756	2.15
C 	72.34476923322738	38.820865067526206	2.15
C 	73.65950546365757	39.35739898480843	2.15
C 	73.85222157651428	40.76426091827788	2.15
C 	39.758966019485605	0.286742151397746	2.15
C 	41.0737022499158	0.823276068679967	2.15
C 	41.26641836277251	2.230138002149415	2.15
C 	42.58115459320271	2.766671919431642	2.15
C 	42.77387070605942	4.17353385290109	2.15
C 	44.08860693648962	4.7100677701833105	2.15
C 	44.281323049346334	6.116929703652758	2.15
C 	45.59605927977652	6.6534636209349864	2.15
C 	45.78877539263323	8.060325554404434	2.15
C 	47.10351162306342	8.596859471686663	2.15
C 	47.296227735920134	10.00372140515611	2.15
C 	48.610963966350326	10.540255322438332	2.15
C 	48.80368007920704	11.947117255907779	2.15
C 	50.11841630963723	12.483651173190006	2.15
C 	50.31113242249394	13.890513106659455	2.15
C 	51.62586865292414	14.427047023941682	2.15
C 	51.818584765780855	15.833908957411131	2.15
C 	53.13332099621105	16.370442874693353	2.15
C 	53.326037109067755	17.7773048081628	2.15
C 	54.64077333949795	18.313838725445027	2.15
C 	54.83348945235466	19.720700658914474	2.15
C 	56.148225682784854	20.2572345761967	2.15
C 	56.34094179564156	21.66409650966615	2.15
C 	57.655678026071755	22.200630426948372	2.15
C 	57.84839413892846	23.60749236041782	2.15
C 	59.16313036935866	24.144026277700046	2.15
C 	59.35584648221538	25.550888211169497	2.15
C 	60.67058271264556	26.08742212845172	2.15
C 	60.86329882550227	27.49428406192117	2.15
C 	62.17803505593247	28.030817979203388	2.15
C 	62.370751168789184	29.437679912672838	2.15
C 	63.685487399219376	29.974213829955055	2.15
C 	63.87820351207609	31.38107576342451	2.15
C 	65.19293974250628	31.91760968070674	2.15
C 	65.38565585536298	33.32447161417619	2.15
C 	66.70039208579318	33.86100553145841	2.15
C 	66.8931081986499	35.26786746492786	2.15
C 	68.20784442908008	35.804401382210074	2.15
C 	68.4005605419368	37.21126331567953	2.15
C 	69.715296772367	37.74779723296176	2.15
C 	69.90801288522371	39.15465916643121	2.15
C 	71.22274911565388	39.69119308371343	2.15
C 	71.4154652285106	41.09805501718288	2.15
C 	72.73020145894081	41.63458893446509	2.15
C 	72.92291757179753	43.04145086793454	2.15
C 	37.322209671481936	0.6205362503027495	2.15
C 	38.636945901912135	1.157070167584973	2.15
C 	38.82966201476885	2.5639321010544247	2.15
C 	40.144398245199035	3.1004660183366424	2.15
C 	40.33711435805574	4.507327951806094	2.15
C 	41.651850588485935	5.043861869088318	2.15
C 	41.84456670134265	6.45072380255777	2.15
C 	43.15930293177284	6.987257719839986	2.15
C 	43.35201904462956	8.394119653309438	2.15
C 	44.66675527505976	8.930653570591662	2.15
C 	44.85947138791647	10.337515504061113	2.15
C 	46.17420761834665	10.874049421343338	2.15
C 	46.366923731203364	12.280911354812789	2.15
C 	47.68165996163356	12.817445272095007	2.15
C 	47.874376074490264	14.22430720556446	2.15
C 	49.189112304920464	14.760841122846683	2.15
C 	49.38182841777718	16.167703056316135	2.15
C 	50.69656464820737	16.70423697359836	2.15
C 	50.88928076106408	18.11109890706781	2.15
C 	52.20401699149428	18.647632824350026	2.15
C 	52.39673310435099	20.054494757819477	2.15
C 	53.71146933478117	20.591028675101704	2.15
C 	53.904185447637886	21.997890608571154	2.15
C 	55.218921678068085	22.534424525853378	2.15
C 	55.4116377909248	23.94128645932283	2.15
C 	56.726374021354985	24.477820376605045	2.15
C 	56.9190901342117	25.8846823100745	2.15
C 	58.2338263646419	26.421216227356723	2.15
C 	58.42654247749861	27.828078160826173	2.15
C 	59.74127870792879	28.3646120781084	2.15
C 	59.93399482078551	29.77147401157785	2.15
C 	61.2487310512157	30.308007928860068	2.15
C 	61.44144716407241	31.714869862329518	2.15
C 	62.75618339450261	32.251403779611735	2.15
C 	62.94889950735932	33.658265713081185	2.15
C 	64.26363573778951	34.19479963036342	2.15
C 	64.45635185064623	35.60166156383287	2.15
C 	65.77108808107641	36.13819548111508	2.15
C 	65.96380419393313	37.54505741458454	2.15
C 	67.27854042436331	38.081591331866754	2.15
C 	67.47125653722003	39.488453265336204	2.15
C 	68.78599276765023	40.02498718261844	2.15
C 	68.97870888050694	41.43184911608789	2.15
C 	70.29344511093714	41.96838303337011	2.15
C 	70.48616122379384	43.37524496683956	2.15
C 	71.80089745422404	43.91177888412177	2.15
C 	71.99361356708076	45.31864081759123	2.15
C 	33.378000980191366	-0.989065501543917	2.15
C 	34.69273721062156	-0.45253158426169515	2.15
C 	34.88545332347827	0.9543303492077564	2.15
C 	36.20018955390845	1.4908642664899774	2.15
C 	36.39290566676517	2.897726199959429	2.15
C 	37.707641897195366	3.4342601172416525	2.15
C 	37.900358010052074	4.841122050711104	2.15
C 	39.21509424048227	5.377655967993321	2.15
C 	39.40781035333899	6.784517901462772	2.15
C 	40.72254658376917	7.321051818744997	2.15
C 	40.91526269662588	8.727913752214448	2.15
C 	42.22999892705607	9.264447669496667	2.15
C 	42.42271503991279	10.671309602966117	2.15
C 	43.73745127034298	11.20784352024834	2.15
C 	43.930167383199695	12.614705453717793	2.15
C 	45.244903613629894	13.151239371000017	2.15
C 	45.43761972648661	14.558101304469469	2.15
C 	46.75235595691679	15.094635221751686	2.15
C 	46.9450720697735	16.501497155221138	2.15
C 	48.2598083002037	17.03803107250336	2.15
C 	48.45252441306041	18.444893005972812	2.15
C 	49.7672606434906	18.98142692325504	2.15
C 	49.95997675634732	20.38828885672449	2.15
C 	51.2747129867775	20.924822774006707	2.15
C 	51.46742909963422	22.331684707476157	2.15
C 	52.78216533006441	22.86821862475838	2.15
C 	52.974881442921124	24.275080558227835	2.15
C 	54.289617673351316	24.81161447551006	2.15
C 	54.48233378620803	26.21847640897951	2.15
C 	55.79707001663822	26.755010326261726	2.15
C 	55.98978612949493	28.16187225973118	2.15
C 	57.30452235992512	28.698406177013403	2.15
C 	57.49723847278184	30.105268110482854	2.15
C 	58.81197470321203	30.641802027765078	2.15
C 	59.00469081606874	32.04866396123453	2.15
C 	60.31942704649894	32.585197878516745	2.15
C 	60.51214315935565	33.992059811986195	2.15
C 	61.82687938978584	34.528593729268415	2.15
C 	62.01959550264255	35.935455662737866	2.15
C 	63.334331733072744	36.4719895800201	2.15
C 	63.52704784592946	37.87885151348955	2.15
C 	64.84178407635966	38.415385430771764	2.15
C 	65.03450018921637	39.822247364241214	2.15
C 	66.34923641964654	40.358781281523434	2.15
C 	66.54195253250326	41.765643214992885	2.15
C 	67.85668876293346	42.30217713227512	2.15
C 	68.04940487579017	43.70903906574457	2.15
C 	69.36414110622036	44.24557298302679	2.15
C 	69.55685721907707	45.65243491649624	2.15
C 	70.87159344950727	46.18896883377845	2.15
C 	30.94124463218769	-0.6552714026389198	2.15
C 	32.25598086261788	-0.11873748535669262	2.15
C 	32.4486969754746	1.2881244481127554	2.15
C 	33.76343320590479	1.824658365394979	2.15
C 	33.956149318761504	3.231520298864427	2.15
C 	35.270885549191696	3.7680542161466524	2.15
C 	35.463601662048404	5.1749161496161005	2.15
C 	36.77833789247859	5.711450066898329	2.15
C 	36.971054005335304	7.1183120003677764	2.15
C 	38.285790235765504	7.654845917649997	2.15
C 	38.47850634862221	9.061707851119445	2.15
C 	39.79324257905241	9.598241768401673	2.15
C 	39.985958691909126	11.00510370187112	2.15
C 	41.300694922339304	11.541637619153342	2.15
C 	41.49341103519602	12.948499552622788	2.15
C 	42.80814726562621	13.485033469905018	2.15
C 	43.00086337848292	14.891895403374466	2.15
C 	44.31559960891312	15.428429320656692	2.15
C 	44.50831572176983	16.83529125412614	2.15
C 	45.82305195220003	17.37182517140836	2.15
C 	46.01576806505674	18.778687104877807	2.15
C 	47.33050429548693	19.315221022160035	2.15
C 	47.52322040834365	20.722082955629485	2.15
C 	48.83795663877384	21.258616872911713	2.15
C 	49.03067275163055	22.66547880638116	2.15
C 	50.34540898206074	23.202012723663383	2.15
C 	50.53812509491745	24.60887465713283	2.15
C 	51.85286132534764	25.145408574415058	2.15
C 	52.045577438204354	26.552270507884504	2.15
C 	53.360313668634554	27.088804425166728	2.15
C 	53.55302978149126	28.495666358636182	2.15
C 	54.86776601192145	29.0322002759184	2.15
C 	55.06048212477816	30.43906220938785	2.15
C 	56.37521835520836	30.97559612667008	2.15
C 	56.56793446806507	32.38245806013953	2.15
C 	57.88267069849526	32.91899197742175	2.15
C 	58.075386811351976	34.3258539108912	2.15
C 	59.39012304178217	34.86238782817342	2.15
C 	59.58283915463888	36.26924976164287	2.15
C 	60.89757538506908	36.80578367892509	2.15
C 	61.09029149792579	38.21264561239454	2.15
C 	62.40502772835597	38.74917952967677	2.15
C 	62.59774384121268	40.156041463146224	2.15
C 	63.91248007164288	40.69257538042844	2.15
C 	64.10519618449959	42.09943731389789	2.15
C 	65.41993241492979	42.63597123118011	2.15
C 	65.6126485277865	44.04283316464956	2.15
C 	66.92738475821669	44.57936708193179	2.15
C 	67.1201008710734	45.98622901540124	2.15
C 	68.43483710150359	46.522762932683456	2.15
C 	28.504488284184013	-0.3214773037339128	2.15
C 	29.819224514614213	0.2150566135483073	2.15
C 	30.011940627470924	1.6219185470177588	2.15
C 	31.326676857901113	2.1584524642999834	2.15
C 	31.519392970757824	3.565314397769435	2.15
C 	32.83412920118802	4.101848315051655	2.15
C 	33.026845314044735	5.508710248521107	2.15
C 	34.34158154447492	6.045244165803329	2.15
C 	34.534297657331635	7.45210609927278	2.15
C 	35.849033887761834	7.988640016555004	2.15
C 	36.04175000061854	9.395501950024455	2.15
C 	37.35648623104873	9.932035867306674	2.15
C 	37.54920234390544	11.338897800776124	2.15
C 	38.863938574335634	11.875431718058348	2.15
C 	39.05665468719235	13.2822936515278	2.15
C 	40.37139091762254	13.818827568810017	2.15
C 	40.56410703047925	15.225689502279469	2.15
C 	41.87884326090944	15.762223419561693	2.15
C 	42.071559373766156	17.169085353031143	2.15
C 	43.38629560419635	17.70561927031337	2.15
C 	43.579011717053056	19.11248120378282	2.15
C 	44.893747947483256	19.649015121065037	2.15
C 	45.08646406033997	21.055877054534488	2.15
C 	46.40120029077016	21.59241097181671	2.15
C 	46.59391640362688	22.999272905286162	2.15
C 	47.90865263405706	23.53580682256839	2.15
C 	48.10136874691378	24.94266875603784	2.15
C 	49.41610497734397	25.479202673320057	2.15
C 	49.608821090200685	26.886064606789507	2.15
C 	50.92355732063088	27.422598524071734	2.15
C 	51.116273433487585	28.829460457541185	2.15
C 	52.43100966391778	29.36599437482341	2.15
C 	52.62372577677449	30.77285630829286	2.15
C 	53.938462007204684	31.30939022557508	2.15
C 	54.13117812006139	32.71625215904453	2.15
C 	55.44591435049159	33.25278607632675	2.15
C 	55.638630463348306	34.65964800979621	2.15
C 	56.9533666937785	35.19618192707843	2.15
C 	57.14608280663521	36.60304386054788	2.15
C 	58.4608190370654	37.1395777778301	2.15
C 	58.653535149922114	38.54643971129955	2.15
C 	59.968271380352306	39.08297362858177	2.15
C 	60.16098749320902	40.48983556205122	2.15
C 	61.47572372363921	41.02636947933345	2.15
C 	61.66843983649592	42.4332314128029	2.15
C 	62.98317606692611	42.96976533008512	2.15
C 	63.17589217978283	44.37662726355457	2.15
C 	64.49062841021302	44.91316118083679	2.15
C 	64.68334452306974	46.32002311430624	2.15
C 	65.99808075349993	46.856557031588466	2.15
C 	26.067731936180344	0.012316795171094158	2.15
C 	27.38246816661054	0.5488507124533143	2.15
C 	27.57518427946725	1.9557126459227658	2.15
C 	28.88992050989744	2.492246563204987	2.15
C 	29.08263662275415	3.8991084966744385	2.15
C 	30.39737285318435	4.435642413956662	2.15
C 	30.590088966041062	5.842504347426114	2.15
C 	31.904825196471247	6.379038264708335	2.15
C 	32.09754130932796	7.785900198177786	2.15
C 	33.41227753975816	8.322434115460007	2.15
C 	33.60499365261487	9.729296048929458	2.15
C 	34.91972988304506	10.265829966211683	2.15
C 	35.11244599590177	11.672691899681135	2.15
C 	36.427182226331965	12.209225816963352	2.15
C 	36.61989833918868	13.616087750432802	2.15
C 	37.934634569618865	14.152621667715028	2.15
C 	38.12735068247558	15.55948360118448	2.15
C 	39.44208691290577	16.096017518466695	2.15
C 	39.63480302576249	17.50287945193615	2.15
C 	40.94953925619268	18.039413369218373	2.15
C 	41.14225536904939	19.446275302687823	2.15
C 	42.45699159947958	19.982809219970047	2.15
C 	42.649707712336294	21.389671153439497	2.15
C 	43.96444394276648	21.926205070721718	2.15
C 	44.157160055623194	23.333067004191168	2.15
C 	45.47189628605339	23.869600921473392	2.15
C 	45.66461239891011	25.276462854942842	2.15
C 	46.9793486293403	25.812996772225066	2.15
C 	47.172064742197016	27.21985870569452	2.15
C 	48.4868009726272	27.756392622976737	2.15
C 	48.67951708548391	29.163254556446187	2.15
C 	49.9942533159141	29.69978847372841	2.15
C 	50.186969428770816	31.106650407197865	2.15
C 	51.501705659201015	31.64318432448009	2.15
C 	51.69442177205772	33.05004625794954	2.15
C 	53.00915800248791	33.58658017523176	2.15
C 	53.20187411534462	34.99344210870121	2.15
C 	54.51661034577482	35.52997602598343	2.15
C 	54.70932645863153	36.93683795945289	2.15
C 	56.02406268906172	37.47337187673511	2.15
C 	56.21677880191844	38.88023381020456	2.15
C 	57.53151503234863	39.41676772748678	2.15
C 	57.724231145205344	40.82362966095623	2.15
C 	59.038967375635536	41.36016357823844	2.15
C 	59.231683488492244	42.7670255117079	2.15
C 	60.54641971892244	43.30355942899013	2.15
C 	60.73913583177915	44.71042136245958	2.15
C 	62.05387206220935	45.2469552797418	2.15
C 	23.63097558817667	0.3461108940760906	2.15
C 	24.945711818606863	0.8826448113583182	2.15
C 	25.138427931463575	2.2895067448277664	2.15
C 	26.45316416189377	2.8260406621099903	2.15
C 	26.645880274750482	4.232902595579438	2.15
C 	27.960616505180674	4.769436512861662	2.15
C 	28.15333261803739	6.17629844633111	2.15
C 	29.468068848467574	6.712832363613338	2.15
C 	29.66078496132429	8.119694297082786	2.15
C 	30.975521191754485	8.65622821436501	2.15
C 	31.168237304611196	10.063090147834458	2.15
C 	32.48297353504138	10.599624065116682	2.15
C 	32.675689647898096	12.00648599858613	2.15
C 	33.990425878328296	12.543019915868358	2.15
C 	34.18314199118501	13.949881849337805	2.15
C 	35.497878221615196	14.486415766620027	2.15
C 	35.6905943344719	15.893277700089476	2.15
C 	37.0053305649021	16.4298116173717	2.15
C 	37.19804667775882	17.83667355084115	2.15
C 	38.512782908189	18.373207468123372	2.15
C 	38.70549902104571	19.78006940159282	2.15
C 	40.02023525147591	20.316603318875046	2.15
C 	40.212951364332625	21.723465252344496	2.15
C 	41.52768759476282	22.259999169626724	2.15
C 	41.720403707619525	23.66686110309617	2.15
C 	43.03513993804972	24.20339502037839	2.15
C 	43.227856050906425	25.61025695384784	2.15
C 	44.542592281336624	26.146790871130065	2.15
C 	44.73530839419334	27.553652804599515	2.15
C 	46.05004462462353	28.09018672188174	2.15
C 	46.24276073748024	29.49704865535119	2.15
C 	47.55749696791044	30.033582572633406	2.15
C 	47.75021308076715	31.44044450610286	2.15
C 	49.06494931119734	31.97697842338509	2.15
C 	49.257665424054046	33.383840356854535	2.15
C 	50.572401654484246	33.92037427413676	2.15
C 	50.76511776734096	35.32723620760621	2.15
C 	52.079853997771146	35.863770124888426	2.15
C 	52.27257011062786	37.27063205835788	2.15
C 	53.58730634105805	37.80716597564011	2.15
C 	53.78002245391477	39.214027909109554	2.15
C 	55.09475868434495	39.75056182639178	2.15
C 	55.28747479720167	41.15742375986123	2.15
C 	56.60221102763187	41.69395767714345	2.15
C 	56.794927140488575	43.1008196106129	2.15
C 	58.109663370918774	43.637353527895115	2.15
C 	58.30237948377549	45.044215461364566	2.15
C 	59.617115714205674	45.5807493786468	2.15
C 	21.194219240173	0.6799049929810953	2.15
C 	22.50895547060319	1.2164389102633177	2.15
C 	22.701671583459902	2.6233008437327676	2.15
C 	24.016407813890098	3.1598347610149937	2.15
C 	24.20912392674681	4.566696694484444	2.15
C 	25.523860157177	5.103230611766666	2.15
C 	25.716576270033716	6.510092545236115	2.15
C 	27.031312500463905	7.046626462518338	2.15
C 	27.224028613320616	8.453488395987788	2.15
C 	28.538764843750812	8.990022313270014	2.15
C 	28.731480956607523	10.396884246739463	2.15
C 	30.046217187037712	10.933418164021687	2.15
C 	30.238933299894423	12.340280097491133	2.15
C 	31.553669530324623	12.876814014773357	2.15
C 	31.746385643181334	14.28367594824281	2.15
C 	33.06112187361152	14.820209865525033	2.15
C 	33.253837986468234	16.227071798994487	2.15
C 	34.56857421689843	16.7636057162767	2.15
C 	34.76129032975514	18.170467649746154	2.15
C 	36.07602656018533	18.707001567028378	2.15
C 	36.26874267304204	20.113863500497832	2.15
C 	37.58347890347224	20.65039741778005	2.15
C 	37.776195016328955	22.0572593512495	2.15
C 	39.09093124675913	22.593793268531723	2.15
C 	39.28364735961585	24.000655202001173	2.15
C 	40.59838359004605	24.537189119283397	2.15
C 	40.79109970290276	25.94405105275285	2.15
C 	42.10583593333295	26.480584970035068	2.15
C 	42.29855204618966	27.887446903504518	2.15
C 	43.613288276619855	28.423980820786742	2.15
C 	43.80600438947656	29.830842754256196	2.15
C 	45.12074061990676	30.36737667153842	2.15
C 	45.31345673276348	31.77423860500787	2.15
C 	46.62819296319367	32.31077252229009	2.15
C 	46.82090907605038	33.71763445575954	2.15
C 	48.13564530648057	34.254168373041765	2.15
C 	48.328361419337284	35.661030306511215	2.15
C 	49.643097649767476	36.197564223793435	2.15
C 	49.835813762624184	37.60442615726289	2.15
C 	51.150549993054376	38.140960074545106	2.15
C 	51.34326610591109	39.547822008014556	2.15
C 	52.65800233634128	40.084355925296784	2.15
C 	52.850718449198	41.491217858766234	2.15
C 	54.16545467962818	42.02775177604846	2.15
C 	54.35817079248489	43.43461370951791	2.15
C 	55.67290702291509	43.971147626800125	2.15
C 	55.865623135771806	45.37800956026958	2.15
C 	57.180359366202005	45.914543477551796	2.15
C 	17.250010548882422	-0.9296967588655733	2.15
C 	18.564746779312614	-0.3931628415833511	2.15
C 	18.757462892169325	1.0136990918860989	2.15
C 	20.072199122599518	1.5502330091683212	2.15
C 	20.26491523545623	2.957094942637771	2.15
C 	21.57965146588642	3.493628859919993	2.15
C 	21.772367578743136	4.9004907933894435	2.15
C 	23.087103809173325	5.437024710671669	2.15
C 	23.27981992203004	6.843886644141119	2.15
C 	24.594556152460232	7.380420561423342	2.15
C 	24.787272265316943	8.787282494892791	2.15
C 	26.10200849574714	9.323816412175013	2.15
C 	26.29472460860385	10.730678345644463	2.15
C 	27.609460839034043	11.267212262926689	2.15
C 	27.802176951890754	12.674074196396138	2.15
C 	29.11691318232095	13.210608113678362	2.15
C 	29.30962929517766	14.617470047147812	2.15
C 	30.62436552560785	15.154003964430034	2.15
C 	30.81708163846456	16.560865897899482	2.15
C 	32.13181786889476	17.09739981518171	2.15
C 	32.32453398175147	18.504261748651157	2.15
C 	33.63927021218166	19.040795665933377	2.15
C 	33.83198632503837	20.447657599402827	2.15
C 	35.14672255546857	20.984191516685055	2.15
C 	35.33943866832528	22.3910534501545	2.15
C 	36.654174898755464	22.927587367436722	2.15
C 	36.84689101161218	24.334449300906172	2.15
C 	38.16162724204238	24.8709832181884	2.15
C 	38.354343354899086	26.277845151657846	2.15
C 	39.66907958532927	26.814379068940074	2.15
C 	39.861795698185986	28.221241002409524	2.15
C 	41.176531928616185	28.757774919691744	2.15
C 	41.36924804147289	30.16463685316119	2.15
C 	42.68398427190309	30.701170770443415	2.15
C 	42.87670038475981	32.10803270391287	2.15
C 	44.19143661518999	32.644566621195096	2.15
C 	44.3841527280467	34.05142855466454	2.15
C 	45.6988889584769	34.58796247194677	2.15
C 	45.891605071333615	35.99482440541621	2.15
C 	47.2063413017638	36.53135832269844	2.15
C 	47.399057414620515	37.93822025616789	2.15
C 	48.713793645050714	38.474754173450116	2.15
C 	48.90650975790743	39.88161610691956	2.15
C 	50.22124598833761	40.418150024201786	2.15
C 	50.41396210119432	41.82501195767123	2.15
C 	51.72869833162452	42.36154587495346	2.15
C 	51.92141444448123	43.76840780842291	2.15
C 	53.23615067491142	44.30494172570514	2.15
C 	53.428866787768136	45.711803659174585	2.15
C 	54.74360301819833	46.248337576456805	2.15
C 	14.813254200878749	-0.5959026599605703	2.15
C 	16.12799043130894	-0.05936874267834631	2.15
C 	16.320706544165656	1.3474931907911036	2.15
C 	17.635442774595848	1.8840271080733262	2.15
C 	17.82815888745256	3.2908890415427763	2.15
C 	19.142895117882752	3.8274229588249984	2.15
C 	19.335611230739463	5.234284892294449	2.15
C 	20.650347461169652	5.770818809576671	2.15
C 	20.843063574026367	7.17768074304612	2.15
C 	22.15779980445656	7.714214660328346	2.15
C 	22.350515917313274	9.121076593797795	2.15
C 	23.665252147743466	9.657610511080017	2.15
C 	23.857968260600178	11.064472444549468	2.15
C 	25.17270449103037	11.601006361831692	2.15
C 	25.36542060388708	13.00786829530114	2.15
C 	26.680156834317277	13.544402212583364	2.15
C 	26.872872947173988	14.951264146052816	2.15
C 	28.18760917760418	15.48779806333504	2.15
C 	28.380325290460892	16.89465999680449	2.15
C 	29.695061520891084	17.43119391408671	2.15
C 	29.8877776337478	18.83805584755616	2.15
C 	31.202513864177984	19.374589764838387	2.15
C 	31.3952299770347	20.781451698307837	2.15
C 	32.709966207464895	21.317985615590054	2.15
C 	32.90268232032161	22.724847549059504	2.15
C 	34.217418550751795	23.261381466341728	2.15
C 	34.41013466360851	24.668243399811182	2.15
C 	35.7248708940387	25.2047773170934	2.15
C 	35.91758700689542	26.61163925056285	2.15
C 	37.2323232373256	27.148173167845073	2.15
C 	37.42503935018232	28.555035101314527	2.15
C 	38.739775580612516	29.09156901859675	2.15
C 	38.932491693469224	30.4984309520662	2.15
C 	40.24722792389941	31.034964869348418	2.15
C 	40.439944036756124	32.44182680281787	2.15
C 	41.75468026718632	32.97836072010009	2.15
C 	41.94739638004303	34.38522265356954	2.15
C 	43.26213261047323	34.92175657085177	2.15
C 	43.454848723329945	36.32861850432122	2.15
C 	44.76958495376012	36.86515242160344	2.15
C 	44.96230106661684	38.27201435507289	2.15
C 	46.27703729704703	38.80854827235511	2.15
C 	46.469753409903745	40.21541020582457	2.15
C 	47.78448964033394	40.75194412310679	2.15
C 	47.97720575319065	42.15880605657624	2.15
C 	49.291941983620845	42.69533997385846	2.15
C 	49.48465809647755	44.10220190732791	2.15
C 	50.799394326907745	44.63873582461014	2.15
C 	50.99211043976446	46.04559775807959	2.15
C 	52.30684667019465	46.58213167536181	2.15
C 	12.376497852875074	-0.26210856105556674	2.15
C 	13.69123408330527	0.27442535622665715	2.15
C 	13.883950196161981	1.681287289696107	2.15
C 	15.198686426592175	2.217821206978331	2.15
C 	15.391402539448887	3.624683140447781	2.15
C 	16.70613876987908	4.161217057730004	2.15
C 	16.89885488273579	5.568078991199453	2.15
C 	18.213591113165982	6.104612908481676	2.15
C 	18.406307226022697	7.5114748419511255	2.15
C 	19.721043456452886	8.048008759233348	2.15
C 	19.913759569309597	9.454870692702798	2.15
C 	21.22849579973979	9.991404609985024	2.15
C 	21.4212119125965	11.398266543454474	2.15
C 	22.735948143026697	11.934800460736696	2.15
C 	22.928664255883408	13.341662394206145	2.15
C 	24.2434004863136	13.878196311488368	2.15
C 	24.43611659917031	15.285058244957819	2.15
C 	25.750852829600507	15.821592162240044	2.15
C 	25.94356894245722	17.228454095709495	2.15
C 	27.25830517288741	17.764988012991715	2.15
C 	27.451021285744122	19.171849946461165	2.15
C 	28.765757516174315	19.70838386374339	2.15
C 	28.95847362903103	21.11524579721284	2.15
C 	30.27320985946122	21.651779714495063	2.15
C 	30.465925972317933	23.058641647964517	2.15
C 	31.780662202748122	23.595175565246734	2.15
C 	31.973378315604833	25.002037498716184	2.15
C 	33.288114546035025	25.53857141599841	2.15
C 	33.48083065889174	26.94543334946786	2.15
C 	34.79556688932193	27.481967266750075	2.15
C 	34.98828300217864	28.88882920021953	2.15
C 	36.30301923260884	29.425363117501753	2.15
C 	36.49573534546555	30.832225050971203	2.15
C 	37.81047157589574	31.36875896825343	2.15
C 	38.003187688752455	32.77562090172288	2.15
C 	39.317923919182654	33.312154819005094	2.15
C 	39.51064003203936	34.71901675247455	2.15
C 	40.825376262469554	35.25555066975677	2.15
C 	41.01809237532627	36.66241260322622	2.15
C 	42.33282860575646	37.19894652050845	2.15
C 	42.52554471861317	38.6058084539779	2.15
C 	43.84028094904337	39.14234237126011	2.15
C 	44.03299706190008	40.54920430472957	2.15
C 	45.34773329233026	41.08573822201179	2.15
C 	45.540449405186976	42.49260015548124	2.15
C 	46.855185635617175	43.02913407276347	2.15
C 	47.04790174847388	44.43599600623292	2.15
C 	48.362637978904075	44.97252992351514	2.15
C 	48.55535409176079	46.37939185698459	2.15
C 	49.87009032219099	46.91592577426681	2.15
C 	9.939741504871401	0.0716855378494365	2.15
C 	11.254477735301595	0.6082194551316589	2.15
C 	11.447193848158307	2.0150813886011085	2.15
C 	12.7619300785885	2.551615305883333	2.15
C 	12.954646191445214	3.9584772393527827	2.15
C 	14.269382421875406	4.495011156635007	2.15
C 	14.46209853473212	5.9018730901044565	2.15
C 	15.776834765162311	6.438407007386679	2.15
C 	15.969550878019023	7.845268940856129	2.15
C 	17.284287108449217	8.38180285813835	2.15
C 	17.477003221305928	9.7886647916078	2.15
C 	18.79173945173612	10.325198708890024	2.15
C 	18.98445556459283	11.732060642359473	2.15
C 	20.299191795023024	12.268594559641699	2.15
C 	20.491907907879735	13.675456493111147	2.15
C 	21.806644138309927	14.211990410393371	2.15
C 	21.99936025116664	15.618852343862823	2.15
C 	23.314096481596835	16.155386261145043	2.15
C 	23.506812594453546	17.56224819461449	2.15
C 	24.821548824883738	18.098782111896718	2.15
C 	25.01426493774045	19.505644045366168	2.15
C 	26.32900116817064	20.042177962648392	2.15
C 	26.521717281027357	21.449039896117842	2.15
C 	27.836453511457545	21.985573813400062	2.15
C 	28.029169624314257	23.392435746869513	2.15
C 	29.343905854744452	23.92896966415174	2.15
C 	29.536621967601164	25.335831597621187	2.15
C 	30.851358198031356	25.872365514903407	2.15
C 	31.044074310888067	27.279227448372858	2.15
C 	32.358810541318256	27.815761365655085	2.15
C 	32.55152665417497	29.222623299124532	2.15
C 	33.86626288460516	29.759157216406756	2.15
C 	34.05897899746188	31.166019149876202	2.15
C 	35.37371522789207	31.702553067158426	2.15
C 	35.56643134074878	33.10941500062788	2.15
C 	36.88116757117898	33.64594891791011	2.15
C 	37.073883684035685	35.052810851379554	2.15
C 	38.38861991446588	35.589344768661775	2.15
C 	38.58133602732259	36.99620670213122	2.15
C 	39.896072257752785	37.532740619413445	2.15
C 	40.0887883706095	38.939602552882896	2.15
C 	41.40352460103969	39.47613647016513	2.15
C 	41.59624071389641	40.88299840363457	2.15
C 	42.91097694432659	41.419532320916794	2.15
C 	43.10369305718331	42.826394254386244	2.15
C 	44.4184292876135	43.362928171668464	2.15
C 	44.61114540047021	44.769790105137915	2.15
C 	45.9258816309004	45.30632402242015	2.15
C 	7.502985156867731	0.4054796367544397	2.15
C 	8.817721387297924	0.9420135540366631	2.15
C 	9.010437500154636	2.348875487506113	2.15
C 	10.325173730584826	2.8854094047883354	2.15
C 	10.517889843441539	4.292271338257785	2.15
C 	11.832626073871733	4.828805255540009	2.15
C 	12.025342186728446	6.235667189009459	2.15
C 	13.340078417158638	6.772201106291682	2.15
C 	13.53279453001535	8.179063039761134	2.15
C 	14.847530760445542	8.715596957043354	2.15
C 	15.040246873302255	10.122458890512807	2.15
C 	16.354983103732447	10.658992807795027	2.15
C 	16.54769921658916	12.065854741264479	2.15
C 	17.86243544701935	12.6023886585467	2.15
C 	18.055151559876066	14.00925059201615	2.15
C 	19.369887790306258	14.545784509298375	2.15
C 	19.56260390316297	15.952646442767826	2.15
C 	20.87734013359316	16.489180360050046	2.15
C 	21.070056246449873	17.8960422935195	2.15
C 	22.38479247688006	18.43257621080172	2.15
C 	22.577508589736777	19.83943814427117	2.15
C 	23.89224482016697	20.375972061553394	2.15
C 	24.084960933023684	21.782833995022845	2.15
C 	25.399697163453872	22.31936791230507	2.15
C 	25.592413276310584	23.72622984577452	2.15
C 	26.90714950674078	24.26276376305674	2.15
C 	27.09986561959749	25.66962569652619	2.15
C 	28.414601850027683	26.206159613808417	2.15
C 	28.607317962884395	27.613021547277867	2.15
C 	29.92205419331459	28.149555464560084	2.15
C 	30.1147703061713	29.556417398029534	2.15
C 	31.429506536601494	30.09295131531176	2.15
C 	31.622222649458205	31.499813248781212	2.15
C 	32.936958879888394	32.03634716606343	2.15
C 	33.12967499274511	33.44320909953288	2.15
C 	34.4444112231753	33.97974301681511	2.15
C 	34.637127336032016	35.38660495028456	2.15
C 	35.95186356646221	35.92313886756678	2.15
C 	36.144579679318916	37.33000080103623	2.15
C 	37.45931590974911	37.86653471831845	2.15
C 	37.65203202260582	39.2733966517879	2.15
C 	38.96676825303602	39.809930569070126	2.15
C 	39.15948436589274	41.216792502539576	2.15
C 	40.47422059632292	41.7533264198218	2.15
C 	40.66693670917964	43.160188353291254	2.15
C 	41.98167293960983	43.69672227057347	2.15
C 	42.17438905246654	45.10358420404292	2.15
C 	43.48912528289673	45.640118121325145	2.15
C 	5.066228808864057	0.7392737356594432	2.15
C 	6.38096503929425	1.2758076529416664	2.15
C 	6.573681152150963	2.6826695864111163	2.15
C 	7.888417382581156	3.2192035036933393	2.15
C 	8.081133495437868	4.626065437162789	2.15
C 	9.39586972586806	5.162599354445012	2.15
C 	9.588585838724772	6.569461287914462	2.15
C 	10.903322069154964	7.1059952051966855	2.15
C 	11.096038182011675	8.512857138666135	2.15
C 	12.410774412441869	9.049391055948359	2.15
C 	12.60349052529858	10.45625298941781	2.15
C 	13.918226755728773	10.992786906700031	2.15
C 	14.110942868585486	12.399648840169482	2.15
C 	15.425679099015678	12.936182757451704	2.15
C 	15.61839521187239	14.343044690921154	2.15
C 	16.93313144230258	14.879578608203378	2.15
C 	17.125847555159293	16.286440541672825	2.15
C 	18.44058378558949	16.822974458955056	2.15
C 	18.6332998984462	18.229836392424502	2.15
C 	19.948036128876392	18.766370309706723	2.15
C 	20.140752241733107	20.173232243176173	2.15
C 	21.455488472163296	20.709766160458397	2.15
C 	21.64820458502001	22.116628093927847	2.15
C 	22.9629408154502	22.653162011210075	2.15
C 	23.15565692830691	24.06002394467952	2.15
C 	24.470393158737107	24.59655786196174	2.15
C 	24.663109271593818	26.003419795431196	2.15
C 	25.97784550202401	26.53995371271342	2.15
C 	26.17056161488072	27.946815646182866	2.15
C 	27.485297845310917	28.483349563465094	2.15
C 	27.67801395816763	29.890211496934548	2.15
C 	28.99275018859782	30.426745414216764	2.15
C 	29.185466301454532	31.833607347686215	2.15
C 	30.500202531884728	32.37014126496844	2.15
C 	30.69291864474144	33.77700319843788	2.15
C 	32.00765487517163	34.31353711572011	2.15
C 	32.20037098802834	35.72039904918955	2.15
C 	33.51510721845853	36.25693296647178	2.15
C 	33.70782333131525	37.66379489994124	2.15
C 	35.02255956174544	38.20032881722346	2.15
C 	35.215275674602154	39.6071907506929	2.15
C 	36.53001190503234	40.14372466797513	2.15
C 	36.722728017889054	41.55058660144457	2.15
C 	38.03746424831925	42.087120518726806	2.15
C 	38.23018036117597	43.493982452196256	2.15
C 	39.54491659160616	44.03051636947848	2.15
C 	39.73763270446287	45.43737830294792	2.15
C 	41.05236893489306	45.97391222023015	2.15
C 	2.4367563480036725	-0.33379409890500333	2.15
C 	2.6294724608603848	1.0730678345644464	2.15
C 	3.944208691290578	1.6096017518466696	2.15
C 	4.13692480414729	3.0164636853161197	2.15
C 	5.451661034577482	3.5529976025983427	2.15
C 	5.644377147434194	4.959859536067793	2.15
C 	6.959113377864386	5.496393453350016	2.15
C 	7.151829490721099	6.903255386819466	2.15
C 	8.46656572115129	7.439789304101689	2.15
C 	8.659281834008004	8.846651237571137	2.15
C 	9.974018064438196	9.383185154853361	2.15
C 	10.16673417729491	10.790047088322813	2.15
C 	11.4814704077251	11.326581005605037	2.15
C 	11.674186520581813	12.733442939074486	2.15
C 	12.988922751012005	13.26997685635671	2.15
C 	13.181638863868717	14.676838789826157	2.15
C 	14.49637509429891	15.213372707108382	2.15
C 	14.689091207155622	16.62023464057783	2.15
C 	16.003827437585816	17.156768557860055	2.15
C 	16.196543550442527	18.5636304913295	2.15
C 	17.51127978087272	19.10016440861173	2.15
C 	17.70399589372943	20.50702634208118	2.15
C 	19.018732124159627	21.043560259363403	2.15
C 	19.211448237016338	22.45042219283285	2.15
C 	20.52618446744653	22.986956110115074	2.15
C 	20.71890058030324	24.39381804358452	2.15
C 	22.033636810733434	24.930351960866748	2.15
C 	22.226352923590145	26.337213894336198	2.15
C 	23.541089154020337	26.873747811618422	2.15
C 	23.73380526687705	28.28060974508787	2.15
C 	25.048541497307244	28.817143662370093	2.15
C 	25.241257610163956	30.224005595839543	2.15
C 	26.555993840594148	30.760539513121767	2.15
C 	26.74870995345086	32.16740144659122	2.15
C 	28.06344618388105	32.703935363873434	2.15
C 	28.256162296737767	34.110797297342884	2.15
C 	29.570898527167955	34.64733121462511	2.15
C 	29.76361464002467	36.05419314809456	2.15
C 	31.078350870454862	36.59072706537678	2.15
C 	31.271066983311574	37.99758899884623	2.15
C 	32.58580321374176	38.53412291612845	2.15
C 	32.77851932659848	39.9409848495979	2.15
C 	34.09325555702867	40.47751876688013	2.15
C 	34.285971669885384	41.88438070034958	2.15
C 	35.60070790031558	42.4209146176318	2.15
C 	35.793424013172285	43.82777655110125	2.15
C 	37.108160243602484	44.36431046838347	2.15
C 	37.30087635645919	45.77117240185293	2.15
C 	38.61561258688939	46.30770631913515	2.15
C 	1.5074523432869047	1.943395850751673	2.15
C 	1.7001684561436168	3.3502577842211227	2.15
C 	3.0149046865738094	3.886791701503346	2.15
C 	3.2076207994305213	5.293653634972796	2.15
C 	4.522357029860714	5.830187552255019	2.15
C 	4.715073142717427	7.237049485724469	2.15
C 	6.029809373147619	7.773583403006692	2.15
C 	6.222525486004331	9.180445336476142	2.15
C 	7.537261716434523	9.716979253758364	2.15
C 	7.729977829291236	11.123841187227814	2.15
C 	9.044714059721429	11.660375104510038	2.15
C 	9.237430172578142	13.067237037979488	2.15
C 	10.552166403008334	13.603770955261712	2.15
C 	10.744882515865045	15.01063288873116	2.15
C 	12.059618746295238	15.547166806013385	2.15
C 	12.252334859151949	16.954028739482837	2.15
C 	13.567071089582141	17.490562656765057	2.15
C 	13.759787202438854	18.897424590234504	2.15
C 	15.074523432869047	19.433958507516728	2.15
C 	15.267239545725758	20.84082044098618	2.15
C 	16.58197577615595	21.377354358268406	2.15
C 	16.774691889012665	22.784216291737856	2.15
C 	18.089428119442857	23.320750209020076	2.15
C 	18.28214423229957	24.727612142489527	2.15
C 	19.59688046272976	25.26414605977175	2.15
C 	19.789596575586476	26.6710079932412	2.15
C 	21.104332806016668	27.207541910523425	2.15
C 	21.29704891887338	28.614403843992875	2.15
C 	22.61178514930357	29.1509377612751	2.15
C 	22.804501262160283	30.557799694744546	2.15
C 	24.119237492590475	31.09433361202677	2.15
C 	24.311953605447187	32.50119554549622	2.15
C 	25.626689835877382	33.037729462778444	2.15
C 	25.819405948734094	34.444591396247894	2.15
C 	27.134142179164282	34.981125313530114	2.15
C 	27.326858292020997	36.387987246999565	2.15
C 	28.64159452245119	36.92452116428179	2.15
C 	28.8343106353079	38.33138309775124	2.15
C 	30.149046865738093	38.867917015033456	2.15
C 	30.341762978594804	40.27477894850291	2.15
C 	31.656499209025	40.81131286578513	2.15
C 	31.84921532188171	42.218174799254584	2.15
C 	33.1639515523119	42.75470871653681	2.15
C 	33.356667665168615	44.16157065000626	2.15
C 	34.67140389559881	44.69810456728848	2.15
C 	34.864120008455515	46.10496650075793	2.15
C 	36.178856238885714	46.64150041804015	2.15
C 	9.622862398291566	15.880960904918387	2.15
C 	9.815578511148278	17.28782283838784	2.15
C 	11.13031474157847	17.82435675567006	2.15
C 	11.323030854435183	19.231218689139514	2.15
C 	12.637767084865374	19.767752606421734	2.15
C 	12.830483197722085	21.174614539891184	2.15
C 	14.145219428152277	21.711148457173405	2.15
C 	14.33793554100899	23.118010390642855	2.15
C 	15.652671771439183	23.65454430792508	2.15
C 	15.845387884295896	25.061406241394533	2.15
C 	17.160124114726088	25.597940158676753	2.15
C 	17.352840227582803	27.004802092146203	2.15
C 	18.667576458012995	27.541336009428424	2.15
C 	18.860292570869706	28.948197942897878	2.15
C 	20.1750288012999	29.4847318601801	2.15
C 	20.36774491415661	30.891593793649548	2.15
C 	21.682481144586806	31.428127710931772	2.15
C 	21.875197257443517	32.834989644401226	2.15
C 	23.18993348787371	33.371523561683446	2.15
C 	23.38264960073042	34.7783854951529	2.15
C 	24.69738583116061	35.314919412435124	2.15
C 	24.890101944017324	36.72178134590457	2.15
C 	26.204838174447517	37.258315263186795	2.15
C 	26.397554287304228	38.66517719665624	2.15
C 	27.71229051773442	39.201711113938465	2.15
C 	27.90500663059113	40.608573047407916	2.15
C 	29.219742861021327	41.145106964690136	2.15
C 	29.41245897387804	42.55196889815958	2.15
C 	30.72719520430823	43.088502815441814	2.15
C 	30.919911317164942	44.49536474891126	2.15
C 	32.23464754759514	45.03189866619349	2.15
C 	17.738272453296226	29.8185259590851	2.15
C 	17.930988566152937	31.22538789255455	2.15
C 	19.245724796583133	31.761921809836775	2.15
C 	19.438440909439844	33.16878374330623	2.15
C 	20.753177139870036	33.70531766058845	2.15
C 	20.945893252726748	35.1121795940579	2.15
C 	22.26062948315694	35.64871351134012	2.15
C 	22.453345596013655	37.05557544480957	2.15
C 	23.768081826443844	37.5921093620918	2.15
C 	23.960797939300555	38.99897129556125	2.15
C 	25.275534169730747	39.53550521284347	2.15
C 	25.46825028258746	40.94236714631292	2.15
C 	26.782986513017654	41.47890106359514	2.15
C 	26.975702625874366	42.88576299706459	2.15
C 	28.290438856304554	43.42229691434681	2.15
C 	28.48315496916127	44.82915884781626	2.15
C 	29.79789119959146	45.36569276509849	2.15
C 	24.34623016501398	41.81269516250014	2.15
C 	24.538946277870693	43.2195570959696	2.15
C 	25.853682508300885	43.75609101325182	2.15
C 	26.046398621157596	45.16295294672127	2.15
C 	27.36113485158779	45.69948686400349	2.15
H 	53.30227012883748	-0.5187476384894669	2.15
H 	55.62620529671058	0.4296327364248851	2.15
H 	57.13365763999748	2.373028587176562	2.15
H 	58.64110998328438	4.316424437928227	2.15
H 	58.98175607009448	6.803201517511563	2.15
H 	50.86551378083381	-0.18495353958446392	2.15
H 	59.219258321854504	8.537010238336569	2.15
H 	60.726710665141425	10.480406089088254	2.15
H 	62.234163008428325	12.423801939839915	2.15
H 	63.74161535171523	14.367197790591597	2.15
H 	65.24906769500214	16.31059364134327	2.15
H 	65.58971378181224	18.797370720926594	2.15
H 	46.921305089543246	-1.7945552914311382	2.15
H 	49.24524025741632	-0.8461749165167887	2.15
H 	65.82721603357226	20.531179441751615	2.15
H 	67.33466837685918	22.474575292503296	2.15
H 	68.8421207201461	24.41797114325497	2.15
H 	70.34957306343298	26.36136699400663	2.15
H 	71.85702540671988	28.3047628447583	2.15
H 	73.36447775000681	30.24815869551	2.15
H 	73.7051238368169	32.734935775093334	2.15
H 	44.484548741539555	-1.4607611925261341	2.15
H 	73.94262608857693	34.46874449591832	2.15
H 	75.45007843186386	36.41214034667001	2.15
H 	75.79072451867395	38.89891742625332	2.15
H 	42.047792393535886	-1.1269670936211307	2.15
H 	74.86142051395717	41.176107375910014	2.15
H 	39.6110360455322	-0.7931729947161259	2.15
H 	73.93211650924043	43.45329732556666	2.15
H 	37.17427969752854	-0.4593788958111239	2.15
H 	73.00281250452365	45.730487275223375	2.15
H 	33.230071006237985	-2.068980647657792	2.15
H 	35.55400617411106	-1.1206002727434448	2.15
H 	71.01952342346067	47.26888397989233	2.15
H 	30.793314658234298	-1.7351865487527935	2.15
H 	68.58276707545697	47.60267807879733	2.15
H 	28.356558310230607	-1.4013924498477848	2.15
H 	63.822075559580234	46.988091802787984	2.15
H 	66.14601072745334	47.936472177702335	2.15
H 	25.91980196222695	-1.0675983509427793	2.15
H 	62.201802036162746	46.326870425855674	2.15
H 	23.483045614223283	-0.7338042520377834	2.15
H 	59.765045688159056	46.660664524760676	2.15
H 	21.046289266219603	-0.4000101531327779	2.15
H 	57.3282893401554	46.99445862366567	2.15
H 	17.102080574929026	-2.0096119049794465	2.15
H 	19.426015742802118	-1.0612315300650945	2.15
H 	54.891532992151724	47.32825272257068	2.15
H 	14.665324226925355	-1.6758178060744437	2.15
H 	52.45477664414803	47.662046821475684	2.15
H 	12.228567878921677	-1.3420237071694396	2.15
H 	47.69408512827129	47.047460545466336	2.15
H 	50.01802029614439	47.99584092038068	2.15
H 	9.791811530918004	-1.0082296082644364	2.15
H 	46.07381160485378	46.386239168534026	2.15
H 	7.355055182914339	-0.6744355093594336	2.15
H 	43.637055256850125	46.72003326743902	2.15
H 	4.918298834910665	-0.3406414104544302	2.15
H 	41.200298908846456	47.053827366344024	2.15
H 	38.763542560842794	47.38762146524902	2.15
H 	0.49825340584401	1.531549393119544	2.15
H 	0.8388994926541141	4.018326472702867	2.15
H 	2.3463518359410185	5.9617223234545405	2.15
H 	3.8538041792279243	7.905118174206214	2.15
H 	5.361256522514829	9.848514024957886	2.15
H 	6.868708865801733	11.791909875709559	2.15
H 	8.37616120908864	13.735305726461233	2.15
H 	34.00285104496601	46.77303518923967	2.15
H 	36.32678621283911	47.72141556415403	2.15
H 	8.613663460848672	15.469114447286257	2.15
H 	8.954309547658777	17.955891526869586	2.15
H 	10.461761890945686	19.899287377621263	2.15
H 	11.969214234232584	21.84268322837293	2.15
H 	13.476666577519486	23.786079079124598	2.15
H 	14.984118920806399	25.729474929876282	2.15
H 	16.491571264093302	27.67287078062795	2.15
H 	32.38257752154853	46.11181381230737	2.15
H 	16.729073515853333	29.406679501452967	2.15
H 	17.069719602663433	31.893456581036297	2.15
H 	18.577171945950344	33.836852431787975	2.15
H 	20.084624289237247	35.780248282539645	2.15
H 	21.592076632524158	37.72364413329132	2.15
H 	23.099528975811054	39.667039984042994	2.15
H 	29.945821173544854	46.44560791121236	2.15
H 	23.33703122757109	41.40084870486801	2.15
H 	23.677677314381192	43.887625784451345	2.15
H 	25.185129657668096	45.831021635203015	2.15
H 	27.509064825541177	46.779402010117366	2.15
