2306

C 	0.0	0.0	0.0
C 	1.2297560733739028	0.7099999999999999	0.0
C 	2.4595121467478056	-2.3647750424515833e-16	0.0
C 	3.689268220121708	0.7099999999999995	0.0
C 	4.919024293495611	-4.729550084903167e-16	0.0
C 	6.148780366869514	0.7099999999999993	0.0
C 	7.378536440243416	-7.09432512735475e-16	0.0
C 	8.60829251361732	0.7099999999999991	0.0
C 	9.838048586991222	-9.459100169806333e-16	0.0
C 	11.067804660365125	0.7099999999999989	0.0
C 	12.297560733739026	-1.1823875212257916e-15	0.0
C 	13.527316807112928	0.7099999999999986	0.0
C 	14.757072880486833	-1.41886502547095e-15	0.0
C 	15.986828953860735	0.7099999999999984	0.0
C 	17.21658502723464	-7.671641100159832e-16	0.0
C 	18.44634110060854	0.7099999999999982	0.0
C 	19.676097173982445	-1.8918200339612667e-15	0.0
C 	20.905853247356347	0.7099999999999989	0.0
C 	22.135609320730246	-2.128297538206425e-15	0.0
C 	23.36536539410415	0.7099999999999967	0.0
C 	24.59512146747805	-2.364775042451583e-15	0.0
C 	25.824877540851954	0.7099999999999983	0.0
C 	27.05463361422586	-8.248957072964913e-16	0.0
C 	28.284389687599763	0.7099999999999999	0.0
C 	29.514145760973665	-2.8377300509419e-15	0.0
C 	30.743901834347565	0.7099999999999961	0.0
C 	31.97365790772147	-3.0742075551870582e-15	0.0
C 	33.20341398109537	0.7099999999999976	0.0
C 	34.43317005446928	-1.5343282200319664e-15	0.0
C 	35.66292612784318	0.7099999999999992	0.0
C 	36.892682201217085	-1.7708057242771246e-15	0.0
C 	38.122438274590984	0.7099999999999972	0.0
C 	39.35219434796489	-3.783640067922533e-15	0.0
C 	40.58195042133879	0.7099999999999969	0.0
C 	41.811706494712695	-4.67403893367191e-16	0.0
C 	43.0414625680866	0.7100000000000002	0.0
C 	44.27121864146049	-4.25659507641285e-15	0.0
C 	45.5009747148344	0.7099999999999964	0.0
C 	46.730730788208305	-9.403589018575075e-16	0.0
C 	47.96048686158221	0.7099999999999997	0.0
C 	49.1902429349561	-4.729550084903166e-15	0.0
C 	50.41999900833001	0.709999999999996	0.0
C 	51.64975508170391	-1.413313910347824e-15	0.0
C 	52.879511155077815	0.7099999999999993	0.0
C 	54.10926722845172	-1.6497914145929826e-15	0.0
C 	55.33902330182562	0.7099999999999991	0.0
C 	56.56877937519952	-5.438982597638641e-15	0.0
C 	57.798535448573425	0.7099999999999953	0.0
C 	59.02829152194733	-5.6754601018838e-15	0.0
C 	60.25804759532124	0.709999999999995	0.0
C 	1.2297560733739028	2.1299999999999994	0.0
C 	2.4595121467478056	2.8399999999999994	0.0
C 	3.689268220121708	2.1299999999999994	0.0
C 	4.919024293495611	2.8399999999999994	0.0
C 	6.148780366869514	2.129999999999999	0.0
C 	7.378536440243416	2.839999999999999	0.0
C 	8.60829251361732	2.1299999999999986	0.0
C 	9.838048586991222	2.8399999999999985	0.0
C 	11.067804660365123	2.129999999999998	0.0
C 	12.297560733739028	2.839999999999999	0.0
C 	13.527316807112928	2.1299999999999977	0.0
C 	14.757072880486833	2.839999999999998	0.0
C 	15.986828953860735	2.129999999999998	0.0
C 	17.216585027234636	2.839999999999997	0.0
C 	18.446341100608542	2.129999999999998	0.0
C 	19.676097173982445	2.8399999999999985	0.0
C 	20.905853247356344	2.1299999999999977	0.0
C 	22.13560932073025	2.8399999999999985	0.0
C 	23.36536539410415	2.129999999999997	0.0
C 	24.595121467478055	2.839999999999997	0.0
C 	25.824877540851954	2.1299999999999963	0.0
C 	27.05463361422586	2.839999999999997	0.0
C 	28.284389687599763	2.129999999999998	0.0
C 	29.514145760973665	2.8399999999999985	0.0
C 	30.743901834347568	2.129999999999996	0.0
C 	31.97365790772147	2.8399999999999967	0.0
C 	33.20341398109537	2.129999999999996	0.0
C 	34.43317005446928	2.8399999999999963	0.0
C 	35.66292612784318	2.1299999999999972	0.0
C 	36.89268220121708	2.8399999999999963	0.0
C 	38.122438274590984	2.129999999999997	0.0
C 	39.35219434796489	2.8399999999999976	0.0
C 	40.58195042133879	2.1299999999999986	0.0
C 	41.81170649471269	2.839999999999996	0.0
C 	43.0414625680866	2.129999999999998	0.0
C 	44.2712186414605	2.8399999999999954	0.0
C 	45.5009747148344	2.129999999999998	0.0
C 	46.7307307882083	2.8399999999999954	0.0
C 	47.96048686158221	2.1299999999999977	0.0
C 	49.19024293495611	2.839999999999995	0.0
C 	50.41999900833001	2.1299999999999977	0.0
C 	51.64975508170391	2.8399999999999945	0.0
C 	52.879511155077815	2.1299999999999972	0.0
C 	54.10926722845171	2.8399999999999945	0.0
C 	55.33902330182563	2.130000000000001	0.0
C 	56.56877937519952	2.8399999999999976	0.0
C 	57.798535448573425	2.129999999999997	0.0
C 	59.028291521947324	2.839999999999994	0.0
C 	60.25804759532124	2.129999999999997	0.0
C 	61.487803668695136	2.8399999999999936	0.0
C 	2.4595121467478056	4.259999999999999	0.0
C 	3.689268220121708	4.969999999999999	0.0
C 	4.919024293495611	4.259999999999999	0.0
C 	6.148780366869514	4.969999999999999	0.0
C 	7.378536440243416	4.259999999999999	0.0
C 	8.60829251361732	4.969999999999999	0.0
C 	9.83804858699122	4.259999999999998	0.0
C 	11.067804660365125	4.969999999999999	0.0
C 	12.297560733739028	4.259999999999998	0.0
C 	13.52731680711293	4.969999999999998	0.0
C 	14.757072880486831	4.259999999999998	0.0
C 	15.986828953860735	4.969999999999998	0.0
C 	17.21658502723464	4.259999999999997	0.0
C 	18.446341100608542	4.969999999999998	0.0
C 	19.676097173982445	4.259999999999999	0.0
C 	20.905853247356347	4.969999999999997	0.0
C 	22.135609320730246	4.259999999999996	0.0
C 	23.365365394104153	4.969999999999997	0.0
C 	24.595121467478055	4.259999999999998	0.0
C 	25.824877540851958	4.969999999999997	0.0
C 	27.054633614225857	4.259999999999995	0.0
C 	28.28438968759976	4.969999999999996	0.0
C 	29.514145760973665	4.259999999999997	0.0
C 	30.743901834347568	4.969999999999997	0.0
C 	31.97365790772147	4.259999999999996	0.0
C 	33.20341398109537	4.969999999999995	0.0
C 	34.43317005446927	4.2599999999999945	0.0
C 	35.66292612784318	4.969999999999995	0.0
C 	36.892682201217085	4.259999999999996	0.0
C 	38.122438274590984	4.969999999999997	0.0
C 	39.35219434796489	4.259999999999997	0.0
C 	40.58195042133879	4.969999999999994	0.0
C 	41.81170649471269	4.259999999999995	0.0
C 	43.041462568086594	4.969999999999996	0.0
C 	44.2712186414605	4.259999999999997	0.0
C 	45.500974714834406	4.969999999999998	0.0
C 	46.7307307882083	4.259999999999994	0.0
C 	47.960486861582204	4.9699999999999935	0.0
C 	49.19024293495611	4.259999999999996	0.0
C 	50.41999900833001	4.969999999999997	0.0
C 	51.64975508170391	4.259999999999993	0.0
C 	52.879511155077815	4.9699999999999935	0.0
C 	54.10926722845171	4.259999999999996	0.0
C 	55.33902330182562	4.969999999999997	0.0
C 	56.568779375199526	4.259999999999996	0.0
C 	57.798535448573425	4.969999999999996	0.0
C 	59.028291521947324	4.259999999999995	0.0
C 	60.25804759532123	4.969999999999996	0.0
C 	61.487803668695136	4.259999999999992	0.0
C 	62.717559742069035	4.969999999999993	0.0
C 	3.6892682201217086	6.389999999999999	0.0
C 	4.919024293495611	7.099999999999999	0.0
C 	6.148780366869514	6.389999999999999	0.0
C 	7.378536440243416	7.099999999999999	0.0
C 	8.608292513617318	6.389999999999998	0.0
C 	9.838048586991222	7.099999999999999	0.0
C 	11.067804660365125	6.389999999999998	0.0
C 	12.297560733739028	7.099999999999998	0.0
C 	13.52731680711293	6.389999999999999	0.0
C 	14.757072880486833	7.099999999999998	0.0
C 	15.986828953860735	6.389999999999998	0.0
C 	17.216585027234636	7.099999999999997	0.0
C 	18.44634110060854	6.389999999999997	0.0
C 	19.676097173982445	7.099999999999998	0.0
C 	20.905853247356347	6.389999999999998	0.0
C 	22.13560932073025	7.099999999999997	0.0
C 	23.365365394104153	6.389999999999998	0.0
C 	24.59512146747805	7.099999999999997	0.0
C 	25.824877540851958	6.389999999999998	0.0
C 	27.054633614225857	7.099999999999997	0.0
C 	28.28438968759976	6.389999999999999	0.0
C 	29.514145760973662	7.099999999999997	0.0
C 	30.743901834347568	6.389999999999999	0.0
C 	31.97365790772147	7.099999999999998	0.0
C 	33.20341398109537	6.389999999999995	0.0
C 	34.43317005446928	7.099999999999994	0.0
C 	35.66292612784318	6.389999999999995	0.0
C 	36.892682201217085	7.099999999999996	0.0
C 	38.122438274590984	6.389999999999996	0.0
C 	39.35219434796489	7.099999999999997	0.0
C 	40.58195042133879	6.389999999999994	0.0
C 	41.811706494712695	7.099999999999995	0.0
C 	43.041462568086594	6.389999999999996	0.0
C 	44.2712186414605	7.099999999999997	0.0
C 	45.500974714834406	6.389999999999998	0.0
C 	46.730730788208305	7.099999999999998	0.0
C 	47.960486861582204	6.389999999999995	0.0
C 	49.19024293495611	7.099999999999996	0.0
C 	50.41999900833001	6.389999999999995	0.0
C 	51.649755081703915	7.099999999999996	0.0
C 	52.879511155077815	6.389999999999995	0.0
C 	54.10926722845172	7.099999999999996	0.0
C 	55.33902330182562	6.389999999999995	0.0
C 	56.568779375199526	7.099999999999995	0.0
C 	57.79853544857343	6.389999999999998	0.0
C 	59.02829152194733	7.099999999999999	0.0
C 	60.25804759532123	6.389999999999994	0.0
C 	61.487803668695136	7.099999999999995	0.0
C 	62.71755974206904	6.389999999999994	0.0
C 	63.94731581544294	7.099999999999995	0.0
C 	4.919024293495611	8.519999999999998	0.0
C 	6.148780366869514	9.229999999999999	0.0
C 	7.378536440243416	8.519999999999998	0.0
C 	8.60829251361732	9.229999999999999	0.0
C 	9.838048586991222	8.519999999999998	0.0
C 	11.067804660365125	9.229999999999999	0.0
C 	12.297560733739028	8.519999999999998	0.0
C 	13.52731680711293	9.229999999999997	0.0
C 	14.757072880486833	8.519999999999998	0.0
C 	15.986828953860737	9.229999999999999	0.0
C 	17.216585027234636	8.519999999999998	0.0
C 	18.44634110060854	9.229999999999997	0.0
C 	19.67609717398244	8.519999999999996	0.0
C 	20.905853247356347	9.229999999999997	0.0
C 	22.13560932073025	8.519999999999998	0.0
C 	23.365365394104153	9.229999999999999	0.0
C 	24.595121467478055	8.519999999999996	0.0
C 	25.824877540851954	9.229999999999995	0.0
C 	27.05463361422586	8.519999999999996	0.0
C 	28.284389687599763	9.229999999999997	0.0
C 	29.514145760973662	8.519999999999996	0.0
C 	30.743901834347565	9.229999999999995	0.0
C 	31.97365790772147	8.52	0.0
C 	33.20341398109537	9.229999999999997	0.0
C 	34.43317005446928	8.519999999999994	0.0
C 	35.66292612784318	9.229999999999995	0.0
C 	36.89268220121708	8.519999999999992	0.0
C 	38.122438274590984	9.229999999999993	0.0
C 	39.35219434796489	8.519999999999998	0.0
C 	40.58195042133879	9.229999999999995	0.0
C 	41.811706494712695	8.519999999999994	0.0
C 	43.0414625680866	9.229999999999995	0.0
C 	44.27121864146049	8.519999999999992	0.0
C 	45.5009747148344	9.229999999999993	0.0
C 	46.730730788208305	8.519999999999998	0.0
C 	47.960486861582204	9.229999999999995	0.0
C 	49.19024293495611	8.519999999999996	0.0
C 	50.41999900833001	9.229999999999993	0.0
C 	51.64975508170391	8.519999999999994	0.0
C 	52.879511155077815	9.229999999999995	0.0
C 	54.10926722845171	8.51999999999999	0.0
C 	55.33902330182562	9.229999999999992	0.0
C 	56.568779375199526	8.519999999999998	0.0
C 	57.798535448573425	9.229999999999995	0.0
C 	59.02829152194733	8.519999999999994	0.0
C 	60.25804759532123	9.229999999999993	0.0
C 	61.48780366869513	8.519999999999992	0.0
C 	62.717559742069035	9.229999999999993	0.0
C 	63.94731581544294	8.519999999999992	0.0
C 	65.17707188881684	9.22999999999999	0.0
C 	6.148780366869514	10.649999999999997	0.0
C 	7.378536440243416	11.359999999999998	0.0
C 	8.608292513617318	10.649999999999997	0.0
C 	9.838048586991222	11.359999999999998	0.0
C 	11.067804660365125	10.649999999999997	0.0
C 	12.297560733739028	11.359999999999996	0.0
C 	13.52731680711293	10.649999999999997	0.0
C 	14.757072880486831	11.359999999999996	0.0
C 	15.986828953860735	10.649999999999997	0.0
C 	17.216585027234636	11.359999999999996	0.0
C 	18.44634110060854	10.649999999999997	0.0
C 	19.676097173982445	11.359999999999998	0.0
C 	20.905853247356347	10.649999999999997	0.0
C 	22.13560932073025	11.359999999999996	0.0
C 	23.365365394104153	10.649999999999997	0.0
C 	24.595121467478055	11.359999999999996	0.0
C 	25.824877540851958	10.649999999999997	0.0
C 	27.05463361422586	11.359999999999996	0.0
C 	28.284389687599763	10.649999999999995	0.0
C 	29.514145760973662	11.359999999999994	0.0
C 	30.743901834347565	10.649999999999995	0.0
C 	31.97365790772147	11.359999999999996	0.0
C 	33.20341398109537	10.649999999999997	0.0
C 	34.43317005446928	11.359999999999998	0.0
C 	35.66292612784318	10.649999999999991	0.0
C 	36.89268220121708	11.359999999999992	0.0
C 	38.122438274590984	10.649999999999993	0.0
C 	39.35219434796489	11.359999999999994	0.0
C 	40.58195042133879	10.649999999999993	0.0
C 	41.811706494712695	11.359999999999994	0.0
C 	43.041462568086594	10.649999999999991	0.0
C 	44.2712186414605	11.359999999999992	0.0
C 	45.5009747148344	10.649999999999993	0.0
C 	46.730730788208305	11.359999999999994	0.0
C 	47.960486861582204	10.649999999999995	0.0
C 	49.19024293495611	11.359999999999996	0.0
C 	50.41999900833001	10.649999999999993	0.0
C 	51.649755081703915	11.359999999999994	0.0
C 	52.879511155077815	10.649999999999995	0.0
C 	54.10926722845172	11.359999999999996	0.0
C 	55.33902330182562	10.649999999999993	0.0
C 	56.568779375199526	11.359999999999994	0.0
C 	57.798535448573425	10.649999999999993	0.0
C 	59.02829152194733	11.359999999999992	0.0
C 	60.25804759532124	10.649999999999995	0.0
C 	61.487803668695136	11.359999999999996	0.0
C 	62.717559742069035	10.649999999999991	0.0
C 	63.94731581544294	11.359999999999992	0.0
C 	65.17707188881684	10.649999999999991	0.0
C 	66.40682796219075	11.359999999999992	0.0
C 	7.378536440243417	12.779999999999998	0.0
C 	8.60829251361732	13.489999999999998	0.0
C 	9.838048586991222	12.78	0.0
C 	11.067804660365125	13.489999999999997	0.0
C 	12.297560733739028	12.779999999999998	0.0
C 	13.527316807112932	13.489999999999998	0.0
C 	14.757072880486833	12.779999999999998	0.0
C 	15.986828953860737	13.489999999999997	0.0
C 	17.216585027234636	12.779999999999996	0.0
C 	18.446341100608542	13.489999999999997	0.0
C 	19.676097173982445	12.779999999999998	0.0
C 	20.905853247356347	13.489999999999997	0.0
C 	22.13560932073025	12.779999999999996	0.0
C 	23.36536539410415	13.489999999999995	0.0
C 	24.595121467478055	12.779999999999996	0.0
C 	25.824877540851958	13.489999999999997	0.0
C 	27.05463361422586	12.779999999999998	0.0
C 	28.284389687599763	13.489999999999997	0.0
C 	29.514145760973662	12.779999999999996	0.0
C 	30.743901834347568	13.489999999999997	0.0
C 	31.97365790772147	12.779999999999996	0.0
C 	33.20341398109537	13.489999999999997	0.0
C 	34.43317005446928	12.779999999999998	0.0
C 	35.66292612784318	13.489999999999995	0.0
C 	36.89268220121708	12.779999999999994	0.0
C 	38.122438274590984	13.489999999999995	0.0
C 	39.35219434796489	12.779999999999996	0.0
C 	40.581950421338796	13.489999999999997	0.0
C 	41.811706494712695	12.779999999999996	0.0
C 	43.041462568086594	13.489999999999993	0.0
C 	44.2712186414605	12.779999999999994	0.0
C 	45.5009747148344	13.489999999999995	0.0
C 	46.730730788208305	12.779999999999996	0.0
C 	47.96048686158221	13.489999999999997	0.0
C 	49.19024293495611	12.779999999999998	0.0
C 	50.41999900833001	13.489999999999995	0.0
C 	51.649755081703915	12.779999999999996	0.0
C 	52.879511155077815	13.489999999999993	0.0
C 	54.10926722845172	12.779999999999998	0.0
C 	55.33902330182563	13.489999999999998	0.0
C 	56.56877937519952	12.779999999999998	0.0
C 	57.798535448573425	13.489999999999997	0.0
C 	59.02829152194733	12.779999999999994	0.0
C 	60.25804759532123	13.489999999999991	0.0
C 	61.487803668695136	12.779999999999998	0.0
C 	62.71755974206904	13.489999999999998	0.0
C 	63.94731581544294	12.779999999999994	0.0
C 	65.17707188881684	13.489999999999995	0.0
C 	66.40682796219075	12.77999999999999	0.0
C 	67.63658403556465	13.489999999999988	0.0
C 	8.60829251361732	14.909999999999998	0.0
C 	9.838048586991222	15.619999999999996	0.0
C 	11.067804660365125	14.909999999999997	0.0
C 	12.297560733739026	15.619999999999996	0.0
C 	13.527316807112934	14.909999999999998	0.0
C 	14.757072880486831	15.619999999999996	0.0
C 	15.986828953860737	14.909999999999998	0.0
C 	17.21658502723464	15.619999999999997	0.0
C 	18.446341100608542	14.909999999999997	0.0
C 	19.676097173982445	15.619999999999996	0.0
C 	20.905853247356347	14.909999999999997	0.0
C 	22.135609320730246	15.619999999999996	0.0
C 	23.365365394104153	14.909999999999995	0.0
C 	24.595121467478055	15.619999999999996	0.0
C 	25.824877540851958	14.909999999999997	0.0
C 	27.05463361422586	15.619999999999996	0.0
C 	28.284389687599763	14.909999999999997	0.0
C 	29.514145760973665	15.619999999999996	0.0
C 	30.743901834347568	14.909999999999997	0.0
C 	31.973657907721474	15.619999999999997	0.0
C 	33.203413981095366	14.909999999999993	0.0
C 	34.43317005446927	15.619999999999994	0.0
C 	35.662926127843185	14.909999999999998	0.0
C 	36.892682201217085	15.619999999999996	0.0
C 	38.122438274590984	14.909999999999995	0.0
C 	39.35219434796489	15.619999999999996	0.0
C 	40.58195042133879	14.909999999999993	0.0
C 	41.811706494712695	15.619999999999994	0.0
C 	43.0414625680866	14.909999999999998	0.0
C 	44.2712186414605	15.619999999999996	0.0
C 	45.5009747148344	14.909999999999995	0.0
C 	46.730730788208305	15.619999999999996	0.0
C 	47.960486861582204	14.909999999999993	0.0
C 	49.19024293495611	15.619999999999994	0.0
C 	50.41999900833002	14.909999999999998	0.0
C 	51.649755081703915	15.619999999999996	0.0
C 	52.87951115507782	14.909999999999997	0.0
C 	54.10926722845171	15.619999999999994	0.0
C 	55.33902330182562	14.909999999999995	0.0
C 	56.568779375199526	15.619999999999994	0.0
C 	57.798535448573425	14.909999999999991	0.0
C 	59.028291521947324	15.619999999999992	0.0
C 	60.25804759532124	14.909999999999998	0.0
C 	61.487803668695136	15.619999999999996	0.0
C 	62.717559742069035	14.909999999999993	0.0
C 	63.94731581544294	15.619999999999994	0.0
C 	65.17707188881684	14.909999999999993	0.0
C 	66.40682796219075	15.619999999999994	0.0
C 	67.63658403556465	14.909999999999997	0.0
C 	68.86634010893854	15.61999999999999	0.0
C 	9.838048586991222	17.039999999999996	0.0
C 	11.067804660365127	17.749999999999996	0.0
C 	12.297560733739028	17.039999999999996	0.0
C 	13.527316807112932	17.749999999999996	0.0
C 	14.757072880486833	17.039999999999996	0.0
C 	15.986828953860735	17.749999999999996	0.0
C 	17.21658502723464	17.039999999999996	0.0
C 	18.446341100608546	17.749999999999996	0.0
C 	19.676097173982445	17.039999999999996	0.0
C 	20.905853247356347	17.749999999999996	0.0
C 	22.13560932073025	17.039999999999996	0.0
C 	23.365365394104153	17.749999999999996	0.0
C 	24.595121467478055	17.039999999999996	0.0
C 	25.82487754085196	17.749999999999996	0.0
C 	27.05463361422586	17.039999999999996	0.0
C 	28.28438968759977	17.75	0.0
C 	29.514145760973665	17.039999999999996	0.0
C 	30.74390183434757	17.749999999999996	0.0
C 	31.973657907721467	17.039999999999992	0.0
C 	33.20341398109537	17.749999999999993	0.0
C 	34.43317005446927	17.039999999999996	0.0
C 	35.66292612784318	17.749999999999996	0.0
C 	36.892682201217085	17.039999999999996	0.0
C 	38.122438274590984	17.749999999999996	0.0
C 	39.35219434796488	17.039999999999992	0.0
C 	40.58195042133879	17.749999999999993	0.0
C 	41.811706494712695	17.039999999999992	0.0
C 	43.041462568086594	17.749999999999993	0.0
C 	44.2712186414605	17.039999999999996	0.0
C 	45.500974714834406	17.749999999999996	0.0
C 	46.7307307882083	17.039999999999992	0.0
C 	47.960486861582204	17.749999999999993	0.0
C 	49.19024293495611	17.039999999999992	0.0
C 	50.41999900833002	17.749999999999993	0.0
C 	51.649755081703915	17.039999999999996	0.0
C 	52.87951115507782	17.749999999999996	0.0
C 	54.10926722845172	17.039999999999992	0.0
C 	55.33902330182562	17.749999999999993	0.0
C 	56.568779375199526	17.039999999999996	0.0
C 	57.79853544857343	17.749999999999996	0.0
C 	59.028291521947324	17.039999999999992	0.0
C 	60.25804759532123	17.749999999999993	0.0
C 	61.487803668695136	17.039999999999996	0.0
C 	62.71755974206904	17.749999999999996	0.0
C 	63.94731581544294	17.04	0.0
C 	65.17707188881684	17.749999999999993	0.0
C 	66.40682796219075	17.039999999999996	0.0
C 	67.63658403556464	17.74999999999999	0.0
C 	68.86634010893856	17.03999999999999	0.0
C 	70.09609618231246	17.74999999999999	0.0
C 	11.067804660365125	19.169999999999995	0.0
C 	12.297560733739026	19.879999999999995	0.0
C 	13.52731680711293	19.169999999999995	0.0
C 	14.757072880486831	19.879999999999995	0.0
C 	15.986828953860737	19.169999999999998	0.0
C 	17.216585027234636	19.879999999999992	0.0
C 	18.446341100608542	19.169999999999995	0.0
C 	19.676097173982445	19.879999999999995	0.0
C 	20.905853247356347	19.169999999999995	0.0
C 	22.135609320730246	19.879999999999995	0.0
C 	23.365365394104153	19.169999999999995	0.0
C 	24.59512146747805	19.879999999999995	0.0
C 	25.824877540851958	19.169999999999995	0.0
C 	27.05463361422586	19.879999999999995	0.0
C 	28.284389687599763	19.169999999999995	0.0
C 	29.51414576097367	19.879999999999995	0.0
C 	30.743901834347565	19.16999999999999	0.0
C 	31.97365790772147	19.879999999999992	0.0
C 	33.20341398109537	19.169999999999995	0.0
C 	34.43317005446927	19.879999999999992	0.0
C 	35.66292612784318	19.169999999999995	0.0
C 	36.89268220121708	19.879999999999992	0.0
C 	38.122438274590984	19.169999999999995	0.0
C 	39.35219434796488	19.879999999999992	0.0
C 	40.58195042133879	19.16999999999999	0.0
C 	41.81170649471269	19.87999999999999	0.0
C 	43.0414625680866	19.169999999999995	0.0
C 	44.27121864146049	19.879999999999992	0.0
C 	45.5009747148344	19.16999999999999	0.0
C 	46.730730788208305	19.879999999999992	0.0
C 	47.960486861582204	19.169999999999995	0.0
C 	49.1902429349561	19.879999999999992	0.0
C 	50.41999900833002	19.169999999999995	0.0
C 	51.649755081703915	19.879999999999992	0.0
C 	52.879511155077815	19.16999999999999	0.0
C 	54.10926722845172	19.879999999999992	0.0
C 	55.33902330182562	19.16999999999999	0.0
C 	56.56877937519952	19.879999999999992	0.0
C 	57.79853544857343	19.169999999999995	0.0
C 	59.02829152194733	19.879999999999992	0.0
C 	60.25804759532123	19.169999999999995	0.0
C 	61.48780366869513	19.879999999999992	0.0
C 	62.717559742069035	19.16999999999999	0.0
C 	63.94731581544294	19.879999999999992	0.0
C 	65.17707188881684	19.169999999999995	0.0
C 	66.40682796219075	19.87999999999999	0.0
C 	67.63658403556465	19.169999999999995	0.0
C 	68.86634010893854	19.87999999999999	0.0
C 	70.09609618231245	19.16999999999999	0.0
C 	71.32585225568636	19.879999999999992	0.0
C 	12.297560733739028	21.299999999999994	0.0
C 	13.527316807112932	22.009999999999994	0.0
C 	14.757072880486831	21.299999999999994	0.0
C 	15.986828953860735	22.009999999999994	0.0
C 	17.216585027234636	21.299999999999994	0.0
C 	18.44634110060854	22.009999999999994	0.0
C 	19.676097173982445	21.299999999999994	0.0
C 	20.905853247356347	22.009999999999994	0.0
C 	22.13560932073025	21.299999999999994	0.0
C 	23.365365394104153	22.009999999999994	0.0
C 	24.595121467478055	21.299999999999994	0.0
C 	25.824877540851958	22.009999999999994	0.0
C 	27.05463361422586	21.299999999999994	0.0
C 	28.284389687599766	22.009999999999994	0.0
C 	29.514145760973662	21.29999999999999	0.0
C 	30.743901834347568	22.00999999999999	0.0
C 	31.97365790772147	21.299999999999994	0.0
C 	33.20341398109537	22.009999999999994	0.0
C 	34.43317005446928	21.299999999999994	0.0
C 	35.662926127843185	22.009999999999994	0.0
C 	36.89268220121708	21.299999999999994	0.0
C 	38.122438274590984	22.009999999999994	0.0
C 	39.35219434796489	21.299999999999994	0.0
C 	40.58195042133879	22.009999999999994	0.0
C 	41.811706494712695	21.299999999999994	0.0
C 	43.0414625680866	22.009999999999994	0.0
C 	44.2712186414605	21.29999999999999	0.0
C 	45.5009747148344	22.00999999999999	0.0
C 	46.730730788208305	21.299999999999994	0.0
C 	47.96048686158221	22.009999999999994	0.0
C 	49.19024293495611	21.299999999999994	0.0
C 	50.41999900833002	22.009999999999994	0.0
C 	51.649755081703915	21.299999999999994	0.0
C 	52.879511155077815	22.00999999999999	0.0
C 	54.10926722845172	21.299999999999994	0.0
C 	55.33902330182563	22.009999999999994	0.0
C 	56.568779375199526	21.29999999999999	0.0
C 	57.798535448573425	22.00999999999999	0.0
C 	59.02829152194733	21.299999999999994	0.0
C 	60.25804759532124	22.009999999999994	0.0
C 	61.48780366869513	21.29999999999999	0.0
C 	62.717559742069035	22.00999999999999	0.0
C 	63.94731581544294	21.299999999999994	0.0
C 	65.17707188881684	22.009999999999987	0.0
C 	66.40682796219075	21.299999999999994	0.0
C 	67.63658403556465	22.009999999999994	0.0
C 	68.86634010893854	21.29999999999999	0.0
C 	70.09609618231245	22.00999999999999	0.0
C 	71.32585225568636	21.299999999999983	0.0
C 	72.55560832906026	22.00999999999999	0.0
C 	13.527316807112932	23.429999999999996	0.0
C 	14.757072880486836	24.139999999999997	0.0
C 	15.986828953860737	23.429999999999996	0.0
C 	17.216585027234643	24.139999999999997	0.0
C 	18.446341100608542	23.429999999999996	0.0
C 	19.676097173982445	24.139999999999997	0.0
C 	20.90585324735635	23.429999999999996	0.0
C 	22.135609320730254	24.139999999999997	0.0
C 	23.365365394104156	23.429999999999993	0.0
C 	24.595121467478062	24.139999999999997	0.0
C 	25.824877540851958	23.429999999999993	0.0
C 	27.054633614225864	24.139999999999993	0.0
C 	28.284389687599766	23.429999999999996	0.0
C 	29.514145760973673	24.139999999999997	0.0
C 	30.743901834347575	23.429999999999996	0.0
C 	31.973657907721478	24.139999999999997	0.0
C 	33.20341398109537	23.429999999999993	0.0
C 	34.43317005446928	24.139999999999993	0.0
C 	35.66292612784318	23.429999999999993	0.0
C 	36.892682201217085	24.139999999999993	0.0
C 	38.122438274590984	23.429999999999993	0.0
C 	39.35219434796489	24.139999999999993	0.0
C 	40.58195042133879	23.429999999999996	0.0
C 	41.811706494712695	24.139999999999993	0.0
C 	43.041462568086594	23.42999999999999	0.0
C 	44.2712186414605	24.13999999999999	0.0
C 	45.5009747148344	23.429999999999993	0.0
C 	46.730730788208305	24.139999999999993	0.0
C 	47.96048686158221	23.429999999999993	0.0
C 	49.19024293495611	24.139999999999993	0.0
C 	50.41999900833001	23.429999999999993	0.0
C 	51.649755081703915	24.13999999999999	0.0
C 	52.87951115507782	23.429999999999993	0.0
C 	54.10926722845172	24.139999999999993	0.0
C 	55.33902330182563	23.429999999999993	0.0
C 	56.56877937519953	24.139999999999993	0.0
C 	57.798535448573425	23.429999999999993	0.0
C 	59.02829152194733	24.139999999999993	0.0
C 	60.25804759532124	23.429999999999993	0.0
C 	61.487803668695136	24.13999999999999	0.0
C 	62.71755974206904	23.429999999999993	0.0
C 	63.947315815442934	24.139999999999986	0.0
C 	65.17707188881684	23.429999999999993	0.0
C 	66.40682796219075	24.139999999999993	0.0
C 	67.63658403556464	23.42999999999999	0.0
C 	68.86634010893856	24.139999999999997	0.0
C 	70.09609618231245	23.42999999999999	0.0
C 	71.32585225568636	24.139999999999997	0.0
C 	72.55560832906026	23.42999999999999	0.0
C 	73.78536440243417	24.13999999999999	0.0
C 	14.757072880486835	25.559999999999995	0.0
C 	15.986828953860735	26.269999999999996	0.0
C 	17.21658502723464	25.559999999999995	0.0
C 	18.44634110060854	26.269999999999996	0.0
C 	19.676097173982445	25.56	0.0
C 	20.905853247356344	26.269999999999996	0.0
C 	22.13560932073025	25.56	0.0
C 	23.365365394104153	26.269999999999996	0.0
C 	24.595121467478055	25.559999999999995	0.0
C 	25.824877540851958	26.269999999999996	0.0
C 	27.054633614225857	25.559999999999995	0.0
C 	28.28438968759976	26.269999999999996	0.0
C 	29.514145760973665	25.559999999999995	0.0
C 	30.743901834347568	26.269999999999996	0.0
C 	31.973657907721474	25.559999999999995	0.0
C 	33.20341398109538	26.269999999999996	0.0
C 	34.43317005446927	25.55999999999999	0.0
C 	35.66292612784318	26.269999999999992	0.0
C 	36.892682201217085	25.559999999999995	0.0
C 	38.12243827459098	26.269999999999992	0.0
C 	39.35219434796489	25.559999999999995	0.0
C 	40.58195042133879	26.269999999999992	0.0
C 	41.81170649471269	25.55999999999999	0.0
C 	43.041462568086594	26.269999999999992	0.0
C 	44.2712186414605	25.55999999999999	0.0
C 	45.5009747148344	26.26999999999999	0.0
C 	46.730730788208305	25.559999999999995	0.0
C 	47.960486861582204	26.269999999999992	0.0
C 	49.19024293495611	25.55999999999999	0.0
C 	50.41999900833001	26.269999999999992	0.0
C 	51.649755081703915	25.559999999999995	0.0
C 	52.879511155077815	26.269999999999992	0.0
C 	54.10926722845172	25.559999999999995	0.0
C 	55.33902330182562	26.269999999999992	0.0
C 	56.568779375199526	25.55999999999999	0.0
C 	57.79853544857343	26.269999999999992	0.0
C 	59.028291521947324	25.55999999999999	0.0
C 	60.25804759532123	26.269999999999992	0.0
C 	61.487803668695136	25.559999999999995	0.0
C 	62.717559742069035	26.26999999999999	0.0
C 	63.94731581544294	25.55999999999999	0.0
C 	65.17707188881683	26.269999999999985	0.0
C 	66.40682796219075	25.55999999999999	0.0
C 	67.63658403556465	26.269999999999992	0.0
C 	68.86634010893856	25.559999999999995	0.0
C 	70.09609618231246	26.269999999999996	0.0
C 	71.32585225568636	25.559999999999995	0.0
C 	72.55560832906026	26.269999999999996	0.0
C 	73.78536440243415	25.559999999999988	0.0
C 	75.01512047580806	26.26999999999999	0.0
C 	15.986828953860735	27.689999999999994	0.0
C 	17.21658502723464	28.399999999999995	0.0
C 	18.446341100608542	27.689999999999994	0.0
C 	19.676097173982445	28.399999999999995	0.0
C 	20.905853247356344	27.689999999999994	0.0
C 	22.13560932073025	28.399999999999995	0.0
C 	23.365365394104153	27.689999999999994	0.0
C 	24.59512146747806	28.399999999999995	0.0
C 	25.824877540851954	27.689999999999994	0.0
C 	27.054633614225857	28.399999999999995	0.0
C 	28.284389687599763	27.689999999999994	0.0
C 	29.514145760973665	28.399999999999995	0.0
C 	30.74390183434757	27.689999999999994	0.0
C 	31.973657907721474	28.399999999999995	0.0
C 	33.20341398109537	27.68999999999999	0.0
C 	34.43317005446928	28.39999999999999	0.0
C 	35.66292612784318	27.689999999999994	0.0
C 	36.892682201217085	28.399999999999995	0.0
C 	38.122438274590984	27.689999999999994	0.0
C 	39.35219434796489	28.399999999999995	0.0
C 	40.58195042133879	27.689999999999994	0.0
C 	41.811706494712695	28.399999999999995	0.0
C 	43.041462568086594	27.689999999999994	0.0
C 	44.2712186414605	28.399999999999995	0.0
C 	45.500974714834406	27.689999999999994	0.0
C 	46.730730788208305	28.399999999999995	0.0
C 	47.960486861582204	27.68999999999999	0.0
C 	49.19024293495611	28.39999999999999	0.0
C 	50.41999900833002	27.689999999999994	0.0
C 	51.649755081703915	28.399999999999995	0.0
C 	52.87951115507782	27.689999999999994	0.0
C 	54.10926722845173	28.399999999999995	0.0
C 	55.33902330182562	27.68999999999999	0.0
C 	56.568779375199526	28.39999999999999	0.0
C 	57.79853544857343	27.689999999999994	0.0
C 	59.02829152194733	28.39999999999999	0.0
C 	60.25804759532124	27.689999999999994	0.0
C 	61.48780366869513	28.399999999999988	0.0
C 	62.717559742069035	27.689999999999994	0.0
C 	63.94731581544294	28.399999999999995	0.0
C 	65.17707188881684	27.68999999999999	0.0
C 	66.40682796219075	28.39999999999999	0.0
C 	67.63658403556464	27.689999999999987	0.0
C 	68.86634010893856	28.399999999999995	0.0
C 	70.09609618231245	27.689999999999994	0.0
C 	71.32585225568636	28.399999999999995	0.0
C 	72.55560832906026	27.68999999999999	0.0
C 	73.78536440243415	28.39999999999999	0.0
C 	75.01512047580808	27.689999999999994	0.0
C 	76.24487654918197	28.399999999999984	0.0
C 	17.21658502723464	29.819999999999997	0.0
C 	18.446341100608546	30.529999999999998	0.0
C 	19.676097173982445	29.819999999999997	0.0
C 	20.905853247356355	30.529999999999998	0.0
C 	22.13560932073025	29.819999999999993	0.0
C 	23.365365394104156	30.529999999999994	0.0
C 	24.59512146747806	29.819999999999997	0.0
C 	25.82487754085196	30.529999999999998	0.0
C 	27.054633614225867	29.819999999999997	0.0
C 	28.28438968759977	30.529999999999998	0.0
C 	29.514145760973665	29.819999999999997	0.0
C 	30.74390183434757	30.529999999999998	0.0
C 	31.973657907721474	29.819999999999997	0.0
C 	33.20341398109538	30.529999999999998	0.0
C 	34.43317005446928	29.819999999999997	0.0
C 	35.662926127843185	30.529999999999998	0.0
C 	36.892682201217085	29.819999999999993	0.0
C 	38.12243827459099	30.529999999999994	0.0
C 	39.35219434796488	29.819999999999993	0.0
C 	40.58195042133879	30.529999999999994	0.0
C 	41.811706494712695	29.819999999999993	0.0
C 	43.0414625680866	30.529999999999994	0.0
C 	44.2712186414605	29.819999999999993	0.0
C 	45.500974714834406	30.529999999999994	0.0
C 	46.730730788208305	29.81999999999999	0.0
C 	47.960486861582204	30.52999999999999	0.0
C 	49.19024293495611	29.819999999999993	0.0
C 	50.41999900833002	30.529999999999994	0.0
C 	51.649755081703915	29.819999999999993	0.0
C 	52.87951115507782	30.529999999999994	0.0
C 	54.10926722845172	29.819999999999993	0.0
C 	55.33902330182563	30.52999999999999	0.0
C 	56.568779375199526	29.819999999999993	0.0
C 	57.798535448573425	30.52999999999999	0.0
C 	59.02829152194734	29.819999999999993	0.0
C 	60.25804759532124	30.529999999999994	0.0
C 	61.487803668695136	29.819999999999993	0.0
C 	62.71755974206904	30.529999999999994	0.0
C 	63.947315815442934	29.81999999999999	0.0
C 	65.17707188881685	30.529999999999998	0.0
C 	66.40682796219073	29.819999999999986	0.0
C 	67.63658403556465	30.529999999999994	0.0
C 	68.86634010893856	29.819999999999993	0.0
C 	70.09609618231245	30.529999999999994	0.0
C 	71.32585225568637	29.819999999999997	0.0
C 	72.55560832906026	30.52999999999999	0.0
C 	73.78536440243417	29.819999999999997	0.0
C 	75.01512047580806	30.529999999999987	0.0
C 	76.24487654918197	29.81999999999999	0.0
C 	77.47463262255587	30.52999999999999	0.0
C 	18.446341100608542	31.949999999999996	0.0
C 	19.676097173982445	32.65999999999999	0.0
C 	20.905853247356347	31.949999999999992	0.0
C 	22.135609320730254	32.66	0.0
C 	23.365365394104156	31.949999999999996	0.0
C 	24.595121467478055	32.65999999999999	0.0
C 	25.824877540851958	31.949999999999992	0.0
C 	27.05463361422586	32.66	0.0
C 	28.284389687599766	31.949999999999996	0.0
C 	29.51414576097367	32.66	0.0
C 	30.743901834347568	31.949999999999992	0.0
C 	31.97365790772147	32.66	0.0
C 	33.20341398109537	31.949999999999992	0.0
C 	34.43317005446928	32.66	0.0
C 	35.66292612784318	31.949999999999996	0.0
C 	36.892682201217085	32.66	0.0
C 	38.122438274590984	31.949999999999992	0.0
C 	39.35219434796489	32.65999999999999	0.0
C 	40.58195042133879	31.949999999999992	0.0
C 	41.81170649471269	32.65999999999999	0.0
C 	43.0414625680866	31.949999999999996	0.0
C 	44.2712186414605	32.65999999999999	0.0
C 	45.5009747148344	31.949999999999992	0.0
C 	46.730730788208305	32.65999999999999	0.0
C 	47.96048686158221	31.949999999999992	0.0
C 	49.1902429349561	32.65999999999999	0.0
C 	50.41999900833002	31.949999999999992	0.0
C 	51.649755081703915	32.65999999999999	0.0
C 	52.879511155077815	31.949999999999992	0.0
C 	54.10926722845172	32.65999999999999	0.0
C 	55.33902330182563	31.949999999999992	0.0
C 	56.568779375199526	32.65999999999999	0.0
C 	57.79853544857343	31.949999999999992	0.0
C 	59.028291521947324	32.65999999999999	0.0
C 	60.25804759532124	31.949999999999992	0.0
C 	61.487803668695136	32.65999999999999	0.0
C 	62.717559742069035	31.94999999999999	0.0
C 	63.94731581544294	32.65999999999999	0.0
C 	65.17707188881685	31.949999999999992	0.0
C 	66.40682796219076	32.66	0.0
C 	67.63658403556465	31.949999999999992	0.0
C 	68.86634010893856	32.65999999999999	0.0
C 	70.09609618231245	31.94999999999999	0.0
C 	71.32585225568636	32.65999999999999	0.0
C 	72.55560832906026	31.949999999999996	0.0
C 	73.78536440243415	32.65999999999999	0.0
C 	75.01512047580806	31.949999999999992	0.0
C 	76.24487654918195	32.65999999999998	0.0
C 	77.47463262255587	31.949999999999985	0.0
C 	78.70438869592978	32.65999999999999	0.0
C 	19.676097173982445	34.07999999999999	0.0
C 	20.90585324735635	34.78999999999999	0.0
C 	22.135609320730254	34.07999999999999	0.0
C 	23.365365394104156	34.78999999999999	0.0
C 	24.595121467478055	34.07999999999999	0.0
C 	25.824877540851958	34.78999999999999	0.0
C 	27.054633614225864	34.07999999999999	0.0
C 	28.284389687599766	34.78999999999999	0.0
C 	29.514145760973665	34.07999999999999	0.0
C 	30.743901834347568	34.78999999999999	0.0
C 	31.97365790772147	34.07999999999999	0.0
C 	33.20341398109537	34.78999999999999	0.0
C 	34.43317005446928	34.07999999999999	0.0
C 	35.662926127843185	34.78999999999999	0.0
C 	36.89268220121708	34.07999999999999	0.0
C 	38.122438274590984	34.78999999999999	0.0
C 	39.35219434796489	34.07999999999999	0.0
C 	40.581950421338796	34.78999999999999	0.0
C 	41.811706494712695	34.07999999999999	0.0
C 	43.0414625680866	34.78999999999999	0.0
C 	44.2712186414605	34.07999999999999	0.0
C 	45.5009747148344	34.78999999999999	0.0
C 	46.730730788208305	34.07999999999999	0.0
C 	47.96048686158221	34.78999999999999	0.0
C 	49.19024293495611	34.07999999999999	0.0
C 	50.41999900833002	34.78999999999999	0.0
C 	51.649755081703915	34.07999999999999	0.0
C 	52.87951115507782	34.78999999999999	0.0
C 	54.10926722845172	34.07999999999999	0.0
C 	55.33902330182562	34.78999999999999	0.0
C 	56.56877937519953	34.07999999999999	0.0
C 	57.79853544857343	34.78999999999999	0.0
C 	59.02829152194733	34.07999999999999	0.0
C 	60.25804759532124	34.78999999999999	0.0
C 	61.487803668695136	34.07999999999999	0.0
C 	62.71755974206905	34.79	0.0
C 	63.947315815442934	34.079999999999984	0.0
C 	65.17707188881685	34.78999999999999	0.0
C 	66.40682796219075	34.07999999999999	0.0
C 	67.63658403556465	34.78999999999999	0.0
C 	68.86634010893854	34.07999999999999	0.0
C 	70.09609618231245	34.78999999999999	0.0
C 	71.32585225568636	34.07999999999999	0.0
C 	72.55560832906025	34.789999999999985	0.0
C 	73.78536440243417	34.07999999999999	0.0
C 	75.01512047580808	34.78999999999999	0.0
C 	76.24487654918197	34.07999999999999	0.0
C 	77.47463262255587	34.78999999999999	0.0
C 	78.70438869592977	34.079999999999984	0.0
C 	79.93414476930369	34.78999999999999	0.0
C 	20.90585324735635	36.209999999999994	0.0
C 	22.135609320730254	36.919999999999995	0.0
C 	23.36536539410416	36.209999999999994	0.0
C 	24.595121467478062	36.919999999999995	0.0
C 	25.82487754085196	36.209999999999994	0.0
C 	27.054633614225864	36.919999999999995	0.0
C 	28.284389687599766	36.209999999999994	0.0
C 	29.514145760973673	36.919999999999995	0.0
C 	30.743901834347575	36.209999999999994	0.0
C 	31.973657907721478	36.919999999999995	0.0
C 	33.20341398109537	36.209999999999994	0.0
C 	34.43317005446928	36.919999999999995	0.0
C 	35.662926127843185	36.209999999999994	0.0
C 	36.89268220121709	36.919999999999995	0.0
C 	38.12243827459099	36.209999999999994	0.0
C 	39.3521943479649	36.919999999999995	0.0
C 	40.581950421338796	36.209999999999994	0.0
C 	41.811706494712695	36.919999999999995	0.0
C 	43.041462568086594	36.209999999999994	0.0
C 	44.2712186414605	36.919999999999995	0.0
C 	45.500974714834406	36.209999999999994	0.0
C 	46.730730788208305	36.919999999999995	0.0
C 	47.96048686158221	36.209999999999994	0.0
C 	49.19024293495612	36.919999999999995	0.0
C 	50.41999900833002	36.20999999999999	0.0
C 	51.649755081703915	36.91999999999999	0.0
C 	52.87951115507782	36.209999999999994	0.0
C 	54.10926722845172	36.91999999999999	0.0
C 	55.33902330182563	36.209999999999994	0.0
C 	56.56877937519953	36.919999999999995	0.0
C 	57.79853544857343	36.20999999999999	0.0
C 	59.02829152194733	36.91999999999999	0.0
C 	60.25804759532123	36.20999999999999	0.0
C 	61.48780366869515	36.919999999999995	0.0
C 	62.71755974206904	36.209999999999994	0.0
C 	63.94731581544295	36.919999999999995	0.0
C 	65.17707188881684	36.209999999999994	0.0
C 	66.40682796219075	36.919999999999995	0.0
C 	67.63658403556467	36.209999999999994	0.0
C 	68.86634010893856	36.91999999999999	0.0
C 	70.09609618231246	36.209999999999994	0.0
C 	71.32585225568636	36.91999999999999	0.0
C 	72.55560832906026	36.209999999999994	0.0
C 	73.78536440243417	36.919999999999995	0.0
C 	75.01512047580806	36.20999999999999	0.0
C 	76.24487654918198	36.919999999999995	0.0
C 	77.47463262255586	36.20999999999999	0.0
C 	78.70438869592978	36.919999999999995	0.0
C 	79.93414476930369	36.20999999999999	0.0
C 	81.16390084267759	36.91999999999999	0.0
C 	22.13560932073025	38.33999999999999	0.0
C 	23.365365394104153	39.04999999999999	0.0
C 	24.59512146747806	38.33999999999999	0.0
C 	25.82487754085196	39.04999999999999	0.0
C 	27.05463361422586	38.33999999999999	0.0
C 	28.284389687599763	39.04999999999999	0.0
C 	29.514145760973665	38.33999999999999	0.0
C 	30.74390183434757	39.04999999999999	0.0
C 	31.973657907721474	38.339999999999996	0.0
C 	33.20341398109538	39.04999999999999	0.0
C 	34.43317005446927	38.33999999999999	0.0
C 	35.66292612784318	39.04999999999999	0.0
C 	36.892682201217085	38.33999999999999	0.0
C 	38.12243827459099	39.04999999999999	0.0
C 	39.35219434796489	38.33999999999999	0.0
C 	40.581950421338796	39.04999999999999	0.0
C 	41.811706494712695	38.33999999999999	0.0
C 	43.0414625680866	39.04999999999999	0.0
C 	44.27121864146049	38.33999999999999	0.0
C 	45.5009747148344	39.04999999999999	0.0
C 	46.730730788208305	38.33999999999999	0.0
C 	47.960486861582204	39.04999999999999	0.0
C 	49.19024293495611	38.33999999999999	0.0
C 	50.41999900833002	39.04999999999999	0.0
C 	51.649755081703915	38.33999999999999	0.0
C 	52.879511155077815	39.04999999999999	0.0
C 	54.10926722845173	38.33999999999999	0.0
C 	55.33902330182562	39.04999999999998	0.0
C 	56.568779375199526	38.33999999999999	0.0
C 	57.79853544857343	39.04999999999999	0.0
C 	59.02829152194733	38.33999999999999	0.0
C 	60.25804759532123	39.04999999999999	0.0
C 	61.48780366869513	38.33999999999998	0.0
C 	62.71755974206905	39.04999999999999	0.0
C 	63.94731581544294	38.33999999999999	0.0
C 	65.17707188881685	39.04999999999999	0.0
C 	66.40682796219075	38.33999999999999	0.0
C 	67.63658403556465	39.04999999999999	0.0
C 	68.86634010893856	38.33999999999999	0.0
C 	70.09609618231245	39.04999999999998	0.0
C 	71.32585225568636	38.33999999999999	0.0
C 	72.55560832906025	39.04999999999998	0.0
C 	73.78536440243415	38.33999999999999	0.0
C 	75.01512047580806	39.04999999999999	0.0
C 	76.24487654918197	38.33999999999999	0.0
C 	77.47463262255587	39.05	0.0
C 	78.70438869592977	38.33999999999998	0.0
C 	79.93414476930369	39.04999999999999	0.0
C 	81.16390084267758	38.33999999999998	0.0
C 	82.39365691605148	39.04999999999998	0.0
C 	23.365365394104156	40.46999999999999	0.0
C 	24.59512146747806	41.17999999999999	0.0
C 	25.82487754085196	40.46999999999999	0.0
C 	27.054633614225867	41.17999999999999	0.0
C 	28.284389687599763	40.46999999999999	0.0
C 	29.51414576097367	41.17999999999999	0.0
C 	30.74390183434757	40.46999999999999	0.0
C 	31.973657907721474	41.17999999999999	0.0
C 	33.20341398109537	40.46999999999999	0.0
C 	34.43317005446928	41.17999999999999	0.0
C 	35.66292612784318	40.46999999999999	0.0
C 	36.892682201217085	41.17999999999999	0.0
C 	38.12243827459099	40.46999999999999	0.0
C 	39.3521943479649	41.17999999999999	0.0
C 	40.58195042133879	40.46999999999999	0.0
C 	41.811706494712695	41.17999999999999	0.0
C 	43.0414625680866	40.46999999999999	0.0
C 	44.2712186414605	41.17999999999999	0.0
C 	45.500974714834406	40.46999999999999	0.0
C 	46.73073078820831	41.17999999999999	0.0
C 	47.960486861582204	40.46999999999999	0.0
C 	49.19024293495611	41.17999999999999	0.0
C 	50.41999900833002	40.46999999999999	0.0
C 	51.649755081703915	41.179999999999986	0.0
C 	52.87951115507782	40.46999999999999	0.0
C 	54.10926722845173	41.17999999999999	0.0
C 	55.33902330182563	40.46999999999999	0.0
C 	56.568779375199526	41.17999999999999	0.0
C 	57.798535448573425	40.469999999999985	0.0
C 	59.028291521947345	41.17999999999999	0.0
C 	60.25804759532124	40.46999999999999	0.0
C 	61.48780366869514	41.17999999999999	0.0
C 	62.71755974206904	40.46999999999999	0.0
C 	63.94731581544295	41.17999999999999	0.0
C 	65.17707188881685	40.46999999999999	0.0
C 	66.40682796219075	41.179999999999986	0.0
C 	67.63658403556465	40.46999999999999	0.0
C 	68.86634010893854	41.179999999999986	0.0
C 	70.09609618231246	40.46999999999999	0.0
C 	71.32585225568636	41.17999999999999	0.0
C 	72.55560832906026	40.469999999999985	0.0
C 	73.78536440243417	41.179999999999986	0.0
C 	75.01512047580806	40.469999999999985	0.0
C 	76.24487654918198	41.17999999999999	0.0
C 	77.47463262255587	40.46999999999999	0.0
C 	78.70438869592978	41.17999999999999	0.0
C 	79.93414476930367	40.469999999999985	0.0
C 	81.16390084267758	41.179999999999986	0.0
C 	82.3936569160515	40.46999999999999	0.0
C 	83.62341298942539	41.179999999999986	0.0
C 	24.595121467478055	42.59999999999999	0.0
C 	25.82487754085196	43.30999999999999	0.0
C 	27.05463361422586	42.59999999999999	0.0
C 	28.284389687599766	43.30999999999999	0.0
C 	29.514145760973662	42.59999999999999	0.0
C 	30.743901834347568	43.30999999999999	0.0
C 	31.97365790772147	42.59999999999999	0.0
C 	33.20341398109537	43.30999999999999	0.0
C 	34.43317005446927	42.59999999999999	0.0
C 	35.66292612784318	43.30999999999999	0.0
C 	36.89268220121708	42.59999999999999	0.0
C 	38.122438274590984	43.30999999999999	0.0
C 	39.35219434796489	42.59999999999999	0.0
C 	40.581950421338796	43.30999999999999	0.0
C 	41.81170649471269	42.59999999999999	0.0
C 	43.041462568086594	43.30999999999999	0.0
C 	44.2712186414605	42.59999999999999	0.0
C 	45.5009747148344	43.30999999999999	0.0
C 	46.730730788208305	42.59999999999999	0.0
C 	47.96048686158221	43.30999999999999	0.0
C 	49.19024293495611	42.59999999999999	0.0
C 	50.41999900833001	43.30999999999999	0.0
C 	51.64975508170392	42.599999999999994	0.0
C 	52.879511155077815	43.30999999999999	0.0
C 	54.10926722845172	42.59999999999999	0.0
C 	55.33902330182563	43.30999999999999	0.0
C 	56.568779375199526	42.59999999999999	0.0
C 	57.798535448573425	43.30999999999999	0.0
C 	59.028291521947324	42.59999999999998	0.0
C 	60.258047595321244	43.30999999999999	0.0
C 	61.487803668695136	42.59999999999999	0.0
C 	62.71755974206904	43.30999999999999	0.0
C 	63.94731581544294	42.59999999999999	0.0
C 	65.17707188881684	43.30999999999999	0.0
C 	66.40682796219076	42.599999999999994	0.0
C 	67.63658403556465	43.30999999999999	0.0
C 	68.86634010893856	42.59999999999999	0.0
C 	70.09609618231245	43.30999999999998	0.0
C 	71.32585225568636	42.59999999999999	0.0
C 	72.55560832906026	43.30999999999999	0.0
C 	73.78536440243415	42.59999999999999	0.0
C 	75.01512047580806	43.30999999999999	0.0
C 	76.24487654918197	42.59999999999998	0.0
C 	77.47463262255587	43.30999999999999	0.0
C 	78.70438869592978	42.59999999999999	0.0
C 	79.93414476930367	43.30999999999999	0.0
C 	81.16390084267758	42.59999999999999	0.0
C 	82.39365691605148	43.30999999999999	0.0
C 	83.62341298942539	42.59999999999999	0.0
C 	84.85316906279928	43.30999999999998	0.0
C 	25.82487754085196	44.72999999999999	0.0
C 	27.054633614225864	45.43999999999999	0.0
C 	28.284389687599766	44.72999999999999	0.0
C 	29.514145760973673	45.43999999999999	0.0
C 	30.743901834347568	44.72999999999999	0.0
C 	31.97365790772147	45.43999999999999	0.0
C 	33.20341398109537	44.72999999999999	0.0
C 	34.43317005446928	45.43999999999999	0.0
C 	35.662926127843185	44.72999999999999	0.0
C 	36.892682201217085	45.43999999999999	0.0
C 	38.122438274590984	44.72999999999999	0.0
C 	39.35219434796489	45.43999999999999	0.0
C 	40.581950421338796	44.72999999999999	0.0
C 	41.811706494712695	45.43999999999999	0.0
C 	43.0414625680866	44.72999999999999	0.0
C 	44.27121864146051	45.43999999999999	0.0
C 	45.500974714834406	44.72999999999999	0.0
C 	46.730730788208305	45.43999999999999	0.0
C 	47.960486861582204	44.72999999999999	0.0
C 	49.19024293495611	45.43999999999998	0.0
C 	50.41999900833002	44.72999999999999	0.0
C 	51.64975508170391	45.43999999999998	0.0
C 	52.87951115507782	44.72999999999999	0.0
C 	54.10926722845172	45.43999999999999	0.0
C 	55.33902330182562	44.72999999999998	0.0
C 	56.568779375199526	45.43999999999998	0.0
C 	57.798535448573425	44.72999999999998	0.0
C 	59.02829152194734	45.43999999999999	0.0
C 	60.25804759532124	44.72999999999999	0.0
C 	61.48780366869514	45.43999999999999	0.0
C 	62.717559742069035	44.72999999999998	0.0
C 	63.94731581544294	45.43999999999998	0.0
C 	65.17707188881685	44.72999999999999	0.0
C 	66.40682796219075	45.43999999999998	0.0
C 	67.63658403556465	44.72999999999999	0.0
C 	68.86634010893856	45.43999999999999	0.0
C 	70.09609618231245	44.72999999999999	0.0
C 	71.32585225568636	45.43999999999998	0.0
C 	72.55560832906026	44.72999999999998	0.0
C 	73.78536440243417	45.43999999999999	0.0
C 	75.01512047580806	44.72999999999998	0.0
C 	76.24487654918198	45.43999999999999	0.0
C 	77.47463262255587	44.72999999999999	0.0
C 	78.70438869592978	45.43999999999999	0.0
C 	79.93414476930369	44.72999999999999	0.0
C 	81.16390084267758	45.43999999999998	0.0
C 	82.39365691605148	44.72999999999999	0.0
C 	83.62341298942538	45.43999999999998	0.0
C 	84.8531690627993	44.72999999999998	0.0
C 	86.08292513617319	45.43999999999998	0.0
C 	27.054633614225864	46.85999999999999	0.0
C 	28.28438968759977	47.56999999999999	0.0
C 	29.514145760973673	46.85999999999999	0.0
C 	30.74390183434758	47.56999999999999	0.0
C 	31.973657907721474	46.85999999999999	0.0
C 	33.20341398109538	47.56999999999999	0.0
C 	34.43317005446928	46.85999999999999	0.0
C 	35.662926127843185	47.56999999999999	0.0
C 	36.892682201217085	46.85999999999999	0.0
C 	38.122438274590984	47.56999999999999	0.0
C 	39.35219434796489	46.85999999999999	0.0
C 	40.581950421338796	47.56999999999999	0.0
C 	41.8117064947127	46.85999999999999	0.0
C 	43.0414625680866	47.56999999999999	0.0
C 	44.2712186414605	46.85999999999999	0.0
C 	45.500974714834406	47.56999999999999	0.0
C 	46.73073078820831	46.859999999999985	0.0
C 	47.960486861582204	47.569999999999986	0.0
C 	49.19024293495612	46.85999999999999	0.0
C 	50.41999900833002	47.56999999999999	0.0
C 	51.649755081703915	46.859999999999985	0.0
C 	52.87951115507782	47.569999999999986	0.0
C 	54.10926722845172	46.859999999999985	0.0
C 	55.339023301825634	47.56999999999999	0.0
C 	56.56877937519953	46.85999999999999	0.0
C 	57.79853544857344	47.56999999999999	0.0
C 	59.02829152194733	46.859999999999985	0.0
C 	60.25804759532124	47.569999999999986	0.0
C 	61.48780366869515	46.85999999999999	0.0
C 	62.71755974206904	47.569999999999986	0.0
C 	63.94731581544295	46.85999999999999	0.0
C 	65.17707188881685	47.56999999999999	0.0
C 	66.40682796219075	46.859999999999985	0.0
C 	67.63658403556465	47.569999999999986	0.0
C 	68.86634010893856	46.859999999999985	0.0
C 	70.09609618231246	47.56999999999999	0.0
C 	71.32585225568636	46.859999999999985	0.0
C 	72.55560832906028	47.56999999999999	0.0
C 	73.78536440243417	46.859999999999985	0.0
C 	75.01512047580808	47.569999999999986	0.0
C 	76.24487654918197	46.859999999999985	0.0
C 	77.47463262255587	47.569999999999986	0.0
C 	78.70438869592978	46.85999999999999	0.0
C 	79.93414476930367	47.569999999999986	0.0
C 	81.16390084267758	46.85999999999999	0.0
C 	82.39365691605148	47.56999999999999	0.0
C 	83.62341298942539	46.859999999999985	0.0
C 	84.8531690627993	47.569999999999986	0.0
C 	86.08292513617319	46.85999999999998	0.0
C 	87.31268120954711	47.569999999999986	0.0
C 	28.284389687599763	48.98999999999999	0.0
C 	29.51414576097367	49.69999999999999	0.0
C 	30.74390183434757	48.98999999999999	0.0
C 	31.973657907721478	49.69999999999999	0.0
C 	33.20341398109537	48.98999999999999	0.0
C 	34.43317005446928	49.69999999999999	0.0
C 	35.66292612784318	48.98999999999999	0.0
C 	36.892682201217085	49.69999999999999	0.0
C 	38.122438274590984	48.98999999999999	0.0
C 	39.35219434796488	49.69999999999999	0.0
C 	40.58195042133879	48.98999999999999	0.0
C 	41.811706494712695	49.69999999999999	0.0
C 	43.041462568086594	48.98999999999999	0.0
C 	44.2712186414605	49.69999999999999	0.0
C 	45.5009747148344	48.98999999999999	0.0
C 	46.730730788208305	49.69999999999998	0.0
C 	47.96048686158221	48.98999999999999	0.0
C 	49.1902429349561	49.69999999999998	0.0
C 	50.41999900833002	48.98999999999999	0.0
C 	51.64975508170392	49.69999999999999	0.0
C 	52.879511155077815	48.98999999999999	0.0
C 	54.10926722845172	49.69999999999999	0.0
C 	55.33902330182562	48.98999999999998	0.0
C 	56.56877937519953	49.69999999999999	0.0
C 	57.79853544857343	48.98999999999999	0.0
C 	59.02829152194734	49.69999999999999	0.0
C 	60.25804759532124	48.98999999999999	0.0
C 	61.487803668695136	49.69999999999999	0.0
C 	62.71755974206905	48.98999999999999	0.0
C 	63.94731581544294	49.69999999999998	0.0
C 	65.17707188881685	48.98999999999999	0.0
C 	66.40682796219075	49.69999999999999	0.0
C 	67.63658403556465	48.98999999999999	0.0
C 	68.86634010893856	49.69999999999999	0.0
C 	70.09609618231245	48.98999999999998	0.0
C 	71.32585225568637	49.69999999999999	0.0
C 	72.55560832906025	48.98999999999998	0.0
C 	73.78536440243417	49.69999999999999	0.0
C 	75.01512047580806	48.98999999999999	0.0
C 	76.24487654918197	49.69999999999999	0.0
C 	77.47463262255587	48.98999999999998	0.0
C 	78.70438869592978	49.69999999999998	0.0
C 	79.93414476930369	48.98999999999999	0.0
C 	81.16390084267758	49.69999999999998	0.0
C 	82.39365691605148	48.98999999999999	0.0
C 	83.62341298942539	49.69999999999999	0.0
C 	84.85316906279928	48.98999999999998	0.0
C 	86.08292513617319	49.69999999999998	0.0
C 	87.3126812095471	48.98999999999998	0.0
C 	88.542437282921	49.69999999999999	0.0
C 	29.51414576097367	51.11999999999999	0.0
C 	30.74390183434757	51.82999999999999	0.0
C 	31.973657907721474	51.11999999999999	0.0
C 	33.20341398109538	51.82999999999999	0.0
C 	34.43317005446928	51.11999999999999	0.0
C 	35.66292612784318	51.82999999999999	0.0
C 	36.892682201217085	51.11999999999999	0.0
C 	38.12243827459099	51.82999999999999	0.0
C 	39.35219434796489	51.12	0.0
C 	40.581950421338796	51.83	0.0
C 	41.811706494712695	51.11999999999999	0.0
C 	43.041462568086594	51.82999999999999	0.0
C 	44.2712186414605	51.12	0.0
C 	45.5009747148344	51.82999999999999	0.0
C 	46.73073078820831	51.11999999999999	0.0
C 	47.96048686158221	51.82999999999999	0.0
C 	49.19024293495611	51.11999999999999	0.0
C 	50.41999900833002	51.82999999999999	0.0
C 	51.649755081703915	51.11999999999998	0.0
C 	52.879511155077815	51.829999999999984	0.0
C 	54.10926722845171	51.11999999999999	0.0
C 	55.33902330182563	51.83	0.0
C 	56.568779375199526	51.11999999999999	0.0
C 	57.79853544857343	51.82999999999999	0.0
C 	59.02829152194733	51.11999999999999	0.0
C 	60.25804759532124	51.82999999999999	0.0
C 	61.48780366869514	51.11999999999999	0.0
C 	62.717559742069035	51.829999999999984	0.0
C 	63.94731581544295	51.11999999999999	0.0
C 	65.17707188881685	51.82999999999999	0.0
C 	66.40682796219075	51.11999999999999	0.0
C 	67.63658403556465	51.82999999999999	0.0
C 	68.86634010893854	51.11999999999998	0.0
C 	70.09609618231246	51.82999999999999	0.0
C 	71.32585225568636	51.11999999999999	0.0
C 	72.55560832906026	51.82999999999999	0.0
C 	73.78536440243417	51.11999999999999	0.0
C 	75.01512047580806	51.82999999999999	0.0
C 	76.24487654918198	51.11999999999999	0.0
C 	77.47463262255587	51.829999999999984	0.0
C 	78.70438869592978	51.11999999999999	0.0
C 	79.93414476930367	51.829999999999984	0.0
C 	81.16390084267758	51.11999999999999	0.0
C 	82.39365691605148	51.82999999999999	0.0
C 	83.62341298942538	51.11999999999998	0.0
C 	84.8531690627993	51.82999999999999	0.0
C 	86.08292513617319	51.11999999999998	0.0
C 	87.3126812095471	51.82999999999999	0.0
C 	88.542437282921	51.11999999999998	0.0
C 	89.7721933562949	51.829999999999984	0.0
C 	51.960303062894816	-0.29411836413524794	2.15
C 	53.26351463136607	0.26983164056613373	2.15
C 	53.42672538506594	1.680420967718698	2.15
C 	54.729936953537205	2.2443709724200875	2.15
C 	54.89314770723708	3.654960299572652	2.15
C 	56.196359275708325	4.218910304274042	2.15
C 	56.3595700294082	5.629499631426606	2.15
C 	57.662781597879444	6.193449636127989	2.15
C 	57.82599235157931	7.604038963280553	2.15
C 	59.129203920050564	8.167988967981941	2.15
C 	59.292414673750436	9.578578295134506	2.15
C 	60.5956262422217	10.142528299835895	2.15
C 	60.75883699592157	11.55311762698846	2.15
C 	49.517090679652185	-0.011429046385468976	2.15
C 	50.82030224812343	0.5525209583159206	2.15
C 	50.983513001823304	1.963110285468485	2.15
C 	52.28672457029456	2.5270602901698664	2.15
C 	52.44993532399443	3.937649617322431	2.15
C 	53.753146892465686	4.50159962202382	2.15
C 	53.91635764616556	5.912188949176384	2.15
C 	55.21956921463682	6.476138953877774	2.15
C 	55.382779968336685	7.886728281030338	2.15
C 	56.68599153680793	8.45067828573172	2.15
C 	56.849202290507804	9.861267612884285	2.15
C 	58.15241385897905	10.425217617585675	2.15
C 	58.315624612678924	11.83580694473824	2.15
C 	59.61883618115018	12.399756949439627	2.15
C 	59.78204693485005	13.810346276592192	2.15
C 	61.085258503321306	14.374296281293574	2.15
C 	61.24846925702117	15.784885608446139	2.15
C 	62.551680825492426	16.34883561314753	2.15
C 	62.7148915791923	17.759424940300093	2.15
C 	64.01810314766355	18.323374945001483	2.15
C 	64.18131390136342	19.733964272154047	2.15
C 	65.48452546983467	20.297914276855426	2.15
C 	65.64773622353454	21.70850360400799	2.15
C 	66.9509477920058	22.272453608709373	2.15
C 	67.11415854570568	23.683042935861938	2.15
C 	68.4173701141769	24.246992940563334	2.15
C 	68.58058086787678	25.6575822677159	2.15
C 	69.88379243634806	26.221532272417278	2.15
C 	70.04700319004793	27.632121599569842	2.15
C 	47.073878296409546	0.271260271364317	2.15
C 	48.3770898648808	0.8352102760657057	2.15
C 	48.54030061858067	2.24579960321827	2.15
C 	49.84351218705193	2.8097496079196596	2.15
C 	50.0067229407518	4.220338935072224	2.15
C 	51.30993450922305	4.784288939773607	2.15
C 	51.47314526292292	6.194878266926171	2.15
C 	52.776356831394175	6.75882827162756	2.15
C 	52.93956758509404	8.169417598780123	2.15
C 	54.242779153565294	8.733367603481513	2.15
C 	54.405989907265166	10.143956930634078	2.15
C 	55.70920147573643	10.70790693533546	2.15
C 	55.8724122294363	12.118496262488025	2.15
C 	57.17562379790754	12.682446267189414	2.15
C 	57.33883455160741	14.093035594341979	2.15
C 	58.64204612007867	14.656985599043367	2.15
C 	58.80525687377854	16.06757492619593	2.15
C 	60.10846844224979	16.631524930897314	2.15
C 	60.27167919594966	18.042114258049878	2.15
C 	61.57489076442092	18.606064262751268	2.15
C 	61.73810151812079	20.016653589903832	2.15
C 	63.041313086592034	20.580603594605222	2.15
C 	63.204523840291905	21.991192921757786	2.15
C 	64.50773540876315	22.55514292645917	2.15
C 	64.67094616246303	23.96573225361173	2.15
C 	65.97415773093428	24.529682258313112	2.15
C 	66.13736848463415	25.940271585465677	2.15
C 	67.44058005310542	26.504221590167074	2.15
C 	67.60379080680529	27.914810917319638	2.15
C 	68.90700237527653	28.47876092202102	2.15
C 	69.0702131289764	29.889350249173585	2.15
C 	70.37342469744766	30.453300253874968	2.15
C 	70.53663545114753	31.863889581027532	2.15
C 	71.83984701961879	32.427839585728925	2.15
C 	72.00305777331866	33.83842891288149	2.15
C 	73.30626934178991	34.40237891758287	2.15
C 	73.46948009548979	35.81296824473544	2.15
C 	74.77269166396104	36.37691824943682	2.15
C 	74.9359024176609	37.787507576589384	2.15
C 	44.630665913166915	0.5539495891141031	2.15
C 	45.93387748163816	1.1178995938154856	2.15
C 	46.097088235338035	2.52848892096805	2.15
C 	47.40029980380929	3.0924389256694385	2.15
C 	47.56351055750916	4.503028252822003	2.15
C 	48.86672212598042	5.066978257523392	2.15
C 	49.02993287968029	6.477567584675956	2.15
C 	50.333144448151536	7.041517589377339	2.15
C 	50.49635520185141	8.452106916529903	2.15
C 	51.79956677032266	9.016056921231291	2.15
C 	51.962777524022535	10.426646248383856	2.15
C 	53.26598909249378	10.990596253085245	2.15
C 	53.429199846193654	12.40118558023781	2.15
C 	54.73241141466491	12.965135584939192	2.15
C 	54.89562216836478	14.375724912091757	2.15
C 	56.198833736836036	14.939674916793145	2.15
C 	56.3620444905359	16.35026424394571	2.15
C 	57.665256059007156	16.9142142486471	2.15
C 	57.82846681270703	18.324803575799663	2.15
C 	59.131678381178276	18.888753580501046	2.15
C 	59.29488913487815	20.29934290765361	2.15
C 	60.5981007033494	20.863292912355	2.15
C 	60.761311457049274	22.273882239507564	2.15
C 	62.06452302552053	22.837832244208954	2.15
C 	62.2277337792204	24.24842157136152	2.15
C 	63.53094534769165	24.812371576062898	2.15
C 	63.69415610139152	26.222960903215462	2.15
C 	64.99736766986278	26.786910907916845	2.15
C 	65.16057842356264	28.19750023506941	2.15
C 	66.4637899920339	28.761450239770806	2.15
C 	66.62700074573377	30.17203956692337	2.15
C 	67.93021231420502	30.735989571624753	2.15
C 	68.0934230679049	32.146578898777314	2.15
C 	69.39663463637613	32.7105289034787	2.15
C 	69.559845390076	34.12111823063126	2.15
C 	70.86305695854729	34.68506823533266	2.15
C 	71.02626771224716	36.09565756248522	2.15
C 	72.3294792807184	36.659607567186605	2.15
C 	72.49269003441826	38.07019689433917	2.15
C 	73.79590160288951	38.63414689904055	2.15
C 	73.95911235658939	40.044736226193116	2.15
C 	42.18745352992428	0.8366389068638891	2.15
C 	43.49066509839553	1.4005889115652779	2.15
C 	43.6538758520954	2.811178238717842	2.15
C 	44.95708742056666	3.3751282434192245	2.15
C 	45.12029817426653	4.785717570571789	2.15
C 	46.42350974273778	5.349667575273179	2.15
C 	46.58672049643765	6.760256902425743	2.15
C 	47.889932064908905	7.324206907127132	2.15
C 	48.05314281860877	8.734796234279695	2.15
C 	49.356354387080025	9.298746238981078	2.15
C 	49.519565140779896	10.709335566133642	2.15
C 	50.82277670925116	11.27328557083503	2.15
C 	50.98598746295103	12.683874897987595	2.15
C 	52.28919903142228	13.247824902688984	2.15
C 	52.45240978512215	14.658414229841549	2.15
C 	53.7556213535934	15.222364234542932	2.15
C 	53.91883210729326	16.632953561695494	2.15
C 	55.22204367576452	17.196903566396884	2.15
C 	55.38525442946439	18.60749289354945	2.15
C 	56.68846599793565	19.171442898250838	2.15
C 	56.85167675163552	20.582032225403402	2.15
C 	58.154888320106764	21.145982230104785	2.15
C 	58.318099073806636	22.55657155725735	2.15
C 	59.62131064227789	23.12052156195874	2.15
C 	59.78452139597776	24.531110889111304	2.15
C 	61.08773296444902	25.095060893812693	2.15
C 	61.25094371814888	26.505650220965258	2.15
C 	62.554155286620144	27.069600225666637	2.15
C 	62.717366040320016	28.4801895528192	2.15
C 	64.02057760879127	29.044139557520584	2.15
C 	64.18378836249114	30.45472888467315	2.15
C 	65.48699993096238	31.018678889374545	2.15
C 	65.65021068466226	32.42926821652711	2.15
C 	66.95342225313351	32.993218221228496	2.15
C 	67.11663300683338	34.40380754838105	2.15
C 	68.41984457530464	34.967757553082436	2.15
C 	68.58305532900451	36.378346880235	2.15
C 	69.88626689747576	36.9422968849364	2.15
C 	70.04947765117562	38.35288621208896	2.15
C 	71.35268921964688	38.916836216790344	2.15
C 	71.51589997334675	40.32742554394291	2.15
C 	72.819111541818	40.89137554864429	2.15
C 	72.98232229551787	42.301964875796855	2.15
C 	38.277818824510526	-0.8552111072402789	2.15
C 	39.58103039298178	-0.29126110253888576	2.15
C 	39.744241146681645	1.119328224613675	2.15
C 	41.04745271515289	1.6832782293150612	2.15
C 	41.210663468852765	3.093867556467622	2.15
C 	42.51387503732402	3.657817561169014	2.15
C 	42.67708579102389	5.068406888321575	2.15
C 	43.98029735949515	5.63235689302296	2.15
C 	44.14350811319502	7.042946220175521	2.15
C 	45.44671968166627	7.606896224876914	2.15
C 	45.60993043536614	9.017485552029475	2.15
C 	46.913142003837386	9.581435556730868	2.15
C 	47.07635275753726	10.99202488388343	2.15
C 	48.37956432600851	11.555974888584814	2.15
C 	48.542775079708385	12.966564215737375	2.15
C 	49.84598664817964	13.530514220438768	2.15
C 	50.00919740187951	14.941103547591329	2.15
C 	51.31240897035077	15.50505355229272	2.15
C 	51.47561972405064	16.91564287944528	2.15
C 	52.778831292521886	17.479592884146665	2.15
C 	52.94204204622176	18.890182211299226	2.15
C 	54.245253614693006	19.45413221600062	2.15
C 	54.40846436839288	20.86472154315318	2.15
C 	55.71167593686413	21.428671547854574	2.15
C 	55.874886690564004	22.839260875007135	2.15
C 	57.17809825903526	23.40321087970852	2.15
C 	57.341309012735124	24.81380020686108	2.15
C 	58.64452058120638	25.377750211562475	2.15
C 	58.80773133490625	26.788339538715036	2.15
C 	60.1109429033775	27.352289543416425	2.15
C 	60.27415365707737	28.76287887056899	2.15
C 	61.577365225548625	29.326828875270373	2.15
C 	61.7405759792485	30.737418202422937	2.15
C 	63.04378754771976	31.301368207124316	2.15
C 	63.206998301419624	32.711957534276884	2.15
C 	64.51020986989087	33.27590753897828	2.15
C 	64.67342062359074	34.686496866130845	2.15
C 	65.976632192062	35.25044687083222	2.15
C 	66.13984294576187	36.661036197984785	2.15
C 	67.44305451423311	37.22498620268617	2.15
C 	67.60626526793298	38.63557552983873	2.15
C 	68.90947683640425	39.19952553454013	2.15
C 	69.07268759010412	40.61011486169269	2.15
C 	70.37589915857535	41.174064866394076	2.15
C 	70.53910991227522	42.58465419354664	2.15
C 	71.8423214807465	43.14860419824802	2.15
C 	72.00553223444638	44.55919352540059	2.15
C 	35.83460644126789	-0.5725217894904885	2.15
C 	37.137818009739135	-0.008571784789103275	2.15
C 	37.30102876343901	1.402017542363461	2.15
C 	38.60424033191026	1.9659675470648499	2.15
C 	38.76745108561013	3.376556874217414	2.15
C 	40.07066265408139	3.9405068789187965	2.15
C 	40.23387340778126	5.351096206071361	2.15
C 	41.53708497625251	5.915046210772751	2.15
C 	41.70029572995238	7.325635537925315	2.15
C 	43.00350729842363	7.889585542626697	2.15
C 	43.1667180521235	9.30017486977926	2.15
C 	44.469929620594755	9.86412487448065	2.15
C 	44.633140374294626	11.274714201633214	2.15
C 	45.93635194276588	11.838664206334604	2.15
C 	46.09956269646575	13.249253533487169	2.15
C 	47.402774264937	13.813203538188551	2.15
C 	47.56598501863687	15.223792865341116	2.15
C 	48.86919658710813	15.787742870042504	2.15
C 	49.03240734080799	17.198332197195068	2.15
C 	50.33561890927925	17.762282201896458	2.15
C 	50.49882966297912	19.172871529049022	2.15
C 	51.80204123145038	19.7368215337504	2.15
C 	51.96525198515025	21.147410860902966	2.15
C 	53.268463553621494	21.71136086560436	2.15
C 	53.431674307321366	23.121950192756923	2.15
C 	54.73488587579262	23.68590019745831	2.15
C 	54.89809662949249	25.096489524610874	2.15
C 	56.20130819796374	25.660439529312256	2.15
C 	56.36451895166361	27.07102885646482	2.15
C 	57.667730520134874	27.63497886116621	2.15
C 	57.830941273834746	29.045568188318775	2.15
C 	59.13415284230599	29.609518193020165	2.15
C 	59.29736359600586	31.02010752017273	2.15
C 	60.600575164477114	31.584057524874112	2.15
C 	60.763785918176985	32.994646852026676	2.15
C 	62.06699748664823	33.55859685672806	2.15
C 	62.230208240348105	34.96918618388062	2.15
C 	63.53341980881937	35.53313618858202	2.15
C 	63.69663056251924	36.943725515734585	2.15
C 	64.9998421309905	37.50767552043596	2.15
C 	65.16305288469036	38.918264847588524	2.15
C 	66.4662644531616	39.482214852289914	2.15
C 	66.62947520686147	40.89280417944248	2.15
C 	67.93268677533273	41.45675418414387	2.15
C 	68.0958975290326	42.86734351129643	2.15
C 	69.39910909750387	43.431293515997815	2.15
C 	69.56231985120374	44.84188284315038	2.15
C 	70.86553141967498	45.40583284785176	2.15
C 	33.39139405802526	-0.28983247174070026	2.15
C 	34.69460562649651	0.2741175329606858	2.15
C 	34.857816380196375	1.6847068601132502	2.15
C 	36.16102794866762	2.248656864814637	2.15
C 	36.324238702367495	3.659246191967201	2.15
C 	37.62745027083875	4.22319619666859	2.15
C 	37.79066102453862	5.633785523821154	2.15
C 	39.09387259300988	6.197735528522536	2.15
C 	39.25708334670975	7.6083248556751	2.15
C 	40.560294915181004	8.17227486037649	2.15
C 	40.72350566888087	9.582864187529054	2.15
C 	42.026717237352116	10.146814192230437	2.15
C 	42.18992799105199	11.557403519383001	2.15
C 	43.49313955952324	12.12135352408439	2.15
C 	43.656350313223115	13.531942851236954	2.15
C 	44.95956188169437	14.095892855938343	2.15
C 	45.12277263539424	15.506482183090906	2.15
C 	46.4259842038655	16.07043218779229	2.15
C 	46.58919495756536	17.481021514944853	2.15
C 	47.892406526036616	18.044971519646243	2.15
C 	48.05561727973649	19.455560846798807	2.15
C 	49.358828848207736	20.019510851500197	2.15
C 	49.52203960190761	21.43010017865276	2.15
C 	50.82525117037886	21.994050183354144	2.15
C 	50.988461924078734	23.40463951050671	2.15
C 	52.29167349254999	23.968589515208098	2.15
C 	52.45488424624986	25.37917884236066	2.15
C 	53.758095814721116	25.94312884706205	2.15
C 	53.92130656842098	27.353718174214613	2.15
C 	55.22451813689223	27.917668178915996	2.15
C 	55.3877288905921	29.32825750606856	2.15
C 	56.690940459063356	29.89220751076995	2.15
C 	56.85415121276323	31.302796837922514	2.15
C 	58.15736278123448	31.866746842623904	2.15
C 	58.320573534934354	33.27733616977647	2.15
C 	59.62378510340561	33.84128617447785	2.15
C 	59.786995857105474	35.251875501630415	2.15
C 	61.09020742557673	35.8158255063318	2.15
C 	61.2534181792766	37.22641483348436	2.15
C 	62.55662974774785	37.79036483818576	2.15
C 	62.71984050144772	39.200954165338324	2.15
C 	64.02305206991898	39.764904170039706	2.15
C 	64.18626282361885	41.17549349719227	2.15
C 	65.4894743920901	41.73944350189365	2.15
C 	65.65268514578997	43.15003282904622	2.15
C 	66.95589671426123	43.71398283374761	2.15
C 	67.1191074679611	45.12457216090017	2.15
C 	68.42231903643234	45.688522165601555	2.15
C 	30.948181674782617	-0.007143153990920867	2.15
C 	32.25139324325387	0.5568068507104719	2.15
C 	32.414603996953744	1.9673961778630327	2.15
C 	33.717815565425	2.5313461825644215	2.15
C 	33.88102631912487	3.9419355097169824	2.15
C 	35.18423788759612	4.505885514418372	2.15
C 	35.34744864129599	5.916474841570933	2.15
C 	36.65066020976724	6.480424846272326	2.15
C 	36.81387096346711	7.891014173424887	2.15
C 	38.117082531938365	8.454964178126271	2.15
C 	38.28029328563823	9.865553505278832	2.15
C 	39.583504854109485	10.429503509980226	2.15
C 	39.74671560780936	11.840092837132786	2.15
C 	41.04992717628061	12.404042841834173	2.15
C 	41.21313792998048	13.814632168986734	2.15
C 	42.51634949845173	14.378582173688127	2.15
C 	42.6795602521516	15.789171500840688	2.15
C 	43.98277182062286	16.353121505542077	2.15
C 	44.14598257432272	17.76371083269464	2.15
C 	45.44919414279398	18.327660837396024	2.15
C 	45.61240489649385	19.738250164548585	2.15
C 	46.91561646496511	20.30220016924998	2.15
C 	47.07882721866498	21.71278949640254	2.15
C 	48.38203878713623	22.276739501103933	2.15
C 	48.5452495408361	23.687328828256494	2.15
C 	49.84846110930735	24.25127883295788	2.15
C 	50.011671863007216	25.66186816011044	2.15
C 	51.31488343147847	26.22581816481183	2.15
C 	51.47809418517834	27.63640749196439	2.15
C 	52.781305753649605	28.20035749666578	2.15
C 	52.944516507349476	29.610946823818345	2.15
C 	54.24772807582072	30.174896828519728	2.15
C 	54.41093882952059	31.585486155672292	2.15
C 	55.714150397991844	32.14943616037369	2.15
C 	55.877361151691716	33.56002548752625	2.15
C 	57.18057272016297	34.123975492227636	2.15
C 	57.343783473862835	35.5345648193802	2.15
C 	58.6469950423341	36.09851482408158	2.15
C 	58.81020579603397	37.50910415123415	2.15
C 	60.113417364505224	38.07305415593553	2.15
C 	60.276628118205096	39.483643483088095	2.15
C 	61.57983968667634	40.04759348778949	2.15
C 	61.74305044037621	41.458182814942056	2.15
C 	63.046262008847464	42.02213281964344	2.15
C 	63.20947276254733	43.432722146796	2.15
C 	64.51268433101859	43.996672151497386	2.15
C 	64.67589508471846	45.40726147864994	2.15
C 	65.97910665318972	45.97121148335134	2.15
C 	28.50496929153998	0.2755461637588691	2.15
C 	29.808180860011237	0.8394961684602543	2.15
C 	29.97139161371111	2.2500854956128187	2.15
C 	31.274603182182357	2.8140355003142083	2.15
C 	31.437813935882225	4.224624827466773	2.15
C 	32.74102550435349	4.788574832168158	2.15
C 	32.90423625805335	6.1991641593207225	2.15
C 	34.20744782652461	6.763114164022108	2.15
C 	34.37065858022448	8.173703491174672	2.15
C 	35.673870148695734	8.737653495876062	2.15
C 	35.8370809023956	10.148242823028626	2.15
C 	37.14029247086685	10.712192827730009	2.15
C 	37.30350322456672	12.122782154882573	2.15
C 	38.60671479303797	12.686732159583961	2.15
C 	38.769925546737845	14.097321486736526	2.15
C 	40.07313711520909	14.661271491437908	2.15
C 	40.236347868908965	16.071860818590473	2.15
C 	41.53955943738023	16.635810823291862	2.15
C 	41.70277019108009	18.046400150444427	2.15
C 	43.00598175955134	18.610350155145817	2.15
C 	43.16919251325121	20.02093948229838	2.15
C 	44.472404081722466	20.58488948699976	2.15
C 	44.63561483542234	21.995478814152325	2.15
C 	45.93882640389359	22.559428818853714	2.15
C 	46.102037157593465	23.97001814600628	2.15
C 	47.40524872606472	24.53396815070767	2.15
C 	47.56845947976459	25.944557477860233	2.15
C 	48.87167104823584	26.508507482561615	2.15
C 	49.03488180193571	27.91909680971418	2.15
C 	50.33809337040696	28.48304681441557	2.15
C 	50.50130412410683	29.893636141568134	2.15
C 	51.804515692578086	30.45758614626952	2.15
C 	51.96772644627796	31.868175473422085	2.15
C 	53.27093801474921	32.43212547812347	2.15
C 	53.434148768449084	33.84271480527603	2.15
C 	54.73736033692034	34.40666480997742	2.15
C 	54.900571090620204	35.817254137129986	2.15
C 	56.20378265909145	36.381204141831375	2.15
C 	56.366993412791324	37.79179346898394	2.15
C 	57.67020498126258	38.35574347368532	2.15
C 	57.83341573496245	39.76633280083789	2.15
C 	59.13662730343371	40.33028280553927	2.15
C 	59.299838057133584	41.740872132691834	2.15
C 	60.60304962560483	42.30482213739323	2.15
C 	60.7662603793047	43.715411464545795	2.15
C 	62.06947194777595	44.27936146924718	2.15
C 	62.232682701475824	45.68995079639974	2.15
C 	63.53589426994707	46.253900801101125	2.15
C 	26.061756908297344	0.5582354815086582	2.15
C 	27.364968476768603	1.1221854862100438	2.15
C 	27.528179230468474	2.5327748133626082	2.15
C 	28.831390798939722	3.0967248180639944	2.15
C 	28.99460155263959	4.507314145216559	2.15
C 	30.29781312111085	5.071264149917948	2.15
C 	30.46102387481072	6.481853477070512	2.15
C 	31.76423544328197	7.045803481771897	2.15
C 	31.927446196981837	8.456392808924463	2.15
C 	33.230657765453095	9.020342813625847	2.15
C 	33.39386851915297	10.430932140778411	2.15
C 	34.697080087624215	10.994882145479801	2.15
C 	34.86029084132409	12.405471472632366	2.15
C 	36.16350240979534	12.969421477333746	2.15
C 	36.326713163495214	14.38001080448631	2.15
C 	37.62992473196646	14.943960809187702	2.15
C 	37.79313548566633	16.354550136340265	2.15
C 	39.09634705413759	16.918500141041648	2.15
C 	39.25955780783745	18.329089468194212	2.15
C 	40.5627693763087	18.8930394728956	2.15
C 	40.72598013000857	20.303628800048166	2.15
C 	42.029191698479835	20.867578804749556	2.15
C 	42.19240245217971	22.27816813190212	2.15
C 	43.495614020650955	22.842118136603503	2.15
C 	43.658824774350826	24.252707463756067	2.15
C 	44.96203634282208	24.816657468457453	2.15
C 	45.12524709652195	26.227246795610018	2.15
C 	46.42845866499321	26.791196800311408	2.15
C 	46.59166941869307	28.201786127463972	2.15
C 	47.89488098716433	28.765736132165355	2.15
C 	48.0580917408642	30.17632545931792	2.15
C 	49.36130330933545	30.74027546401931	2.15
C 	49.52451406303532	32.15086479117187	2.15
C 	50.827725631506574	32.71481479587326	2.15
C 	50.990936385206446	34.125404123025824	2.15
C 	52.294147953677694	34.689354127727206	2.15
C 	52.45735870737756	36.09994345487977	2.15
C 	53.76057027584882	36.66389345958116	2.15
C 	53.92378102954869	38.074482786733725	2.15
C 	55.22699259801994	38.638432791435115	2.15
C 	55.39020335171981	40.04902211858768	2.15
C 	56.69341492019107	40.61297212328906	2.15
C 	56.85662567389094	42.023561450441626	2.15
C 	58.159837242362194	42.58751145514301	2.15
C 	58.32304799606206	43.99810078229557	2.15
C 	59.62625956453331	44.56205078699697	2.15
C 	59.789470318233185	45.972640114149534	2.15
C 	61.09268188670444	46.53659011885092	2.15
C 	23.61854452505471	0.8409247992584371	2.15
C 	24.921756093525964	1.4048748039598298	2.15
C 	25.084966847225836	2.8154641311123907	2.15
C 	26.388178415697087	3.37941413581378	2.15
C 	26.551389169396955	4.79000346296634	2.15
C 	27.854600737868214	5.35395346766773	2.15
C 	28.017811491568086	6.764542794820291	2.15
C 	29.321023060039334	7.328492799521683	2.15
C 	29.484233813739202	8.739082126674244	2.15
C 	30.78744538221046	9.303032131375634	2.15
C 	30.950656135910332	10.713621458528195	2.15
C 	32.25386770438158	11.277571463229584	2.15
C 	32.41707845808145	12.688160790382144	2.15
C 	33.72029002655271	13.252110795083537	2.15
C 	33.883500780252575	14.662700122236098	2.15
C 	35.18671234872383	15.226650126937484	2.15
C 	35.3499231024237	16.637239454090043	2.15
C 	36.65313467089496	17.201189458791436	2.15
C 	36.81634542459482	18.611778785943997	2.15
C 	38.11955699306607	19.175728790645383	2.15
C 	38.28276774676594	20.586318117797944	2.15
C 	39.585979315237196	21.150268122499337	2.15
C 	39.74919006893707	22.5608574496519	2.15
C 	41.052401637408316	23.12480745435329	2.15
C 	41.21561239110819	24.535396781505852	2.15
C 	42.51882395957945	25.09934678620724	2.15
C 	42.682034713279315	26.5099361133598	2.15
C 	43.98524628175057	27.07388611806119	2.15
C 	44.14845703545044	28.48447544521375	2.15
C 	45.45166860392169	29.04842544991514	2.15
C 	45.61487935762156	30.459014777067704	2.15
C 	46.918090926092816	31.022964781769087	2.15
C 	47.08130167979269	32.43355410892165	2.15
C 	48.38451324826394	32.997504113623044	2.15
C 	48.547724001963815	34.4080934407756	2.15
C 	49.85093557043507	34.97204344547699	2.15
C 	50.014146324134934	36.382632772629556	2.15
C 	51.31735789260618	36.94658277733094	2.15
C 	51.480568646306054	38.3571721044835	2.15
C 	52.78378021477731	38.9211221091849	2.15
C 	52.94699096847718	40.33171143633746	2.15
C 	54.250202536948436	40.89566144103885	2.15
C 	54.41341329064831	42.30625076819141	2.15
C 	55.71662485911956	42.870200772892794	2.15
C 	55.87983561281943	44.28079010004536	2.15
C 	57.18304718129068	44.84474010474674	2.15
C 	57.346257934990554	46.255329431899305	2.15
C 	58.6494695034618	46.8192794366007	2.15
C 	19.708909819640954	-0.850925214845725	2.15
C 	21.012121388112202	-0.28697521014433763	2.15
C 	21.175332141812074	1.123614117008225	2.15
C 	22.47854371028333	1.6875641217096122	2.15
C 	22.6417544639832	3.098153448862175	2.15
C 	23.944966032454452	3.662103453563566	2.15
C 	24.10817678615432	5.072692780716128	2.15
C 	25.41138835462558	5.636642785417515	2.15
C 	25.57459910832545	7.047232112570078	2.15
C 	26.8778106767967	7.611182117271466	2.15
C 	27.041021430496567	9.021771444424028	2.15
C 	28.344232998967826	9.585721449125419	2.15
C 	28.507443752667697	10.996310776277982	2.15
C 	29.810655321138945	11.56026078097937	2.15
C 	29.973866074838813	12.97085010813193	2.15
C 	31.277077643310072	13.534800112833318	2.15
C 	31.440288397009944	14.945389439985883	2.15
C 	32.74349996548119	15.509339444687273	2.15
C 	32.90671071918106	16.91992877183984	2.15
C 	34.20992228765232	17.483878776541218	2.15
C 	34.37313304135219	18.894468103693782	2.15
C 	35.67634460982344	19.458418108395172	2.15
C 	35.83955536352331	20.869007435547736	2.15
C 	37.142766931994565	21.43295744024912	2.15
C 	37.30597768569444	22.843546767401683	2.15
C 	38.609189254165685	23.407496772103073	2.15
C 	38.772400007865556	24.818086099255638	2.15
C 	40.07561157633681	25.382036103957027	2.15
C 	40.23882233003668	26.79262543110959	2.15
C 	41.542033898507924	27.356575435810974	2.15
C 	41.705244652207796	28.76716476296354	2.15
C 	43.00845622067906	29.331114767664925	2.15
C 	43.17166697437893	30.74170409481749	2.15
C 	44.474878542850185	31.30565409951888	2.15
C 	44.638089296550056	32.71624342667145	2.15
C 	45.941300865021304	33.28019343137283	2.15
C 	46.104511618721176	34.690782758525394	2.15
C 	47.407723187192424	35.254732763226784	2.15
C 	47.57093394089229	36.66532209037934	2.15
C 	48.87414550936355	37.22927209508073	2.15
C 	49.03735626306342	38.639861422233295	2.15
C 	50.34056783153467	39.20381142693468	2.15
C 	50.50377858523454	40.61440075408724	2.15
C 	51.8069901537058	41.17835075878863	2.15
C 	51.97020090740567	42.588940085941196	2.15
C 	53.27341247587692	43.152890090642586	2.15
C 	53.43662322957678	44.56347941779515	2.15
C 	54.739834798048044	45.12742942249653	2.15
C 	17.26569743639832	-0.5682358970959392	2.15
C 	18.568909004869568	-0.004285892394551637	2.15
C 	18.73211975856944	1.406303434758011	2.15
C 	20.035331327040694	1.9702534394593982	2.15
C 	20.198542080740566	3.380842766611961	2.15
C 	21.501753649211814	3.9447927713133484	2.15
C 	21.664964402911686	5.355382098465911	2.15
C 	22.96817597138294	5.919332103167302	2.15
C 	23.131386725082812	7.329921430319865	2.15
C 	24.434598293554064	7.893871435021252	2.15
C 	24.597809047253932	9.304460762173814	2.15
C 	25.90102061572519	9.8684107668752	2.15
C 	26.064231369425062	11.279000094027763	2.15
C 	27.36744293789631	11.842950098729155	2.15
C 	27.53065369159618	13.253539425881716	2.15
C 	28.833865260067437	13.817489430583105	2.15
C 	28.99707601376731	15.22807875773567	2.15
C 	30.300287582238557	15.792028762437056	2.15
C 	30.463498335938425	17.202618089589617	2.15
C 	31.766709904409684	17.76656809429101	2.15
C 	31.929920658109555	19.17715742144357	2.15
C 	33.2331322265808	19.741107426144957	2.15
C 	33.39634298028067	21.151696753297518	2.15
C 	34.699554548751934	21.715646757998908	2.15
C 	34.8627653024518	23.12623608515147	2.15
C 	36.16597687092305	23.690186089852855	2.15
C 	36.329187624622925	25.100775417005416	2.15
C 	37.63239919309418	25.66472542170681	2.15
C 	37.795609946794045	27.07531474885937	2.15
C 	39.09882151526529	27.639264753560763	2.15
C 	39.262032268965164	29.049854080713324	2.15
C 	40.56524383743642	29.613804085414714	2.15
C 	40.72845459113629	31.02439341256727	2.15
C 	42.031666159607546	31.588343417268657	2.15
C 	42.19487691330742	32.998932744421225	2.15
C 	43.49808848177867	33.56288274912262	2.15
C 	43.661299235478545	34.97347207627518	2.15
C 	44.9645108039498	35.53742208097657	2.15
C 	45.127721557649664	36.94801140812912	2.15
C 	46.43093312612091	37.51196141283051	2.15
C 	46.594143879820784	38.92255073998307	2.15
C 	47.89735544829204	39.48650074468447	2.15
C 	48.06056620199191	40.89709007183703	2.15
C 	49.363777770463166	41.46104007653842	2.15
C 	49.52698852416304	42.871629403690974	2.15
C 	50.83020009263429	43.435579408392364	2.15
C 	50.99341084633416	44.84616873554493	2.15
C 	52.296622414805405	45.410118740246325	2.15
C 	14.822485053155683	-0.28554657934615324	2.15
C 	16.125696621626936	0.27840342535523593	2.15
C 	16.288907375326808	1.6889927525077986	2.15
C 	17.59211894379806	2.252942757209186	2.15
C 	17.75532969749793	3.6635320843617483	2.15
C 	19.058541265969183	4.227482089063136	2.15
C 	19.22175201966905	5.638071416215698	2.15
C 	20.524963588140306	6.202021420917086	2.15
C 	20.688174341840178	7.612610748069649	2.15
C 	21.99138591031143	8.176560752771039	2.15
C 	22.154596664011297	9.587150079923601	2.15
C 	23.457808232482556	10.15110008462499	2.15
C 	23.621018986182428	11.561689411777552	2.15
C 	24.924230554653676	12.12563941647894	2.15
C 	25.087441308353544	13.536228743631503	2.15
C 	26.390652876824802	14.10017874833289	2.15
C 	26.553863630524674	15.510768075485455	2.15
C 	27.857075198995922	16.074718080186845	2.15
C 	28.02028595269579	17.485307407339405	2.15
C 	29.32349752116705	18.04925741204079	2.15
C 	29.48670827486692	19.459846739193356	2.15
C 	30.78991984333817	20.023796743894746	2.15
C 	30.95313059703804	21.43438607104731	2.15
C 	32.256342165509295	21.998336075748693	2.15
C 	32.41955291920917	23.408925402901254	2.15
C 	33.722764487680415	23.972875407602643	2.15
C 	33.88597524138029	25.383464734755208	2.15
C 	35.18918680985154	25.94741473945659	2.15
C 	35.35239756355141	27.358004066609155	2.15
C 	36.65560913202266	27.921954071310545	2.15
C 	36.81881988572253	29.33254339846311	2.15
C 	38.12203145419379	29.8964934031645	2.15
C 	38.28524220789366	31.307082730317063	2.15
C 	39.58845377636491	31.871032735018446	2.15
C 	39.75166453006478	33.28162206217101	2.15
C 	41.054876098536035	33.8455720668724	2.15
C 	41.218086852235906	35.256161394024964	2.15
C 	42.52129842070716	35.820111398726354	2.15
C 	42.684509174407026	37.23070072587892	2.15
C 	43.98772074287828	37.7946507305803	2.15
C 	44.15093149657815	39.205240057732865	2.15
C 	45.4541430650494	39.769190062434255	2.15
C 	45.61735381874927	41.17977938958682	2.15
C 	46.92056538722053	41.7437293942882	2.15
C 	47.0837761409204	43.15431872144077	2.15
C 	48.38698770939165	43.71826872614215	2.15
C 	48.55019846309151	45.128858053294714	2.15
C 	49.853410031562774	45.6928080579961	2.15
C 	12.379272669913046	-0.002857261596367244	2.15
C 	13.682484238384301	0.5610927431050219	2.15
C 	13.845694992084171	1.9716820702575846	2.15
C 	15.148906560555425	2.535632074958974	2.15
C 	15.312117314255296	3.946221402111536	2.15
C 	16.615328882726548	4.5101714068129235	2.15
C 	16.77853963642642	5.920760733965486	2.15
C 	18.08175120489767	6.484710738666873	2.15
C 	18.244961958597543	7.895300065819436	2.15
C 	19.548173527068794	8.459250070520824	2.15
C 	19.711384280768662	9.869839397673386	2.15
C 	21.014595849239917	10.433789402374778	2.15
C 	21.17780660293979	11.84437872952734	2.15
C 	22.48101817141104	12.408328734228727	2.15
C 	22.64422892511091	13.818918061381288	2.15
C 	23.947440493582164	14.382868066082677	2.15
C 	24.110651247282036	15.793457393235242	2.15
C 	25.413862815753287	16.35740739793663	2.15
C 	25.57707356945316	17.767996725089194	2.15
C 	26.88028513792441	18.33194672979058	2.15
C 	27.043495891624282	19.74253605694314	2.15
C 	28.346707460095534	20.30648606164453	2.15
C 	28.509918213795405	21.717075388797095	2.15
C 	29.813129782266657	22.281025393498485	2.15
C 	29.97634053596653	23.69161472065105	2.15
C 	31.27955210443778	24.255564725352432	2.15
C 	31.44276285813765	25.666154052504996	2.15
C 	32.7459744266089	26.230104057206386	2.15
C 	32.909185180308775	27.640693384358947	2.15
C 	34.21239674878002	28.20464338906033	2.15
C 	34.375607502479895	29.615232716212894	2.15
C 	35.67881907095115	30.179182720914284	2.15
C 	35.84202982465102	31.58977204806685	2.15
C 	37.14524139312228	32.15372205276824	2.15
C 	37.30845214682215	33.5643113799208	2.15
C 	38.6116637152934	34.128261384622185	2.15
C 	38.774874468993275	35.53885071177475	2.15
C 	40.07808603746453	36.10280071647614	2.15
C 	40.241296791164395	37.5133900436287	2.15
C 	41.54450835963564	38.07734004833009	2.15
C 	41.707719113335514	39.48792937548266	2.15
C 	43.01093068180677	40.05187938018404	2.15
C 	43.17414143550664	41.462468707336605	2.15
C 	44.477353003977896	42.026418712037994	2.15
C 	44.64056375767777	43.43700803919056	2.15
C 	45.94377532614902	44.00095804389194	2.15
C 	46.10698607984889	45.411547371044506	2.15
C 	47.410197648320135	45.97549737574589	2.15
C 	9.936060286670411	0.2798320561534188	2.15
C 	11.239271855141665	0.8437820608548061	2.15
C 	11.402482608841535	2.254371388007369	2.15
C 	12.70569417731279	2.8183213927087576	2.15
C 	12.86890493101266	4.22891071986132	2.15
C 	14.172116499483913	4.7928607245627095	2.15
C 	14.335327253183785	6.203450051715272	2.15
C 	15.638538821655036	6.767400056416659	2.15
C 	15.801749575354908	8.177989383569223	2.15
C 	17.10496114382616	8.741939388270609	2.15
C 	17.26817189752603	10.152528715423172	2.15
C 	18.571383465997283	10.71647872012456	2.15
C 	18.734594219697154	12.127068047277122	2.15
C 	20.037805788168406	12.691018051978514	2.15
C 	20.201016541868274	14.101607379131075	2.15
C 	21.50422811033953	14.665557383832462	2.15
C 	21.6674388640394	16.07614671098503	2.15
C 	22.970650432510652	16.640096715686415	2.15
C 	23.13386118621052	18.050686042838976	2.15
C 	24.437072754681775	18.614636047540365	2.15
C 	24.600283508381647	20.025225374692926	2.15
C 	25.9034950768529	20.589175379394316	2.15
C 	26.06670583055277	21.99976470654688	2.15
C 	27.369917399024022	22.563714711248267	2.15
C 	27.533128152723894	23.974304038400827	2.15
C 	28.836339721195145	24.53825404310222	2.15
C 	28.999550474895017	25.94884337025478	2.15
C 	30.30276204336627	26.512793374956168	2.15
C 	30.46597279706614	27.92338270210873	2.15
C 	31.76918436553739	28.487332706810122	2.15
C 	31.932395119237263	29.897922033962683	2.15
C 	33.23560668770852	30.46187203866407	2.15
C 	33.39881744140838	31.872461365816626	2.15
C 	34.70202900987964	32.436411370518016	2.15
C 	34.86523976357951	33.84700069767058	2.15
C 	36.168451332050765	34.41095070237198	2.15
C 	36.33166208575064	35.821540029524535	2.15
C 	37.63487365422189	36.385490034225924	2.15
C 	37.798084407921756	37.79607936137848	2.15
C 	39.10129597639301	38.36002936607987	2.15
C 	39.26450673009288	39.770618693232436	2.15
C 	40.56771829856414	40.33456869793383	2.15
C 	40.73092905226401	41.74515802508639	2.15
C 	42.03414062073526	42.30910802978778	2.15
C 	42.19735137443513	43.71969735694034	2.15
C 	43.50056294290638	44.28364736164173	2.15
C 	43.66377369660624	45.69423668879429	2.15
C 	44.966985265077504	46.25818669349569	2.15
C 	7.492847903427777	0.5625213739032047	2.15
C 	8.79605947189903	1.126471378604593	2.15
C 	8.9592702255989	2.5370607057571557	2.15
C 	10.262481794070153	3.101010710458543	2.15
C 	10.425692547770023	4.511600037611106	2.15
C 	11.728904116241278	5.075550042312495	2.15
C 	11.89211486994115	6.486139369465057	2.15
C 	13.195326438412401	7.050089374166445	2.15
C 	13.358537192112273	8.46067870131901	2.15
C 	14.661748760583524	9.024628706020396	2.15
C 	14.824959514283396	10.43521803317296	2.15
C 	16.128171082754648	10.999168037874346	2.15
C 	16.29138183645452	12.409757365026909	2.15
C 	17.59459340492577	12.973707369728295	2.15
C 	17.757804158625643	14.38429669688086	2.15
C 	19.061015727096894	14.94824670158225	2.15
C 	19.224226480796766	16.358836028734814	2.15
C 	20.527438049268017	16.9227860334362	2.15
C 	20.690648802967885	18.333375360588764	2.15
C 	21.99386037143914	18.89732536529015	2.15
C 	22.157071125139012	20.307914692442715	2.15
C 	23.460282693610264	20.8718646971441	2.15
C 	23.623493447310135	22.282454024296666	2.15
C 	24.926705015781387	22.84640402899805	2.15
C 	25.08991576948126	24.256993356150616	2.15
C 	26.39312733795251	24.820943360852002	2.15
C 	26.556338091652382	26.231532688004567	2.15
C 	27.859549660123633	26.795482692705956	2.15
C 	28.022760413823505	28.20607201985852	2.15
C 	29.325971982294757	28.770022024559903	2.15
C 	29.48918273599463	30.180611351712468	2.15
C 	30.79239430446588	30.744561356413858	2.15
C 	30.95560505816575	32.15515068356642	2.15
C 	32.258816626637	32.7191006882678	2.15
C 	32.42202738033687	34.129690015420366	2.15
C 	33.725238948808126	34.693640020121755	2.15
C 	33.888449702508	36.10422934727432	2.15
C 	35.19166127097925	36.66817935197571	2.15
C 	35.35487202467912	38.078768679128274	2.15
C 	36.65808359315037	38.642718683829656	2.15
C 	36.821294346850244	40.05330801098222	2.15
C 	38.12450591532151	40.61725801568361	2.15
C 	38.28771666902138	42.027847342836175	2.15
C 	39.590928237492626	42.591797347537565	2.15
C 	39.7541389911925	44.00238667469013	2.15
C 	41.05735055966375	44.56633667939151	2.15
C 	41.22056131336362	45.976926006544076	2.15
C 	42.523772881834866	46.540876011245466	2.15
C 	5.0496355201851415	0.8452106916529907	2.15
C 	6.352847088656395	1.4091606963543788	2.15
C 	6.516057842356266	2.8197500235069413	2.15
C 	7.819269410827518	3.3837000282083296	2.15
C 	7.982480164527389	4.794289355360893	2.15
C 	9.285691732998641	5.35823936006228	2.15
C 	9.448902486698511	6.768828687214842	2.15
C 	10.752114055169764	7.332778691916231	2.15
C 	10.915324808869636	8.743368019068795	2.15
C 	12.218536377340888	9.307318023770183	2.15
C 	12.38174713104076	10.717907350922745	2.15
C 	13.684958699512011	11.281857355624133	2.15
C 	13.848169453211883	12.692446682776696	2.15
C 	15.151381021683134	13.256396687478084	2.15
C 	15.314591775383006	14.666986014630647	2.15
C 	16.61780334385426	15.230936019332034	2.15
C 	16.781014097554127	16.641525346484595	2.15
C 	18.084225666025382	17.20547535118599	2.15
C 	18.24743641972525	18.61606467833855	2.15
C 	19.550647988196506	19.180014683039936	2.15
C 	19.713858741896377	20.5906040101925	2.15
C 	21.01707031036763	21.15455401489389	2.15
C 	21.180281064067497	22.56514334204645	2.15
C 	22.483492632538752	23.129093346747844	2.15
C 	22.646703386238624	24.5396826739004	2.15
C 	23.949914954709875	25.103632678601787	2.15
C 	24.113125708409747	26.514222005754352	2.15
C 	25.416337276881	27.07817201045574	2.15
C 	25.57954803058087	28.488761337608302	2.15
C 	26.88275959905212	29.052711342309696	2.15
C 	27.045970352751993	30.46330066946226	2.15
C 	28.349181921223245	31.027250674163643	2.15
C 	28.512392674923117	32.437840001316204	2.15
C 	29.815604243394368	33.00179000601759	2.15
C 	29.97881499709424	34.41237933317015	2.15
C 	31.28202656556549	34.97632933787154	2.15
C 	31.445237319265363	36.3869186650241	2.15
C 	32.748448887736615	36.950868669725494	2.15
C 	32.911659641436486	38.36145799687806	2.15
C 	34.21487120990774	38.92540800157945	2.15
C 	34.37808196360761	40.335997328732006	2.15
C 	35.68129353207886	40.899947333433396	2.15
C 	35.84450428577873	42.31053666058595	2.15
C 	37.14771585424999	42.87448666528735	2.15
C 	37.31092660794986	44.285075992439914	2.15
C 	38.61413817642112	44.849025997141304	2.15
C 	38.777348930120986	46.25961532429386	2.15
C 	40.080560498592234	46.82356532899525	2.15
C 	2.4432123832426353	-0.28268931774978595	2.15
C 	2.6064231369425057	1.1279000094027767	2.15
C 	3.909634705413759	1.6918500141041648	2.15
C 	4.07284545911363	3.1024393412567273	2.15
C 	5.376057027584882	3.6663893459581156	2.15
C 	5.539267781284753	5.076978673110679	2.15
C 	6.8424793497560055	5.640928677812067	2.15
C 	7.005690103455876	7.051518004964629	2.15
C 	8.30890167192713	7.615468009666017	2.15
C 	8.472112425627	9.026057336818578	2.15
C 	9.775323994098253	9.590007341519968	2.15
C 	9.938534747798125	11.000596668672532	2.15
C 	11.241746316269376	11.564546673373922	2.15
C 	11.404957069969248	12.975136000526481	2.15
C 	12.7081686384405	13.53908600522787	2.15
C 	12.871379392140371	14.949675332380432	2.15
C 	14.174590960611622	15.513625337081821	2.15
C 	14.337801714311494	16.92421466423438	2.15
C 	15.641013282782746	17.48816466893577	2.15
C 	15.804224036482617	18.89875399608833	2.15
C 	17.10743560495387	19.462704000789724	2.15
C 	17.27064635865374	20.873293327942285	2.15
C 	18.573857927124994	21.437243332643675	2.15
C 	18.737068680824866	22.847832659796236	2.15
C 	20.040280249296117	23.411782664497625	2.15
C 	20.20349100299599	24.822371991650186	2.15
C 	21.50670257146724	25.38632199635158	2.15
C 	21.669913325167112	26.79691132350414	2.15
C 	22.973124893638364	27.360861328205527	2.15
C 	23.136335647338235	28.771450655358088	2.15
C 	24.439547215809487	29.335400660059477	2.15
C 	24.60275796950936	30.745989987212038	2.15
C 	25.90596953798061	31.309939991913428	2.15
C 	26.069180291680482	32.720529319065996	2.15
C 	27.372391860151733	33.28447932376737	2.15
C 	27.535602613851605	34.695068650919936	2.15
C 	28.838814182322857	35.259018655621325	2.15
C 	29.00202493602273	36.66960798277389	2.15
C 	30.30523650449398	37.23355798747527	2.15
C 	30.46844725819385	38.64414731462784	2.15
C 	31.771658826665103	39.20809731932923	2.15
C 	31.934869580364975	40.61868664648179	2.15
C 	33.23808114883623	41.18263665118318	2.15
C 	33.401291902536094	42.593225978335745	2.15
C 	34.70450347100735	43.15717598303713	2.15
C 	34.86771422470722	44.56776531018969	2.15
C 	36.170925793178476	45.13171531489108	2.15
C 	1.4664223221711234	1.9745393318539508	2.15
C 	1.629633075870994	3.3851286590065133	2.15
C 	2.932844644342247	3.9490786637079016	2.15
C 	3.0960553980421177	5.359667990860465	2.15
C 	4.399266966513371	5.923617995561853	2.15
C 	4.562477720213241	7.334207322714415	2.15
C 	5.865689288684494	7.898157327415803	2.15
C 	6.028900042384365	9.308746654568367	2.15
C 	7.332111610855617	9.872696659269753	2.15
C 	7.495322364555488	11.283285986422316	2.15
C 	8.798533933026741	11.847235991123705	2.15
C 	8.961744686726613	13.257825318276268	2.15
C 	10.264956255197864	13.821775322977658	2.15
C 	10.428167008897736	15.232364650130219	2.15
C 	11.731378577368988	15.796314654831606	2.15
C 	11.89458933106886	17.206903981984173	2.15
C 	13.19780089954011	17.770853986685555	2.15
C 	13.361011653239983	19.181443313838116	2.15
C 	14.664223221711234	19.745393318539506	2.15
C 	14.827433975411106	21.15598264569207	2.15
C 	16.13064554388236	21.71993265039346	2.15
C 	16.29385629758223	23.130521977546024	2.15
C 	17.597067866053482	23.69447198224741	2.15
C 	17.760278619753354	25.10506130939997	2.15
C 	19.063490188224606	25.66901131410136	2.15
C 	19.226700941924477	27.079600641253926	2.15
C 	20.52991251039573	27.643550645955315	2.15
C 	20.6931232640956	29.05413997310788	2.15
C 	21.996334832566852	29.618089977809262	2.15
C 	22.159545586266724	31.028679304961823	2.15
C 	23.462757154737975	31.592629309663213	2.15
C 	23.625967908437847	33.00321863681578	2.15
C 	24.9291794769091	33.56716864151717	2.15
C 	25.09239023060897	34.977757968669735	2.15
C 	26.39560179908022	35.54170797337111	2.15
C 	26.558812552780093	36.952297300523675	2.15
C 	27.862024121251345	37.516247305225065	2.15
C 	28.025234874951217	38.92683663237763	2.15
C 	29.328446443422468	39.49078663707901	2.15
C 	29.49165719712234	40.901375964231576	2.15
C 	30.79486876559359	41.465325968932966	2.15
C 	30.958079519293463	42.87591529608553	2.15
C 	32.26129108776472	43.43986530078692	2.15
C 	32.42450184146459	44.850454627939484	2.15
C 	33.72771340993584	45.41440463264087	2.15
C 	10.754588516297476	18.053543304435344	2.15
C 	10.917799269997348	19.46413263158791	2.15
C 	12.2210108384686	20.028082636289295	2.15
C 	12.38422159216847	21.43867196344186	2.15
C 	13.687433160639722	22.00262196814324	2.15
C 	13.850643914339594	23.413211295295806	2.15
C 	15.153855482810847	23.977161299997196	2.15
C 	15.317066236510717	25.38775062714976	2.15
C 	16.62027780498197	25.951700631851146	2.15
C 	16.783488558681842	27.36228995900371	2.15
C 	18.086700127153094	27.926239963705097	2.15
C 	18.249910880852966	29.33682929085766	2.15
C 	19.553122449324217	29.90077929555905	2.15
C 	19.71633320302409	31.311368622711612	2.15
C 	21.01954477149534	31.875318627412998	2.15
C 	21.182755525195212	33.285907954565566	2.15
C 	22.485967093666464	33.849857959266956	2.15
C 	22.649177847366335	35.26044728641951	2.15
C 	23.95238941583759	35.82439729112091	2.15
C 	24.11560016953746	37.23498661827347	2.15
C 	25.41881173800871	37.79893662297486	2.15
C 	25.58202249170858	39.20952595012741	2.15
C 	26.885234060179837	39.773475954828804	2.15
C 	27.048444813879705	41.18406528198136	2.15
C 	28.351656382350956	41.74801528668275	2.15
C 	28.514867136050828	43.15860461383531	2.15
C 	29.818078704522083	43.722554618536705	2.15
C 	29.98128945822195	45.13314394568926	2.15
C 	31.284501026693203	45.69709395039066	2.15
C 	20.042754710423832	34.13254727701674	2.15
C 	20.2059654641237	35.5431366041693	2.15
C 	21.509177032594952	36.10708660887069	2.15
C 	21.672387786294824	37.51767593602325	2.15
C 	22.975599354766075	38.08162594072464	2.15
C 	23.138810108465947	39.49221526787721	2.15
C 	24.4420216769372	40.05616527257859	2.15
C 	24.60523243063707	41.46675459973115	2.15
C 	25.90844399910832	42.030704604432536	2.15
C 	26.071654752808193	43.4412939315851	2.15
C 	27.374866321279445	44.00524393628648	2.15
C 	27.538077074979316	45.41583326343905	2.15
C 	28.841288643450568	45.97978326814044	2.15
H 	51.83502156885759	-1.3768946786396796	2.15
H 	54.138585679324386	-0.3800534731463914	2.15
H 	55.60500800149552	1.5944858587075665	2.15
H 	57.07143032366663	3.5690251905615153	2.15
H 	58.53785264583776	5.543564522415464	2.15
H 	60.00427496800888	7.51810385426942	2.15
H 	61.47069729018001	9.492643186123374	2.15
H 	61.75918953791711	11.986008827780376	2.15
H 	49.39180918561496	-1.094205360889901	2.15
H 	61.96032955127962	13.724411167581055	2.15
H 	63.42675187345074	15.698950499435007	2.15
H 	64.89317419562187	17.67348983128896	2.15
H 	66.35959651779298	19.648029163142898	2.15
H 	67.82601883996412	21.62256849499686	2.15
H 	69.29244116213522	23.597107826850806	2.15
H 	70.75886348430637	25.571647158704764	2.15
H 	71.04735573204347	28.06501280036175	2.15
H 	46.94859680237232	-0.8115160431401149	2.15
H 	71.24849574540598	29.803415140162443	2.15
H 	72.7149180675771	31.777954472016408	2.15
H 	74.18134038974823	33.75249380387035	2.15
H 	75.64776271191936	35.7270331357243	2.15
H 	75.93625495965644	38.2203987773813	2.15
H 	44.5053844191297	-0.5288267253903303	2.15
H 	74.95946489858493	40.47762742698503	2.15
H 	42.06217203588705	-0.24613740764054293	2.15
H 	73.98267483751341	42.73485607658877	2.15
H 	38.15253733047331	-1.9379874217447122	2.15
H 	40.4561014409401	-0.9411462162513982	2.15
H 	73.00588477644192	44.99208472619249	2.15
H 	35.70932494723066	-1.6552981039949204	2.15
H 	70.99081291371219	46.4886091623562	2.15
H 	33.266112563988045	-1.3726087862451335	2.15
H 	68.54760053046955	46.77129848010599	2.15
H 	30.822900180745393	-1.0899194684953528	2.15
H 	66.10438814722694	47.05398779785577	2.15
H 	28.379687797502744	-0.8072301507455618	2.15
H 	63.66117576398429	47.33667711560556	2.15
H 	25.936475414260112	-0.5245408329957731	2.15
H 	61.217963380741665	47.619366433355346	2.15
H 	23.493263031017484	-0.2418515152459949	2.15
H 	56.47118688703224	46.90521454561183	2.15
H 	58.77475099749903	47.90205575110513	2.15
H 	19.583628325603733	-1.9337015293501576	2.15
H 	21.887192436070514	-0.9368603238568618	2.15
H 	54.86511629208528	46.21020573700096	2.15
H 	17.1404159423611	-1.651012211600372	2.15
H 	52.42190390884263	46.49289505475076	2.15
H 	14.697203559118458	-1.3683228938505851	2.15
H 	49.9786915256	46.77558437250053	2.15
H 	12.253991175875822	-1.0856335761007994	2.15
H 	47.53547914235736	47.05827369025032	2.15
H 	9.810778792633185	-0.8029442583510132	2.15
H 	45.092266759114736	47.34096300800012	2.15
H 	7.3675664093905535	-0.5202549406012276	2.15
H 	42.64905437587209	47.623652325749894	2.15
H 	4.924354026147916	-0.23756562285144156	2.15
H 	37.90227788216267	46.909500438006376	2.15
H 	40.20584199262946	47.90634164349968	2.15
H 	36.2962072872157	46.21449162939551	2.15
H 	0.466069780175584	1.5416481310620398	2.15
H 	0.7545620279126789	4.035013772719035	2.15
H 	2.220984350083803	6.009553104572986	2.15
H 	3.687406672254927	7.984092436426938	2.15
H 	5.153828994426052	9.95863176828089	2.15
H 	6.620251316597171	11.933171100134835	2.15
H 	8.086673638768298	13.907710431988791	2.15
H 	9.553095960939421	15.882249763842742	2.15
H 	33.852994903973055	46.4971809471453	2.15
H 	9.754235974301938	17.62065210364343	2.15
H 	10.042728222039036	20.114017745300433	2.15
H 	11.50915054421016	22.088557077154384	2.15
H 	12.97557286638128	24.063096409008327	2.15
H 	14.441995188552402	26.03763574086228	2.15
H 	15.908417510723531	28.01217507271624	2.15
H 	17.37483983289465	29.986714404570183	2.15
H 	18.841262155065778	31.961253736424137	2.15
H 	31.40978252073042	46.779870264895095	2.15
H 	19.042402168428293	33.699656076224834	2.15
H 	19.330894416165382	36.19302171788181	2.15
H 	20.797316738336512	38.16756104973578	2.15
H 	22.263739060507636	40.14210038158973	2.15
H 	23.73016138267876	42.11663971344368	2.15
H 	25.196583704849882	44.09117904529762	2.15
H 	26.663006027021	46.06571837715157	2.15
H 	28.966570137487793	47.062559582644866	2.15
