2324

C 	0.0	0.0	0.0
C 	1.2297560733739028	0.7099999999999999	0.0
C 	2.4595121467478056	-2.3647750424515833e-16	0.0
C 	3.689268220121708	0.7099999999999995	0.0
C 	4.919024293495611	-4.729550084903167e-16	0.0
C 	6.148780366869514	0.7099999999999993	0.0
C 	7.378536440243416	-7.09432512735475e-16	0.0
C 	8.60829251361732	0.7099999999999991	0.0
C 	9.838048586991222	-9.459100169806333e-16	0.0
C 	11.067804660365125	0.7099999999999989	0.0
C 	12.297560733739026	-1.1823875212257916e-15	0.0
C 	13.527316807112928	0.7099999999999986	0.0
C 	14.757072880486833	-1.41886502547095e-15	0.0
C 	15.986828953860735	0.7099999999999984	0.0
C 	17.21658502723464	-7.671641100159832e-16	0.0
C 	18.44634110060854	0.7099999999999982	0.0
C 	19.676097173982445	-1.8918200339612667e-15	0.0
C 	20.905853247356347	0.7099999999999989	0.0
C 	22.135609320730246	-2.128297538206425e-15	0.0
C 	23.36536539410415	0.7099999999999967	0.0
C 	24.59512146747805	-2.364775042451583e-15	0.0
C 	25.824877540851954	0.7099999999999983	0.0
C 	27.05463361422586	-8.248957072964913e-16	0.0
C 	28.284389687599763	0.7099999999999999	0.0
C 	29.514145760973665	-2.8377300509419e-15	0.0
C 	30.743901834347565	0.7099999999999961	0.0
C 	31.97365790772147	-3.0742075551870582e-15	0.0
C 	33.20341398109537	0.7099999999999976	0.0
C 	34.43317005446928	-1.5343282200319664e-15	0.0
C 	35.66292612784318	0.7099999999999992	0.0
C 	36.892682201217085	-1.7708057242771246e-15	0.0
C 	38.122438274590984	0.7099999999999972	0.0
C 	39.35219434796489	-3.783640067922533e-15	0.0
C 	40.58195042133879	0.7099999999999969	0.0
C 	41.811706494712695	-4.67403893367191e-16	0.0
C 	43.0414625680866	0.7100000000000002	0.0
C 	44.27121864146049	-4.25659507641285e-15	0.0
C 	45.5009747148344	0.7099999999999964	0.0
C 	46.730730788208305	-9.403589018575075e-16	0.0
C 	47.96048686158221	0.7099999999999997	0.0
C 	49.1902429349561	-4.729550084903166e-15	0.0
C 	50.41999900833001	0.709999999999996	0.0
C 	51.64975508170391	-1.413313910347824e-15	0.0
C 	52.879511155077815	0.7099999999999993	0.0
C 	54.10926722845172	-1.6497914145929826e-15	0.0
C 	55.33902330182562	0.7099999999999991	0.0
C 	56.56877937519952	-5.438982597638641e-15	0.0
C 	57.798535448573425	0.7099999999999953	0.0
C 	59.02829152194733	-5.6754601018838e-15	0.0
C 	60.25804759532124	0.709999999999995	0.0
C 	1.2297560733739028	2.1299999999999994	0.0
C 	2.4595121467478056	2.8399999999999994	0.0
C 	3.689268220121708	2.1299999999999994	0.0
C 	4.919024293495611	2.8399999999999994	0.0
C 	6.148780366869514	2.129999999999999	0.0
C 	7.378536440243416	2.839999999999999	0.0
C 	8.60829251361732	2.1299999999999986	0.0
C 	9.838048586991222	2.8399999999999985	0.0
C 	11.067804660365123	2.129999999999998	0.0
C 	12.297560733739028	2.839999999999999	0.0
C 	13.527316807112928	2.1299999999999977	0.0
C 	14.757072880486833	2.839999999999998	0.0
C 	15.986828953860735	2.129999999999998	0.0
C 	17.216585027234636	2.839999999999997	0.0
C 	18.446341100608542	2.129999999999998	0.0
C 	19.676097173982445	2.8399999999999985	0.0
C 	20.905853247356344	2.1299999999999977	0.0
C 	22.13560932073025	2.8399999999999985	0.0
C 	23.36536539410415	2.129999999999997	0.0
C 	24.595121467478055	2.839999999999997	0.0
C 	25.824877540851954	2.1299999999999963	0.0
C 	27.05463361422586	2.839999999999997	0.0
C 	28.284389687599763	2.129999999999998	0.0
C 	29.514145760973665	2.8399999999999985	0.0
C 	30.743901834347568	2.129999999999996	0.0
C 	31.97365790772147	2.8399999999999967	0.0
C 	33.20341398109537	2.129999999999996	0.0
C 	34.43317005446928	2.8399999999999963	0.0
C 	35.66292612784318	2.1299999999999972	0.0
C 	36.89268220121708	2.8399999999999963	0.0
C 	38.122438274590984	2.129999999999997	0.0
C 	39.35219434796489	2.8399999999999976	0.0
C 	40.58195042133879	2.1299999999999986	0.0
C 	41.81170649471269	2.839999999999996	0.0
C 	43.0414625680866	2.129999999999998	0.0
C 	44.2712186414605	2.8399999999999954	0.0
C 	45.5009747148344	2.129999999999998	0.0
C 	46.7307307882083	2.8399999999999954	0.0
C 	47.96048686158221	2.1299999999999977	0.0
C 	49.19024293495611	2.839999999999995	0.0
C 	50.41999900833001	2.1299999999999977	0.0
C 	51.64975508170391	2.8399999999999945	0.0
C 	52.879511155077815	2.1299999999999972	0.0
C 	54.10926722845171	2.8399999999999945	0.0
C 	55.33902330182563	2.130000000000001	0.0
C 	56.56877937519952	2.8399999999999976	0.0
C 	57.798535448573425	2.129999999999997	0.0
C 	59.028291521947324	2.839999999999994	0.0
C 	60.25804759532124	2.129999999999997	0.0
C 	61.487803668695136	2.8399999999999936	0.0
C 	2.4595121467478056	4.259999999999999	0.0
C 	3.689268220121708	4.969999999999999	0.0
C 	4.919024293495611	4.259999999999999	0.0
C 	6.148780366869514	4.969999999999999	0.0
C 	7.378536440243416	4.259999999999999	0.0
C 	8.60829251361732	4.969999999999999	0.0
C 	9.83804858699122	4.259999999999998	0.0
C 	11.067804660365125	4.969999999999999	0.0
C 	12.297560733739028	4.259999999999998	0.0
C 	13.52731680711293	4.969999999999998	0.0
C 	14.757072880486831	4.259999999999998	0.0
C 	15.986828953860735	4.969999999999998	0.0
C 	17.21658502723464	4.259999999999997	0.0
C 	18.446341100608542	4.969999999999998	0.0
C 	19.676097173982445	4.259999999999999	0.0
C 	20.905853247356347	4.969999999999997	0.0
C 	22.135609320730246	4.259999999999996	0.0
C 	23.365365394104153	4.969999999999997	0.0
C 	24.595121467478055	4.259999999999998	0.0
C 	25.824877540851958	4.969999999999997	0.0
C 	27.054633614225857	4.259999999999995	0.0
C 	28.28438968759976	4.969999999999996	0.0
C 	29.514145760973665	4.259999999999997	0.0
C 	30.743901834347568	4.969999999999997	0.0
C 	31.97365790772147	4.259999999999996	0.0
C 	33.20341398109537	4.969999999999995	0.0
C 	34.43317005446927	4.2599999999999945	0.0
C 	35.66292612784318	4.969999999999995	0.0
C 	36.892682201217085	4.259999999999996	0.0
C 	38.122438274590984	4.969999999999997	0.0
C 	39.35219434796489	4.259999999999997	0.0
C 	40.58195042133879	4.969999999999994	0.0
C 	41.81170649471269	4.259999999999995	0.0
C 	43.041462568086594	4.969999999999996	0.0
C 	44.2712186414605	4.259999999999997	0.0
C 	45.500974714834406	4.969999999999998	0.0
C 	46.7307307882083	4.259999999999994	0.0
C 	47.960486861582204	4.9699999999999935	0.0
C 	49.19024293495611	4.259999999999996	0.0
C 	50.41999900833001	4.969999999999997	0.0
C 	51.64975508170391	4.259999999999993	0.0
C 	52.879511155077815	4.9699999999999935	0.0
C 	54.10926722845171	4.259999999999996	0.0
C 	55.33902330182562	4.969999999999997	0.0
C 	56.568779375199526	4.259999999999996	0.0
C 	57.798535448573425	4.969999999999996	0.0
C 	59.028291521947324	4.259999999999995	0.0
C 	60.25804759532123	4.969999999999996	0.0
C 	61.487803668695136	4.259999999999992	0.0
C 	62.717559742069035	4.969999999999993	0.0
C 	3.6892682201217086	6.389999999999999	0.0
C 	4.919024293495611	7.099999999999999	0.0
C 	6.148780366869514	6.389999999999999	0.0
C 	7.378536440243416	7.099999999999999	0.0
C 	8.608292513617318	6.389999999999998	0.0
C 	9.838048586991222	7.099999999999999	0.0
C 	11.067804660365125	6.389999999999998	0.0
C 	12.297560733739028	7.099999999999998	0.0
C 	13.52731680711293	6.389999999999999	0.0
C 	14.757072880486833	7.099999999999998	0.0
C 	15.986828953860735	6.389999999999998	0.0
C 	17.216585027234636	7.099999999999997	0.0
C 	18.44634110060854	6.389999999999997	0.0
C 	19.676097173982445	7.099999999999998	0.0
C 	20.905853247356347	6.389999999999998	0.0
C 	22.13560932073025	7.099999999999997	0.0
C 	23.365365394104153	6.389999999999998	0.0
C 	24.59512146747805	7.099999999999997	0.0
C 	25.824877540851958	6.389999999999998	0.0
C 	27.054633614225857	7.099999999999997	0.0
C 	28.28438968759976	6.389999999999999	0.0
C 	29.514145760973662	7.099999999999997	0.0
C 	30.743901834347568	6.389999999999999	0.0
C 	31.97365790772147	7.099999999999998	0.0
C 	33.20341398109537	6.389999999999995	0.0
C 	34.43317005446928	7.099999999999994	0.0
C 	35.66292612784318	6.389999999999995	0.0
C 	36.892682201217085	7.099999999999996	0.0
C 	38.122438274590984	6.389999999999996	0.0
C 	39.35219434796489	7.099999999999997	0.0
C 	40.58195042133879	6.389999999999994	0.0
C 	41.811706494712695	7.099999999999995	0.0
C 	43.041462568086594	6.389999999999996	0.0
C 	44.2712186414605	7.099999999999997	0.0
C 	45.500974714834406	6.389999999999998	0.0
C 	46.730730788208305	7.099999999999998	0.0
C 	47.960486861582204	6.389999999999995	0.0
C 	49.19024293495611	7.099999999999996	0.0
C 	50.41999900833001	6.389999999999995	0.0
C 	51.649755081703915	7.099999999999996	0.0
C 	52.879511155077815	6.389999999999995	0.0
C 	54.10926722845172	7.099999999999996	0.0
C 	55.33902330182562	6.389999999999995	0.0
C 	56.568779375199526	7.099999999999995	0.0
C 	57.79853544857343	6.389999999999998	0.0
C 	59.02829152194733	7.099999999999999	0.0
C 	60.25804759532123	6.389999999999994	0.0
C 	61.487803668695136	7.099999999999995	0.0
C 	62.71755974206904	6.389999999999994	0.0
C 	63.94731581544294	7.099999999999995	0.0
C 	4.919024293495611	8.519999999999998	0.0
C 	6.148780366869514	9.229999999999999	0.0
C 	7.378536440243416	8.519999999999998	0.0
C 	8.60829251361732	9.229999999999999	0.0
C 	9.838048586991222	8.519999999999998	0.0
C 	11.067804660365125	9.229999999999999	0.0
C 	12.297560733739028	8.519999999999998	0.0
C 	13.52731680711293	9.229999999999997	0.0
C 	14.757072880486833	8.519999999999998	0.0
C 	15.986828953860737	9.229999999999999	0.0
C 	17.216585027234636	8.519999999999998	0.0
C 	18.44634110060854	9.229999999999997	0.0
C 	19.67609717398244	8.519999999999996	0.0
C 	20.905853247356347	9.229999999999997	0.0
C 	22.13560932073025	8.519999999999998	0.0
C 	23.365365394104153	9.229999999999999	0.0
C 	24.595121467478055	8.519999999999996	0.0
C 	25.824877540851954	9.229999999999995	0.0
C 	27.05463361422586	8.519999999999996	0.0
C 	28.284389687599763	9.229999999999997	0.0
C 	29.514145760973662	8.519999999999996	0.0
C 	30.743901834347565	9.229999999999995	0.0
C 	31.97365790772147	8.52	0.0
C 	33.20341398109537	9.229999999999997	0.0
C 	34.43317005446928	8.519999999999994	0.0
C 	35.66292612784318	9.229999999999995	0.0
C 	36.89268220121708	8.519999999999992	0.0
C 	38.122438274590984	9.229999999999993	0.0
C 	39.35219434796489	8.519999999999998	0.0
C 	40.58195042133879	9.229999999999995	0.0
C 	41.811706494712695	8.519999999999994	0.0
C 	43.0414625680866	9.229999999999995	0.0
C 	44.27121864146049	8.519999999999992	0.0
C 	45.5009747148344	9.229999999999993	0.0
C 	46.730730788208305	8.519999999999998	0.0
C 	47.960486861582204	9.229999999999995	0.0
C 	49.19024293495611	8.519999999999996	0.0
C 	50.41999900833001	9.229999999999993	0.0
C 	51.64975508170391	8.519999999999994	0.0
C 	52.879511155077815	9.229999999999995	0.0
C 	54.10926722845171	8.51999999999999	0.0
C 	55.33902330182562	9.229999999999992	0.0
C 	56.568779375199526	8.519999999999998	0.0
C 	57.798535448573425	9.229999999999995	0.0
C 	59.02829152194733	8.519999999999994	0.0
C 	60.25804759532123	9.229999999999993	0.0
C 	61.48780366869513	8.519999999999992	0.0
C 	62.717559742069035	9.229999999999993	0.0
C 	63.94731581544294	8.519999999999992	0.0
C 	65.17707188881684	9.22999999999999	0.0
C 	6.148780366869514	10.649999999999997	0.0
C 	7.378536440243416	11.359999999999998	0.0
C 	8.608292513617318	10.649999999999997	0.0
C 	9.838048586991222	11.359999999999998	0.0
C 	11.067804660365125	10.649999999999997	0.0
C 	12.297560733739028	11.359999999999996	0.0
C 	13.52731680711293	10.649999999999997	0.0
C 	14.757072880486831	11.359999999999996	0.0
C 	15.986828953860735	10.649999999999997	0.0
C 	17.216585027234636	11.359999999999996	0.0
C 	18.44634110060854	10.649999999999997	0.0
C 	19.676097173982445	11.359999999999998	0.0
C 	20.905853247356347	10.649999999999997	0.0
C 	22.13560932073025	11.359999999999996	0.0
C 	23.365365394104153	10.649999999999997	0.0
C 	24.595121467478055	11.359999999999996	0.0
C 	25.824877540851958	10.649999999999997	0.0
C 	27.05463361422586	11.359999999999996	0.0
C 	28.284389687599763	10.649999999999995	0.0
C 	29.514145760973662	11.359999999999994	0.0
C 	30.743901834347565	10.649999999999995	0.0
C 	31.97365790772147	11.359999999999996	0.0
C 	33.20341398109537	10.649999999999997	0.0
C 	34.43317005446928	11.359999999999998	0.0
C 	35.66292612784318	10.649999999999991	0.0
C 	36.89268220121708	11.359999999999992	0.0
C 	38.122438274590984	10.649999999999993	0.0
C 	39.35219434796489	11.359999999999994	0.0
C 	40.58195042133879	10.649999999999993	0.0
C 	41.811706494712695	11.359999999999994	0.0
C 	43.041462568086594	10.649999999999991	0.0
C 	44.2712186414605	11.359999999999992	0.0
C 	45.5009747148344	10.649999999999993	0.0
C 	46.730730788208305	11.359999999999994	0.0
C 	47.960486861582204	10.649999999999995	0.0
C 	49.19024293495611	11.359999999999996	0.0
C 	50.41999900833001	10.649999999999993	0.0
C 	51.649755081703915	11.359999999999994	0.0
C 	52.879511155077815	10.649999999999995	0.0
C 	54.10926722845172	11.359999999999996	0.0
C 	55.33902330182562	10.649999999999993	0.0
C 	56.568779375199526	11.359999999999994	0.0
C 	57.798535448573425	10.649999999999993	0.0
C 	59.02829152194733	11.359999999999992	0.0
C 	60.25804759532124	10.649999999999995	0.0
C 	61.487803668695136	11.359999999999996	0.0
C 	62.717559742069035	10.649999999999991	0.0
C 	63.94731581544294	11.359999999999992	0.0
C 	65.17707188881684	10.649999999999991	0.0
C 	66.40682796219075	11.359999999999992	0.0
C 	7.378536440243417	12.779999999999998	0.0
C 	8.60829251361732	13.489999999999998	0.0
C 	9.838048586991222	12.78	0.0
C 	11.067804660365125	13.489999999999997	0.0
C 	12.297560733739028	12.779999999999998	0.0
C 	13.527316807112932	13.489999999999998	0.0
C 	14.757072880486833	12.779999999999998	0.0
C 	15.986828953860737	13.489999999999997	0.0
C 	17.216585027234636	12.779999999999996	0.0
C 	18.446341100608542	13.489999999999997	0.0
C 	19.676097173982445	12.779999999999998	0.0
C 	20.905853247356347	13.489999999999997	0.0
C 	22.13560932073025	12.779999999999996	0.0
C 	23.36536539410415	13.489999999999995	0.0
C 	24.595121467478055	12.779999999999996	0.0
C 	25.824877540851958	13.489999999999997	0.0
C 	27.05463361422586	12.779999999999998	0.0
C 	28.284389687599763	13.489999999999997	0.0
C 	29.514145760973662	12.779999999999996	0.0
C 	30.743901834347568	13.489999999999997	0.0
C 	31.97365790772147	12.779999999999996	0.0
C 	33.20341398109537	13.489999999999997	0.0
C 	34.43317005446928	12.779999999999998	0.0
C 	35.66292612784318	13.489999999999995	0.0
C 	36.89268220121708	12.779999999999994	0.0
C 	38.122438274590984	13.489999999999995	0.0
C 	39.35219434796489	12.779999999999996	0.0
C 	40.581950421338796	13.489999999999997	0.0
C 	41.811706494712695	12.779999999999996	0.0
C 	43.041462568086594	13.489999999999993	0.0
C 	44.2712186414605	12.779999999999994	0.0
C 	45.5009747148344	13.489999999999995	0.0
C 	46.730730788208305	12.779999999999996	0.0
C 	47.96048686158221	13.489999999999997	0.0
C 	49.19024293495611	12.779999999999998	0.0
C 	50.41999900833001	13.489999999999995	0.0
C 	51.649755081703915	12.779999999999996	0.0
C 	52.879511155077815	13.489999999999993	0.0
C 	54.10926722845172	12.779999999999998	0.0
C 	55.33902330182563	13.489999999999998	0.0
C 	56.56877937519952	12.779999999999998	0.0
C 	57.798535448573425	13.489999999999997	0.0
C 	59.02829152194733	12.779999999999994	0.0
C 	60.25804759532123	13.489999999999991	0.0
C 	61.487803668695136	12.779999999999998	0.0
C 	62.71755974206904	13.489999999999998	0.0
C 	63.94731581544294	12.779999999999994	0.0
C 	65.17707188881684	13.489999999999995	0.0
C 	66.40682796219075	12.77999999999999	0.0
C 	67.63658403556465	13.489999999999988	0.0
C 	8.60829251361732	14.909999999999998	0.0
C 	9.838048586991222	15.619999999999996	0.0
C 	11.067804660365125	14.909999999999997	0.0
C 	12.297560733739026	15.619999999999996	0.0
C 	13.527316807112934	14.909999999999998	0.0
C 	14.757072880486831	15.619999999999996	0.0
C 	15.986828953860737	14.909999999999998	0.0
C 	17.21658502723464	15.619999999999997	0.0
C 	18.446341100608542	14.909999999999997	0.0
C 	19.676097173982445	15.619999999999996	0.0
C 	20.905853247356347	14.909999999999997	0.0
C 	22.135609320730246	15.619999999999996	0.0
C 	23.365365394104153	14.909999999999995	0.0
C 	24.595121467478055	15.619999999999996	0.0
C 	25.824877540851958	14.909999999999997	0.0
C 	27.05463361422586	15.619999999999996	0.0
C 	28.284389687599763	14.909999999999997	0.0
C 	29.514145760973665	15.619999999999996	0.0
C 	30.743901834347568	14.909999999999997	0.0
C 	31.973657907721474	15.619999999999997	0.0
C 	33.203413981095366	14.909999999999993	0.0
C 	34.43317005446927	15.619999999999994	0.0
C 	35.662926127843185	14.909999999999998	0.0
C 	36.892682201217085	15.619999999999996	0.0
C 	38.122438274590984	14.909999999999995	0.0
C 	39.35219434796489	15.619999999999996	0.0
C 	40.58195042133879	14.909999999999993	0.0
C 	41.811706494712695	15.619999999999994	0.0
C 	43.0414625680866	14.909999999999998	0.0
C 	44.2712186414605	15.619999999999996	0.0
C 	45.5009747148344	14.909999999999995	0.0
C 	46.730730788208305	15.619999999999996	0.0
C 	47.960486861582204	14.909999999999993	0.0
C 	49.19024293495611	15.619999999999994	0.0
C 	50.41999900833002	14.909999999999998	0.0
C 	51.649755081703915	15.619999999999996	0.0
C 	52.87951115507782	14.909999999999997	0.0
C 	54.10926722845171	15.619999999999994	0.0
C 	55.33902330182562	14.909999999999995	0.0
C 	56.568779375199526	15.619999999999994	0.0
C 	57.798535448573425	14.909999999999991	0.0
C 	59.028291521947324	15.619999999999992	0.0
C 	60.25804759532124	14.909999999999998	0.0
C 	61.487803668695136	15.619999999999996	0.0
C 	62.717559742069035	14.909999999999993	0.0
C 	63.94731581544294	15.619999999999994	0.0
C 	65.17707188881684	14.909999999999993	0.0
C 	66.40682796219075	15.619999999999994	0.0
C 	67.63658403556465	14.909999999999997	0.0
C 	68.86634010893854	15.61999999999999	0.0
C 	9.838048586991222	17.039999999999996	0.0
C 	11.067804660365127	17.749999999999996	0.0
C 	12.297560733739028	17.039999999999996	0.0
C 	13.527316807112932	17.749999999999996	0.0
C 	14.757072880486833	17.039999999999996	0.0
C 	15.986828953860735	17.749999999999996	0.0
C 	17.21658502723464	17.039999999999996	0.0
C 	18.446341100608546	17.749999999999996	0.0
C 	19.676097173982445	17.039999999999996	0.0
C 	20.905853247356347	17.749999999999996	0.0
C 	22.13560932073025	17.039999999999996	0.0
C 	23.365365394104153	17.749999999999996	0.0
C 	24.595121467478055	17.039999999999996	0.0
C 	25.82487754085196	17.749999999999996	0.0
C 	27.05463361422586	17.039999999999996	0.0
C 	28.28438968759977	17.75	0.0
C 	29.514145760973665	17.039999999999996	0.0
C 	30.74390183434757	17.749999999999996	0.0
C 	31.973657907721467	17.039999999999992	0.0
C 	33.20341398109537	17.749999999999993	0.0
C 	34.43317005446927	17.039999999999996	0.0
C 	35.66292612784318	17.749999999999996	0.0
C 	36.892682201217085	17.039999999999996	0.0
C 	38.122438274590984	17.749999999999996	0.0
C 	39.35219434796488	17.039999999999992	0.0
C 	40.58195042133879	17.749999999999993	0.0
C 	41.811706494712695	17.039999999999992	0.0
C 	43.041462568086594	17.749999999999993	0.0
C 	44.2712186414605	17.039999999999996	0.0
C 	45.500974714834406	17.749999999999996	0.0
C 	46.7307307882083	17.039999999999992	0.0
C 	47.960486861582204	17.749999999999993	0.0
C 	49.19024293495611	17.039999999999992	0.0
C 	50.41999900833002	17.749999999999993	0.0
C 	51.649755081703915	17.039999999999996	0.0
C 	52.87951115507782	17.749999999999996	0.0
C 	54.10926722845172	17.039999999999992	0.0
C 	55.33902330182562	17.749999999999993	0.0
C 	56.568779375199526	17.039999999999996	0.0
C 	57.79853544857343	17.749999999999996	0.0
C 	59.028291521947324	17.039999999999992	0.0
C 	60.25804759532123	17.749999999999993	0.0
C 	61.487803668695136	17.039999999999996	0.0
C 	62.71755974206904	17.749999999999996	0.0
C 	63.94731581544294	17.04	0.0
C 	65.17707188881684	17.749999999999993	0.0
C 	66.40682796219075	17.039999999999996	0.0
C 	67.63658403556464	17.74999999999999	0.0
C 	68.86634010893856	17.03999999999999	0.0
C 	70.09609618231246	17.74999999999999	0.0
C 	11.067804660365125	19.169999999999995	0.0
C 	12.297560733739026	19.879999999999995	0.0
C 	13.52731680711293	19.169999999999995	0.0
C 	14.757072880486831	19.879999999999995	0.0
C 	15.986828953860737	19.169999999999998	0.0
C 	17.216585027234636	19.879999999999992	0.0
C 	18.446341100608542	19.169999999999995	0.0
C 	19.676097173982445	19.879999999999995	0.0
C 	20.905853247356347	19.169999999999995	0.0
C 	22.135609320730246	19.879999999999995	0.0
C 	23.365365394104153	19.169999999999995	0.0
C 	24.59512146747805	19.879999999999995	0.0
C 	25.824877540851958	19.169999999999995	0.0
C 	27.05463361422586	19.879999999999995	0.0
C 	28.284389687599763	19.169999999999995	0.0
C 	29.51414576097367	19.879999999999995	0.0
C 	30.743901834347565	19.16999999999999	0.0
C 	31.97365790772147	19.879999999999992	0.0
C 	33.20341398109537	19.169999999999995	0.0
C 	34.43317005446927	19.879999999999992	0.0
C 	35.66292612784318	19.169999999999995	0.0
C 	36.89268220121708	19.879999999999992	0.0
C 	38.122438274590984	19.169999999999995	0.0
C 	39.35219434796488	19.879999999999992	0.0
C 	40.58195042133879	19.16999999999999	0.0
C 	41.81170649471269	19.87999999999999	0.0
C 	43.0414625680866	19.169999999999995	0.0
C 	44.27121864146049	19.879999999999992	0.0
C 	45.5009747148344	19.16999999999999	0.0
C 	46.730730788208305	19.879999999999992	0.0
C 	47.960486861582204	19.169999999999995	0.0
C 	49.1902429349561	19.879999999999992	0.0
C 	50.41999900833002	19.169999999999995	0.0
C 	51.649755081703915	19.879999999999992	0.0
C 	52.879511155077815	19.16999999999999	0.0
C 	54.10926722845172	19.879999999999992	0.0
C 	55.33902330182562	19.16999999999999	0.0
C 	56.56877937519952	19.879999999999992	0.0
C 	57.79853544857343	19.169999999999995	0.0
C 	59.02829152194733	19.879999999999992	0.0
C 	60.25804759532123	19.169999999999995	0.0
C 	61.48780366869513	19.879999999999992	0.0
C 	62.717559742069035	19.16999999999999	0.0
C 	63.94731581544294	19.879999999999992	0.0
C 	65.17707188881684	19.169999999999995	0.0
C 	66.40682796219075	19.87999999999999	0.0
C 	67.63658403556465	19.169999999999995	0.0
C 	68.86634010893854	19.87999999999999	0.0
C 	70.09609618231245	19.16999999999999	0.0
C 	71.32585225568636	19.879999999999992	0.0
C 	12.297560733739028	21.299999999999994	0.0
C 	13.527316807112932	22.009999999999994	0.0
C 	14.757072880486831	21.299999999999994	0.0
C 	15.986828953860735	22.009999999999994	0.0
C 	17.216585027234636	21.299999999999994	0.0
C 	18.44634110060854	22.009999999999994	0.0
C 	19.676097173982445	21.299999999999994	0.0
C 	20.905853247356347	22.009999999999994	0.0
C 	22.13560932073025	21.299999999999994	0.0
C 	23.365365394104153	22.009999999999994	0.0
C 	24.595121467478055	21.299999999999994	0.0
C 	25.824877540851958	22.009999999999994	0.0
C 	27.05463361422586	21.299999999999994	0.0
C 	28.284389687599766	22.009999999999994	0.0
C 	29.514145760973662	21.29999999999999	0.0
C 	30.743901834347568	22.00999999999999	0.0
C 	31.97365790772147	21.299999999999994	0.0
C 	33.20341398109537	22.009999999999994	0.0
C 	34.43317005446928	21.299999999999994	0.0
C 	35.662926127843185	22.009999999999994	0.0
C 	36.89268220121708	21.299999999999994	0.0
C 	38.122438274590984	22.009999999999994	0.0
C 	39.35219434796489	21.299999999999994	0.0
C 	40.58195042133879	22.009999999999994	0.0
C 	41.811706494712695	21.299999999999994	0.0
C 	43.0414625680866	22.009999999999994	0.0
C 	44.2712186414605	21.29999999999999	0.0
C 	45.5009747148344	22.00999999999999	0.0
C 	46.730730788208305	21.299999999999994	0.0
C 	47.96048686158221	22.009999999999994	0.0
C 	49.19024293495611	21.299999999999994	0.0
C 	50.41999900833002	22.009999999999994	0.0
C 	51.649755081703915	21.299999999999994	0.0
C 	52.879511155077815	22.00999999999999	0.0
C 	54.10926722845172	21.299999999999994	0.0
C 	55.33902330182563	22.009999999999994	0.0
C 	56.568779375199526	21.29999999999999	0.0
C 	57.798535448573425	22.00999999999999	0.0
C 	59.02829152194733	21.299999999999994	0.0
C 	60.25804759532124	22.009999999999994	0.0
C 	61.48780366869513	21.29999999999999	0.0
C 	62.717559742069035	22.00999999999999	0.0
C 	63.94731581544294	21.299999999999994	0.0
C 	65.17707188881684	22.009999999999987	0.0
C 	66.40682796219075	21.299999999999994	0.0
C 	67.63658403556465	22.009999999999994	0.0
C 	68.86634010893854	21.29999999999999	0.0
C 	70.09609618231245	22.00999999999999	0.0
C 	71.32585225568636	21.299999999999983	0.0
C 	72.55560832906026	22.00999999999999	0.0
C 	13.527316807112932	23.429999999999996	0.0
C 	14.757072880486836	24.139999999999997	0.0
C 	15.986828953860737	23.429999999999996	0.0
C 	17.216585027234643	24.139999999999997	0.0
C 	18.446341100608542	23.429999999999996	0.0
C 	19.676097173982445	24.139999999999997	0.0
C 	20.90585324735635	23.429999999999996	0.0
C 	22.135609320730254	24.139999999999997	0.0
C 	23.365365394104156	23.429999999999993	0.0
C 	24.595121467478062	24.139999999999997	0.0
C 	25.824877540851958	23.429999999999993	0.0
C 	27.054633614225864	24.139999999999993	0.0
C 	28.284389687599766	23.429999999999996	0.0
C 	29.514145760973673	24.139999999999997	0.0
C 	30.743901834347575	23.429999999999996	0.0
C 	31.973657907721478	24.139999999999997	0.0
C 	33.20341398109537	23.429999999999993	0.0
C 	34.43317005446928	24.139999999999993	0.0
C 	35.66292612784318	23.429999999999993	0.0
C 	36.892682201217085	24.139999999999993	0.0
C 	38.122438274590984	23.429999999999993	0.0
C 	39.35219434796489	24.139999999999993	0.0
C 	40.58195042133879	23.429999999999996	0.0
C 	41.811706494712695	24.139999999999993	0.0
C 	43.041462568086594	23.42999999999999	0.0
C 	44.2712186414605	24.13999999999999	0.0
C 	45.5009747148344	23.429999999999993	0.0
C 	46.730730788208305	24.139999999999993	0.0
C 	47.96048686158221	23.429999999999993	0.0
C 	49.19024293495611	24.139999999999993	0.0
C 	50.41999900833001	23.429999999999993	0.0
C 	51.649755081703915	24.13999999999999	0.0
C 	52.87951115507782	23.429999999999993	0.0
C 	54.10926722845172	24.139999999999993	0.0
C 	55.33902330182563	23.429999999999993	0.0
C 	56.56877937519953	24.139999999999993	0.0
C 	57.798535448573425	23.429999999999993	0.0
C 	59.02829152194733	24.139999999999993	0.0
C 	60.25804759532124	23.429999999999993	0.0
C 	61.487803668695136	24.13999999999999	0.0
C 	62.71755974206904	23.429999999999993	0.0
C 	63.947315815442934	24.139999999999986	0.0
C 	65.17707188881684	23.429999999999993	0.0
C 	66.40682796219075	24.139999999999993	0.0
C 	67.63658403556464	23.42999999999999	0.0
C 	68.86634010893856	24.139999999999997	0.0
C 	70.09609618231245	23.42999999999999	0.0
C 	71.32585225568636	24.139999999999997	0.0
C 	72.55560832906026	23.42999999999999	0.0
C 	73.78536440243417	24.13999999999999	0.0
C 	14.757072880486835	25.559999999999995	0.0
C 	15.986828953860735	26.269999999999996	0.0
C 	17.21658502723464	25.559999999999995	0.0
C 	18.44634110060854	26.269999999999996	0.0
C 	19.676097173982445	25.56	0.0
C 	20.905853247356344	26.269999999999996	0.0
C 	22.13560932073025	25.56	0.0
C 	23.365365394104153	26.269999999999996	0.0
C 	24.595121467478055	25.559999999999995	0.0
C 	25.824877540851958	26.269999999999996	0.0
C 	27.054633614225857	25.559999999999995	0.0
C 	28.28438968759976	26.269999999999996	0.0
C 	29.514145760973665	25.559999999999995	0.0
C 	30.743901834347568	26.269999999999996	0.0
C 	31.973657907721474	25.559999999999995	0.0
C 	33.20341398109538	26.269999999999996	0.0
C 	34.43317005446927	25.55999999999999	0.0
C 	35.66292612784318	26.269999999999992	0.0
C 	36.892682201217085	25.559999999999995	0.0
C 	38.12243827459098	26.269999999999992	0.0
C 	39.35219434796489	25.559999999999995	0.0
C 	40.58195042133879	26.269999999999992	0.0
C 	41.81170649471269	25.55999999999999	0.0
C 	43.041462568086594	26.269999999999992	0.0
C 	44.2712186414605	25.55999999999999	0.0
C 	45.5009747148344	26.26999999999999	0.0
C 	46.730730788208305	25.559999999999995	0.0
C 	47.960486861582204	26.269999999999992	0.0
C 	49.19024293495611	25.55999999999999	0.0
C 	50.41999900833001	26.269999999999992	0.0
C 	51.649755081703915	25.559999999999995	0.0
C 	52.879511155077815	26.269999999999992	0.0
C 	54.10926722845172	25.559999999999995	0.0
C 	55.33902330182562	26.269999999999992	0.0
C 	56.568779375199526	25.55999999999999	0.0
C 	57.79853544857343	26.269999999999992	0.0
C 	59.028291521947324	25.55999999999999	0.0
C 	60.25804759532123	26.269999999999992	0.0
C 	61.487803668695136	25.559999999999995	0.0
C 	62.717559742069035	26.26999999999999	0.0
C 	63.94731581544294	25.55999999999999	0.0
C 	65.17707188881683	26.269999999999985	0.0
C 	66.40682796219075	25.55999999999999	0.0
C 	67.63658403556465	26.269999999999992	0.0
C 	68.86634010893856	25.559999999999995	0.0
C 	70.09609618231246	26.269999999999996	0.0
C 	71.32585225568636	25.559999999999995	0.0
C 	72.55560832906026	26.269999999999996	0.0
C 	73.78536440243415	25.559999999999988	0.0
C 	75.01512047580806	26.26999999999999	0.0
C 	15.986828953860735	27.689999999999994	0.0
C 	17.21658502723464	28.399999999999995	0.0
C 	18.446341100608542	27.689999999999994	0.0
C 	19.676097173982445	28.399999999999995	0.0
C 	20.905853247356344	27.689999999999994	0.0
C 	22.13560932073025	28.399999999999995	0.0
C 	23.365365394104153	27.689999999999994	0.0
C 	24.59512146747806	28.399999999999995	0.0
C 	25.824877540851954	27.689999999999994	0.0
C 	27.054633614225857	28.399999999999995	0.0
C 	28.284389687599763	27.689999999999994	0.0
C 	29.514145760973665	28.399999999999995	0.0
C 	30.74390183434757	27.689999999999994	0.0
C 	31.973657907721474	28.399999999999995	0.0
C 	33.20341398109537	27.68999999999999	0.0
C 	34.43317005446928	28.39999999999999	0.0
C 	35.66292612784318	27.689999999999994	0.0
C 	36.892682201217085	28.399999999999995	0.0
C 	38.122438274590984	27.689999999999994	0.0
C 	39.35219434796489	28.399999999999995	0.0
C 	40.58195042133879	27.689999999999994	0.0
C 	41.811706494712695	28.399999999999995	0.0
C 	43.041462568086594	27.689999999999994	0.0
C 	44.2712186414605	28.399999999999995	0.0
C 	45.500974714834406	27.689999999999994	0.0
C 	46.730730788208305	28.399999999999995	0.0
C 	47.960486861582204	27.68999999999999	0.0
C 	49.19024293495611	28.39999999999999	0.0
C 	50.41999900833002	27.689999999999994	0.0
C 	51.649755081703915	28.399999999999995	0.0
C 	52.87951115507782	27.689999999999994	0.0
C 	54.10926722845173	28.399999999999995	0.0
C 	55.33902330182562	27.68999999999999	0.0
C 	56.568779375199526	28.39999999999999	0.0
C 	57.79853544857343	27.689999999999994	0.0
C 	59.02829152194733	28.39999999999999	0.0
C 	60.25804759532124	27.689999999999994	0.0
C 	61.48780366869513	28.399999999999988	0.0
C 	62.717559742069035	27.689999999999994	0.0
C 	63.94731581544294	28.399999999999995	0.0
C 	65.17707188881684	27.68999999999999	0.0
C 	66.40682796219075	28.39999999999999	0.0
C 	67.63658403556464	27.689999999999987	0.0
C 	68.86634010893856	28.399999999999995	0.0
C 	70.09609618231245	27.689999999999994	0.0
C 	71.32585225568636	28.399999999999995	0.0
C 	72.55560832906026	27.68999999999999	0.0
C 	73.78536440243415	28.39999999999999	0.0
C 	75.01512047580808	27.689999999999994	0.0
C 	76.24487654918197	28.399999999999984	0.0
C 	17.21658502723464	29.819999999999997	0.0
C 	18.446341100608546	30.529999999999998	0.0
C 	19.676097173982445	29.819999999999997	0.0
C 	20.905853247356355	30.529999999999998	0.0
C 	22.13560932073025	29.819999999999993	0.0
C 	23.365365394104156	30.529999999999994	0.0
C 	24.59512146747806	29.819999999999997	0.0
C 	25.82487754085196	30.529999999999998	0.0
C 	27.054633614225867	29.819999999999997	0.0
C 	28.28438968759977	30.529999999999998	0.0
C 	29.514145760973665	29.819999999999997	0.0
C 	30.74390183434757	30.529999999999998	0.0
C 	31.973657907721474	29.819999999999997	0.0
C 	33.20341398109538	30.529999999999998	0.0
C 	34.43317005446928	29.819999999999997	0.0
C 	35.662926127843185	30.529999999999998	0.0
C 	36.892682201217085	29.819999999999993	0.0
C 	38.12243827459099	30.529999999999994	0.0
C 	39.35219434796488	29.819999999999993	0.0
C 	40.58195042133879	30.529999999999994	0.0
C 	41.811706494712695	29.819999999999993	0.0
C 	43.0414625680866	30.529999999999994	0.0
C 	44.2712186414605	29.819999999999993	0.0
C 	45.500974714834406	30.529999999999994	0.0
C 	46.730730788208305	29.81999999999999	0.0
C 	47.960486861582204	30.52999999999999	0.0
C 	49.19024293495611	29.819999999999993	0.0
C 	50.41999900833002	30.529999999999994	0.0
C 	51.649755081703915	29.819999999999993	0.0
C 	52.87951115507782	30.529999999999994	0.0
C 	54.10926722845172	29.819999999999993	0.0
C 	55.33902330182563	30.52999999999999	0.0
C 	56.568779375199526	29.819999999999993	0.0
C 	57.798535448573425	30.52999999999999	0.0
C 	59.02829152194734	29.819999999999993	0.0
C 	60.25804759532124	30.529999999999994	0.0
C 	61.487803668695136	29.819999999999993	0.0
C 	62.71755974206904	30.529999999999994	0.0
C 	63.947315815442934	29.81999999999999	0.0
C 	65.17707188881685	30.529999999999998	0.0
C 	66.40682796219073	29.819999999999986	0.0
C 	67.63658403556465	30.529999999999994	0.0
C 	68.86634010893856	29.819999999999993	0.0
C 	70.09609618231245	30.529999999999994	0.0
C 	71.32585225568637	29.819999999999997	0.0
C 	72.55560832906026	30.52999999999999	0.0
C 	73.78536440243417	29.819999999999997	0.0
C 	75.01512047580806	30.529999999999987	0.0
C 	76.24487654918197	29.81999999999999	0.0
C 	77.47463262255587	30.52999999999999	0.0
C 	18.446341100608542	31.949999999999996	0.0
C 	19.676097173982445	32.65999999999999	0.0
C 	20.905853247356347	31.949999999999992	0.0
C 	22.135609320730254	32.66	0.0
C 	23.365365394104156	31.949999999999996	0.0
C 	24.595121467478055	32.65999999999999	0.0
C 	25.824877540851958	31.949999999999992	0.0
C 	27.05463361422586	32.66	0.0
C 	28.284389687599766	31.949999999999996	0.0
C 	29.51414576097367	32.66	0.0
C 	30.743901834347568	31.949999999999992	0.0
C 	31.97365790772147	32.66	0.0
C 	33.20341398109537	31.949999999999992	0.0
C 	34.43317005446928	32.66	0.0
C 	35.66292612784318	31.949999999999996	0.0
C 	36.892682201217085	32.66	0.0
C 	38.122438274590984	31.949999999999992	0.0
C 	39.35219434796489	32.65999999999999	0.0
C 	40.58195042133879	31.949999999999992	0.0
C 	41.81170649471269	32.65999999999999	0.0
C 	43.0414625680866	31.949999999999996	0.0
C 	44.2712186414605	32.65999999999999	0.0
C 	45.5009747148344	31.949999999999992	0.0
C 	46.730730788208305	32.65999999999999	0.0
C 	47.96048686158221	31.949999999999992	0.0
C 	49.1902429349561	32.65999999999999	0.0
C 	50.41999900833002	31.949999999999992	0.0
C 	51.649755081703915	32.65999999999999	0.0
C 	52.879511155077815	31.949999999999992	0.0
C 	54.10926722845172	32.65999999999999	0.0
C 	55.33902330182563	31.949999999999992	0.0
C 	56.568779375199526	32.65999999999999	0.0
C 	57.79853544857343	31.949999999999992	0.0
C 	59.028291521947324	32.65999999999999	0.0
C 	60.25804759532124	31.949999999999992	0.0
C 	61.487803668695136	32.65999999999999	0.0
C 	62.717559742069035	31.94999999999999	0.0
C 	63.94731581544294	32.65999999999999	0.0
C 	65.17707188881685	31.949999999999992	0.0
C 	66.40682796219076	32.66	0.0
C 	67.63658403556465	31.949999999999992	0.0
C 	68.86634010893856	32.65999999999999	0.0
C 	70.09609618231245	31.94999999999999	0.0
C 	71.32585225568636	32.65999999999999	0.0
C 	72.55560832906026	31.949999999999996	0.0
C 	73.78536440243415	32.65999999999999	0.0
C 	75.01512047580806	31.949999999999992	0.0
C 	76.24487654918195	32.65999999999998	0.0
C 	77.47463262255587	31.949999999999985	0.0
C 	78.70438869592978	32.65999999999999	0.0
C 	19.676097173982445	34.07999999999999	0.0
C 	20.90585324735635	34.78999999999999	0.0
C 	22.135609320730254	34.07999999999999	0.0
C 	23.365365394104156	34.78999999999999	0.0
C 	24.595121467478055	34.07999999999999	0.0
C 	25.824877540851958	34.78999999999999	0.0
C 	27.054633614225864	34.07999999999999	0.0
C 	28.284389687599766	34.78999999999999	0.0
C 	29.514145760973665	34.07999999999999	0.0
C 	30.743901834347568	34.78999999999999	0.0
C 	31.97365790772147	34.07999999999999	0.0
C 	33.20341398109537	34.78999999999999	0.0
C 	34.43317005446928	34.07999999999999	0.0
C 	35.662926127843185	34.78999999999999	0.0
C 	36.89268220121708	34.07999999999999	0.0
C 	38.122438274590984	34.78999999999999	0.0
C 	39.35219434796489	34.07999999999999	0.0
C 	40.581950421338796	34.78999999999999	0.0
C 	41.811706494712695	34.07999999999999	0.0
C 	43.0414625680866	34.78999999999999	0.0
C 	44.2712186414605	34.07999999999999	0.0
C 	45.5009747148344	34.78999999999999	0.0
C 	46.730730788208305	34.07999999999999	0.0
C 	47.96048686158221	34.78999999999999	0.0
C 	49.19024293495611	34.07999999999999	0.0
C 	50.41999900833002	34.78999999999999	0.0
C 	51.649755081703915	34.07999999999999	0.0
C 	52.87951115507782	34.78999999999999	0.0
C 	54.10926722845172	34.07999999999999	0.0
C 	55.33902330182562	34.78999999999999	0.0
C 	56.56877937519953	34.07999999999999	0.0
C 	57.79853544857343	34.78999999999999	0.0
C 	59.02829152194733	34.07999999999999	0.0
C 	60.25804759532124	34.78999999999999	0.0
C 	61.487803668695136	34.07999999999999	0.0
C 	62.71755974206905	34.79	0.0
C 	63.947315815442934	34.079999999999984	0.0
C 	65.17707188881685	34.78999999999999	0.0
C 	66.40682796219075	34.07999999999999	0.0
C 	67.63658403556465	34.78999999999999	0.0
C 	68.86634010893854	34.07999999999999	0.0
C 	70.09609618231245	34.78999999999999	0.0
C 	71.32585225568636	34.07999999999999	0.0
C 	72.55560832906025	34.789999999999985	0.0
C 	73.78536440243417	34.07999999999999	0.0
C 	75.01512047580808	34.78999999999999	0.0
C 	76.24487654918197	34.07999999999999	0.0
C 	77.47463262255587	34.78999999999999	0.0
C 	78.70438869592977	34.079999999999984	0.0
C 	79.93414476930369	34.78999999999999	0.0
C 	20.90585324735635	36.209999999999994	0.0
C 	22.135609320730254	36.919999999999995	0.0
C 	23.36536539410416	36.209999999999994	0.0
C 	24.595121467478062	36.919999999999995	0.0
C 	25.82487754085196	36.209999999999994	0.0
C 	27.054633614225864	36.919999999999995	0.0
C 	28.284389687599766	36.209999999999994	0.0
C 	29.514145760973673	36.919999999999995	0.0
C 	30.743901834347575	36.209999999999994	0.0
C 	31.973657907721478	36.919999999999995	0.0
C 	33.20341398109537	36.209999999999994	0.0
C 	34.43317005446928	36.919999999999995	0.0
C 	35.662926127843185	36.209999999999994	0.0
C 	36.89268220121709	36.919999999999995	0.0
C 	38.12243827459099	36.209999999999994	0.0
C 	39.3521943479649	36.919999999999995	0.0
C 	40.581950421338796	36.209999999999994	0.0
C 	41.811706494712695	36.919999999999995	0.0
C 	43.041462568086594	36.209999999999994	0.0
C 	44.2712186414605	36.919999999999995	0.0
C 	45.500974714834406	36.209999999999994	0.0
C 	46.730730788208305	36.919999999999995	0.0
C 	47.96048686158221	36.209999999999994	0.0
C 	49.19024293495612	36.919999999999995	0.0
C 	50.41999900833002	36.20999999999999	0.0
C 	51.649755081703915	36.91999999999999	0.0
C 	52.87951115507782	36.209999999999994	0.0
C 	54.10926722845172	36.91999999999999	0.0
C 	55.33902330182563	36.209999999999994	0.0
C 	56.56877937519953	36.919999999999995	0.0
C 	57.79853544857343	36.20999999999999	0.0
C 	59.02829152194733	36.91999999999999	0.0
C 	60.25804759532123	36.20999999999999	0.0
C 	61.48780366869515	36.919999999999995	0.0
C 	62.71755974206904	36.209999999999994	0.0
C 	63.94731581544295	36.919999999999995	0.0
C 	65.17707188881684	36.209999999999994	0.0
C 	66.40682796219075	36.919999999999995	0.0
C 	67.63658403556467	36.209999999999994	0.0
C 	68.86634010893856	36.91999999999999	0.0
C 	70.09609618231246	36.209999999999994	0.0
C 	71.32585225568636	36.91999999999999	0.0
C 	72.55560832906026	36.209999999999994	0.0
C 	73.78536440243417	36.919999999999995	0.0
C 	75.01512047580806	36.20999999999999	0.0
C 	76.24487654918198	36.919999999999995	0.0
C 	77.47463262255586	36.20999999999999	0.0
C 	78.70438869592978	36.919999999999995	0.0
C 	79.93414476930369	36.20999999999999	0.0
C 	81.16390084267759	36.91999999999999	0.0
C 	22.13560932073025	38.33999999999999	0.0
C 	23.365365394104153	39.04999999999999	0.0
C 	24.59512146747806	38.33999999999999	0.0
C 	25.82487754085196	39.04999999999999	0.0
C 	27.05463361422586	38.33999999999999	0.0
C 	28.284389687599763	39.04999999999999	0.0
C 	29.514145760973665	38.33999999999999	0.0
C 	30.74390183434757	39.04999999999999	0.0
C 	31.973657907721474	38.339999999999996	0.0
C 	33.20341398109538	39.04999999999999	0.0
C 	34.43317005446927	38.33999999999999	0.0
C 	35.66292612784318	39.04999999999999	0.0
C 	36.892682201217085	38.33999999999999	0.0
C 	38.12243827459099	39.04999999999999	0.0
C 	39.35219434796489	38.33999999999999	0.0
C 	40.581950421338796	39.04999999999999	0.0
C 	41.811706494712695	38.33999999999999	0.0
C 	43.0414625680866	39.04999999999999	0.0
C 	44.27121864146049	38.33999999999999	0.0
C 	45.5009747148344	39.04999999999999	0.0
C 	46.730730788208305	38.33999999999999	0.0
C 	47.960486861582204	39.04999999999999	0.0
C 	49.19024293495611	38.33999999999999	0.0
C 	50.41999900833002	39.04999999999999	0.0
C 	51.649755081703915	38.33999999999999	0.0
C 	52.879511155077815	39.04999999999999	0.0
C 	54.10926722845173	38.33999999999999	0.0
C 	55.33902330182562	39.04999999999998	0.0
C 	56.568779375199526	38.33999999999999	0.0
C 	57.79853544857343	39.04999999999999	0.0
C 	59.02829152194733	38.33999999999999	0.0
C 	60.25804759532123	39.04999999999999	0.0
C 	61.48780366869513	38.33999999999998	0.0
C 	62.71755974206905	39.04999999999999	0.0
C 	63.94731581544294	38.33999999999999	0.0
C 	65.17707188881685	39.04999999999999	0.0
C 	66.40682796219075	38.33999999999999	0.0
C 	67.63658403556465	39.04999999999999	0.0
C 	68.86634010893856	38.33999999999999	0.0
C 	70.09609618231245	39.04999999999998	0.0
C 	71.32585225568636	38.33999999999999	0.0
C 	72.55560832906025	39.04999999999998	0.0
C 	73.78536440243415	38.33999999999999	0.0
C 	75.01512047580806	39.04999999999999	0.0
C 	76.24487654918197	38.33999999999999	0.0
C 	77.47463262255587	39.05	0.0
C 	78.70438869592977	38.33999999999998	0.0
C 	79.93414476930369	39.04999999999999	0.0
C 	81.16390084267758	38.33999999999998	0.0
C 	82.39365691605148	39.04999999999998	0.0
C 	23.365365394104156	40.46999999999999	0.0
C 	24.59512146747806	41.17999999999999	0.0
C 	25.82487754085196	40.46999999999999	0.0
C 	27.054633614225867	41.17999999999999	0.0
C 	28.284389687599763	40.46999999999999	0.0
C 	29.51414576097367	41.17999999999999	0.0
C 	30.74390183434757	40.46999999999999	0.0
C 	31.973657907721474	41.17999999999999	0.0
C 	33.20341398109537	40.46999999999999	0.0
C 	34.43317005446928	41.17999999999999	0.0
C 	35.66292612784318	40.46999999999999	0.0
C 	36.892682201217085	41.17999999999999	0.0
C 	38.12243827459099	40.46999999999999	0.0
C 	39.3521943479649	41.17999999999999	0.0
C 	40.58195042133879	40.46999999999999	0.0
C 	41.811706494712695	41.17999999999999	0.0
C 	43.0414625680866	40.46999999999999	0.0
C 	44.2712186414605	41.17999999999999	0.0
C 	45.500974714834406	40.46999999999999	0.0
C 	46.73073078820831	41.17999999999999	0.0
C 	47.960486861582204	40.46999999999999	0.0
C 	49.19024293495611	41.17999999999999	0.0
C 	50.41999900833002	40.46999999999999	0.0
C 	51.649755081703915	41.179999999999986	0.0
C 	52.87951115507782	40.46999999999999	0.0
C 	54.10926722845173	41.17999999999999	0.0
C 	55.33902330182563	40.46999999999999	0.0
C 	56.568779375199526	41.17999999999999	0.0
C 	57.798535448573425	40.469999999999985	0.0
C 	59.028291521947345	41.17999999999999	0.0
C 	60.25804759532124	40.46999999999999	0.0
C 	61.48780366869514	41.17999999999999	0.0
C 	62.71755974206904	40.46999999999999	0.0
C 	63.94731581544295	41.17999999999999	0.0
C 	65.17707188881685	40.46999999999999	0.0
C 	66.40682796219075	41.179999999999986	0.0
C 	67.63658403556465	40.46999999999999	0.0
C 	68.86634010893854	41.179999999999986	0.0
C 	70.09609618231246	40.46999999999999	0.0
C 	71.32585225568636	41.17999999999999	0.0
C 	72.55560832906026	40.469999999999985	0.0
C 	73.78536440243417	41.179999999999986	0.0
C 	75.01512047580806	40.469999999999985	0.0
C 	76.24487654918198	41.17999999999999	0.0
C 	77.47463262255587	40.46999999999999	0.0
C 	78.70438869592978	41.17999999999999	0.0
C 	79.93414476930367	40.469999999999985	0.0
C 	81.16390084267758	41.179999999999986	0.0
C 	82.3936569160515	40.46999999999999	0.0
C 	83.62341298942539	41.179999999999986	0.0
C 	24.595121467478055	42.59999999999999	0.0
C 	25.82487754085196	43.30999999999999	0.0
C 	27.05463361422586	42.59999999999999	0.0
C 	28.284389687599766	43.30999999999999	0.0
C 	29.514145760973662	42.59999999999999	0.0
C 	30.743901834347568	43.30999999999999	0.0
C 	31.97365790772147	42.59999999999999	0.0
C 	33.20341398109537	43.30999999999999	0.0
C 	34.43317005446927	42.59999999999999	0.0
C 	35.66292612784318	43.30999999999999	0.0
C 	36.89268220121708	42.59999999999999	0.0
C 	38.122438274590984	43.30999999999999	0.0
C 	39.35219434796489	42.59999999999999	0.0
C 	40.581950421338796	43.30999999999999	0.0
C 	41.81170649471269	42.59999999999999	0.0
C 	43.041462568086594	43.30999999999999	0.0
C 	44.2712186414605	42.59999999999999	0.0
C 	45.5009747148344	43.30999999999999	0.0
C 	46.730730788208305	42.59999999999999	0.0
C 	47.96048686158221	43.30999999999999	0.0
C 	49.19024293495611	42.59999999999999	0.0
C 	50.41999900833001	43.30999999999999	0.0
C 	51.64975508170392	42.599999999999994	0.0
C 	52.879511155077815	43.30999999999999	0.0
C 	54.10926722845172	42.59999999999999	0.0
C 	55.33902330182563	43.30999999999999	0.0
C 	56.568779375199526	42.59999999999999	0.0
C 	57.798535448573425	43.30999999999999	0.0
C 	59.028291521947324	42.59999999999998	0.0
C 	60.258047595321244	43.30999999999999	0.0
C 	61.487803668695136	42.59999999999999	0.0
C 	62.71755974206904	43.30999999999999	0.0
C 	63.94731581544294	42.59999999999999	0.0
C 	65.17707188881684	43.30999999999999	0.0
C 	66.40682796219076	42.599999999999994	0.0
C 	67.63658403556465	43.30999999999999	0.0
C 	68.86634010893856	42.59999999999999	0.0
C 	70.09609618231245	43.30999999999998	0.0
C 	71.32585225568636	42.59999999999999	0.0
C 	72.55560832906026	43.30999999999999	0.0
C 	73.78536440243415	42.59999999999999	0.0
C 	75.01512047580806	43.30999999999999	0.0
C 	76.24487654918197	42.59999999999998	0.0
C 	77.47463262255587	43.30999999999999	0.0
C 	78.70438869592978	42.59999999999999	0.0
C 	79.93414476930367	43.30999999999999	0.0
C 	81.16390084267758	42.59999999999999	0.0
C 	82.39365691605148	43.30999999999999	0.0
C 	83.62341298942539	42.59999999999999	0.0
C 	84.85316906279928	43.30999999999998	0.0
C 	25.82487754085196	44.72999999999999	0.0
C 	27.054633614225864	45.43999999999999	0.0
C 	28.284389687599766	44.72999999999999	0.0
C 	29.514145760973673	45.43999999999999	0.0
C 	30.743901834347568	44.72999999999999	0.0
C 	31.97365790772147	45.43999999999999	0.0
C 	33.20341398109537	44.72999999999999	0.0
C 	34.43317005446928	45.43999999999999	0.0
C 	35.662926127843185	44.72999999999999	0.0
C 	36.892682201217085	45.43999999999999	0.0
C 	38.122438274590984	44.72999999999999	0.0
C 	39.35219434796489	45.43999999999999	0.0
C 	40.581950421338796	44.72999999999999	0.0
C 	41.811706494712695	45.43999999999999	0.0
C 	43.0414625680866	44.72999999999999	0.0
C 	44.27121864146051	45.43999999999999	0.0
C 	45.500974714834406	44.72999999999999	0.0
C 	46.730730788208305	45.43999999999999	0.0
C 	47.960486861582204	44.72999999999999	0.0
C 	49.19024293495611	45.43999999999998	0.0
C 	50.41999900833002	44.72999999999999	0.0
C 	51.64975508170391	45.43999999999998	0.0
C 	52.87951115507782	44.72999999999999	0.0
C 	54.10926722845172	45.43999999999999	0.0
C 	55.33902330182562	44.72999999999998	0.0
C 	56.568779375199526	45.43999999999998	0.0
C 	57.798535448573425	44.72999999999998	0.0
C 	59.02829152194734	45.43999999999999	0.0
C 	60.25804759532124	44.72999999999999	0.0
C 	61.48780366869514	45.43999999999999	0.0
C 	62.717559742069035	44.72999999999998	0.0
C 	63.94731581544294	45.43999999999998	0.0
C 	65.17707188881685	44.72999999999999	0.0
C 	66.40682796219075	45.43999999999998	0.0
C 	67.63658403556465	44.72999999999999	0.0
C 	68.86634010893856	45.43999999999999	0.0
C 	70.09609618231245	44.72999999999999	0.0
C 	71.32585225568636	45.43999999999998	0.0
C 	72.55560832906026	44.72999999999998	0.0
C 	73.78536440243417	45.43999999999999	0.0
C 	75.01512047580806	44.72999999999998	0.0
C 	76.24487654918198	45.43999999999999	0.0
C 	77.47463262255587	44.72999999999999	0.0
C 	78.70438869592978	45.43999999999999	0.0
C 	79.93414476930369	44.72999999999999	0.0
C 	81.16390084267758	45.43999999999998	0.0
C 	82.39365691605148	44.72999999999999	0.0
C 	83.62341298942538	45.43999999999998	0.0
C 	84.8531690627993	44.72999999999998	0.0
C 	86.08292513617319	45.43999999999998	0.0
C 	27.054633614225864	46.85999999999999	0.0
C 	28.28438968759977	47.56999999999999	0.0
C 	29.514145760973673	46.85999999999999	0.0
C 	30.74390183434758	47.56999999999999	0.0
C 	31.973657907721474	46.85999999999999	0.0
C 	33.20341398109538	47.56999999999999	0.0
C 	34.43317005446928	46.85999999999999	0.0
C 	35.662926127843185	47.56999999999999	0.0
C 	36.892682201217085	46.85999999999999	0.0
C 	38.122438274590984	47.56999999999999	0.0
C 	39.35219434796489	46.85999999999999	0.0
C 	40.581950421338796	47.56999999999999	0.0
C 	41.8117064947127	46.85999999999999	0.0
C 	43.0414625680866	47.56999999999999	0.0
C 	44.2712186414605	46.85999999999999	0.0
C 	45.500974714834406	47.56999999999999	0.0
C 	46.73073078820831	46.859999999999985	0.0
C 	47.960486861582204	47.569999999999986	0.0
C 	49.19024293495612	46.85999999999999	0.0
C 	50.41999900833002	47.56999999999999	0.0
C 	51.649755081703915	46.859999999999985	0.0
C 	52.87951115507782	47.569999999999986	0.0
C 	54.10926722845172	46.859999999999985	0.0
C 	55.339023301825634	47.56999999999999	0.0
C 	56.56877937519953	46.85999999999999	0.0
C 	57.79853544857344	47.56999999999999	0.0
C 	59.02829152194733	46.859999999999985	0.0
C 	60.25804759532124	47.569999999999986	0.0
C 	61.48780366869515	46.85999999999999	0.0
C 	62.71755974206904	47.569999999999986	0.0
C 	63.94731581544295	46.85999999999999	0.0
C 	65.17707188881685	47.56999999999999	0.0
C 	66.40682796219075	46.859999999999985	0.0
C 	67.63658403556465	47.569999999999986	0.0
C 	68.86634010893856	46.859999999999985	0.0
C 	70.09609618231246	47.56999999999999	0.0
C 	71.32585225568636	46.859999999999985	0.0
C 	72.55560832906028	47.56999999999999	0.0
C 	73.78536440243417	46.859999999999985	0.0
C 	75.01512047580808	47.569999999999986	0.0
C 	76.24487654918197	46.859999999999985	0.0
C 	77.47463262255587	47.569999999999986	0.0
C 	78.70438869592978	46.85999999999999	0.0
C 	79.93414476930367	47.569999999999986	0.0
C 	81.16390084267758	46.85999999999999	0.0
C 	82.39365691605148	47.56999999999999	0.0
C 	83.62341298942539	46.859999999999985	0.0
C 	84.8531690627993	47.569999999999986	0.0
C 	86.08292513617319	46.85999999999998	0.0
C 	87.31268120954711	47.569999999999986	0.0
C 	28.284389687599763	48.98999999999999	0.0
C 	29.51414576097367	49.69999999999999	0.0
C 	30.74390183434757	48.98999999999999	0.0
C 	31.973657907721478	49.69999999999999	0.0
C 	33.20341398109537	48.98999999999999	0.0
C 	34.43317005446928	49.69999999999999	0.0
C 	35.66292612784318	48.98999999999999	0.0
C 	36.892682201217085	49.69999999999999	0.0
C 	38.122438274590984	48.98999999999999	0.0
C 	39.35219434796488	49.69999999999999	0.0
C 	40.58195042133879	48.98999999999999	0.0
C 	41.811706494712695	49.69999999999999	0.0
C 	43.041462568086594	48.98999999999999	0.0
C 	44.2712186414605	49.69999999999999	0.0
C 	45.5009747148344	48.98999999999999	0.0
C 	46.730730788208305	49.69999999999998	0.0
C 	47.96048686158221	48.98999999999999	0.0
C 	49.1902429349561	49.69999999999998	0.0
C 	50.41999900833002	48.98999999999999	0.0
C 	51.64975508170392	49.69999999999999	0.0
C 	52.879511155077815	48.98999999999999	0.0
C 	54.10926722845172	49.69999999999999	0.0
C 	55.33902330182562	48.98999999999998	0.0
C 	56.56877937519953	49.69999999999999	0.0
C 	57.79853544857343	48.98999999999999	0.0
C 	59.02829152194734	49.69999999999999	0.0
C 	60.25804759532124	48.98999999999999	0.0
C 	61.487803668695136	49.69999999999999	0.0
C 	62.71755974206905	48.98999999999999	0.0
C 	63.94731581544294	49.69999999999998	0.0
C 	65.17707188881685	48.98999999999999	0.0
C 	66.40682796219075	49.69999999999999	0.0
C 	67.63658403556465	48.98999999999999	0.0
C 	68.86634010893856	49.69999999999999	0.0
C 	70.09609618231245	48.98999999999998	0.0
C 	71.32585225568637	49.69999999999999	0.0
C 	72.55560832906025	48.98999999999998	0.0
C 	73.78536440243417	49.69999999999999	0.0
C 	75.01512047580806	48.98999999999999	0.0
C 	76.24487654918197	49.69999999999999	0.0
C 	77.47463262255587	48.98999999999998	0.0
C 	78.70438869592978	49.69999999999998	0.0
C 	79.93414476930369	48.98999999999999	0.0
C 	81.16390084267758	49.69999999999998	0.0
C 	82.39365691605148	48.98999999999999	0.0
C 	83.62341298942539	49.69999999999999	0.0
C 	84.85316906279928	48.98999999999998	0.0
C 	86.08292513617319	49.69999999999998	0.0
C 	87.3126812095471	48.98999999999998	0.0
C 	88.542437282921	49.69999999999999	0.0
C 	29.51414576097367	51.11999999999999	0.0
C 	30.74390183434757	51.82999999999999	0.0
C 	31.973657907721474	51.11999999999999	0.0
C 	33.20341398109538	51.82999999999999	0.0
C 	34.43317005446928	51.11999999999999	0.0
C 	35.66292612784318	51.82999999999999	0.0
C 	36.892682201217085	51.11999999999999	0.0
C 	38.12243827459099	51.82999999999999	0.0
C 	39.35219434796489	51.12	0.0
C 	40.581950421338796	51.83	0.0
C 	41.811706494712695	51.11999999999999	0.0
C 	43.041462568086594	51.82999999999999	0.0
C 	44.2712186414605	51.12	0.0
C 	45.5009747148344	51.82999999999999	0.0
C 	46.73073078820831	51.11999999999999	0.0
C 	47.96048686158221	51.82999999999999	0.0
C 	49.19024293495611	51.11999999999999	0.0
C 	50.41999900833002	51.82999999999999	0.0
C 	51.649755081703915	51.11999999999998	0.0
C 	52.879511155077815	51.829999999999984	0.0
C 	54.10926722845171	51.11999999999999	0.0
C 	55.33902330182563	51.83	0.0
C 	56.568779375199526	51.11999999999999	0.0
C 	57.79853544857343	51.82999999999999	0.0
C 	59.02829152194733	51.11999999999999	0.0
C 	60.25804759532124	51.82999999999999	0.0
C 	61.48780366869514	51.11999999999999	0.0
C 	62.717559742069035	51.829999999999984	0.0
C 	63.94731581544295	51.11999999999999	0.0
C 	65.17707188881685	51.82999999999999	0.0
C 	66.40682796219075	51.11999999999999	0.0
C 	67.63658403556465	51.82999999999999	0.0
C 	68.86634010893854	51.11999999999998	0.0
C 	70.09609618231246	51.82999999999999	0.0
C 	71.32585225568636	51.11999999999999	0.0
C 	72.55560832906026	51.82999999999999	0.0
C 	73.78536440243417	51.11999999999999	0.0
C 	75.01512047580806	51.82999999999999	0.0
C 	76.24487654918198	51.11999999999999	0.0
C 	77.47463262255587	51.829999999999984	0.0
C 	78.70438869592978	51.11999999999999	0.0
C 	79.93414476930367	51.829999999999984	0.0
C 	81.16390084267758	51.11999999999999	0.0
C 	82.39365691605148	51.82999999999999	0.0
C 	83.62341298942538	51.11999999999998	0.0
C 	84.8531690627993	51.82999999999999	0.0
C 	86.08292513617319	51.11999999999998	0.0
C 	87.3126812095471	51.82999999999999	0.0
C 	88.542437282921	51.11999999999998	0.0
C 	89.7721933562949	51.829999999999984	0.0
C 	51.84368826297261	-0.30526593605627683	2.15
C 	53.20730529663387	0.09090143451942766	2.15
C 	53.546022806395456	1.4699121119911127	2.15
C 	54.90963984005672	1.866079482566819	2.15
C 	55.248357349818306	3.245090160038504	2.15
C 	56.61197438347956	3.6412575306142014	2.15
C 	56.95069189324115	5.020268208085887	2.15
C 	49.455171705411686	0.2814100002639939	2.15
C 	50.818788739072936	0.6775773708396933	2.15
C 	51.15750624883452	2.056588048311378	2.15
C 	52.521123282495786	2.4527554188870844	2.15
C 	52.85984079225737	3.8317660963587694	2.15
C 	54.22345782591862	4.227933466934476	2.15
C 	54.56217533568021	5.606944144406161	2.15
C 	55.92579236934147	6.00311151498186	2.15
C 	56.26450987910306	7.382122192453545	2.15
C 	57.628126912764316	7.778289563029252	2.15
C 	57.9668444225259	9.157300240500936	2.15
C 	59.330461456187166	9.553467611076643	2.15
C 	59.66917896594875	10.932478288548328	2.15
C 	61.03279599961	11.328645659124028	2.15
C 	61.37151350937159	12.707656336595713	2.15
C 	45.364320604427895	-0.907092111463125	2.15
C 	46.72793763808916	-0.5109247408874169	2.15
C 	47.066655147850746	0.8680859365842681	2.15
C 	48.430272181512	1.2642533071599726	2.15
C 	48.76898969127359	2.6432639846316577	2.15
C 	50.13260672493485	3.039431355207357	2.15
C 	50.47132423469644	4.418442032679042	2.15
C 	51.834941268357696	4.814609403254747	2.15
C 	52.17365877811928	6.193620080726432	2.15
C 	53.537275811780546	6.58978745130214	2.15
C 	53.875993321542126	7.968798128773825	2.15
C 	55.23961035520338	8.364965499349523	2.15
C 	55.57832786496497	9.743976176821208	2.15
C 	56.94194489862623	10.140143547396915	2.15
C 	57.28066240838782	11.5191542248686	2.15
C 	58.644279442049076	11.915321595444304	2.15
C 	58.98299695181066	13.29433227291599	2.15
C 	60.34661398547191	13.690499643491693	2.15
C 	60.6853314952335	15.069510320963378	2.15
C 	62.048948528894755	15.465677691539083	2.15
C 	62.38766603865634	16.84468836901077	2.15
C 	63.751283072317605	17.240855739586475	2.15
C 	64.09000058207918	18.61986641705816	2.15
C 	65.45361761574046	19.016033787633855	2.15
C 	65.79233512550203	20.395044465105542	2.15
C 	42.97580404686696	-0.3204161751428525	2.15
C 	44.33942108052823	0.07575119543285033	2.15
C 	44.67813859028981	1.454761872904532	2.15
C 	46.04175562395107	1.8509292434802416	2.15
C 	46.380473133712655	3.229939920951923	2.15
C 	47.74409016737391	3.6261072915276347	2.15
C 	48.0828076771355	5.005117968999317	2.15
C 	49.446424710796755	5.4012853395750176	2.15
C 	49.78514222055834	6.780296017046699	2.15
C 	51.14875925421961	7.176463387622409	2.15
C 	51.48747676398119	8.55547406509409	2.15
C 	52.851093797642456	8.951641435669798	2.15
C 	53.18981130740404	10.330652113141479	2.15
C 	54.5534283410653	10.726819483717184	2.15
C 	54.892145850826886	12.105830161188866	2.15
C 	56.255762884488135	12.501997531764577	2.15
C 	56.59448039424972	13.881008209236258	2.15
C 	57.958097427910985	14.277175579811967	2.15
C 	58.29681493767257	15.656186257283649	2.15
C 	59.66043197133382	16.05235362785935	2.15
C 	59.99914948109541	17.431364305331034	2.15
C 	61.36276651475668	17.827531675906744	2.15
C 	61.70148402451826	19.206542353378424	2.15
C 	63.065101058179515	19.60270972395413	2.15
C 	63.4038185679411	20.981720401425815	2.15
C 	64.76743560160236	21.377887772001515	2.15
C 	65.10615311136394	22.7568984494732	2.15
C 	66.46977014502521	23.153065820048898	2.15
C 	66.80848765478679	24.53207649752058	2.15
C 	68.17210468844804	24.9282438680963	2.15
C 	68.51082219820964	26.307254545567982	2.15
C 	69.8744392318709	26.70342191614368	2.15
C 	70.21315674163249	28.082432593615366	2.15
C 	40.58728748930603	0.26625976117742	2.15
C 	41.95090452296729	0.6624271317531281	2.15
C 	42.28962203272888	2.041437809224813	2.15
C 	43.653239066390135	2.4376051798005105	2.15
C 	43.99195657615172	3.8166158572721955	2.15
C 	45.355573609812986	4.212783227847902	2.15
C 	45.69429111957457	5.591793905319587	2.15
C 	47.05790815323582	5.987961275895294	2.15
C 	47.39662566299741	7.366971953366979	2.15
C 	48.760242696658665	7.76313932394268	2.15
C 	49.09896020642025	9.142150001414365	2.15
C 	50.462577240081515	9.538317371990068	2.15
C 	50.8012947498431	10.917328049461753	2.15
C 	52.164911783504365	11.31349542003746	2.15
C 	52.50362929326595	12.692506097509145	2.15
C 	53.86724632692721	13.088673468084844	2.15
C 	54.205963836688795	14.467684145556529	2.15
C 	55.569580870350045	14.863851516132238	2.15
C 	55.90829838011163	16.242862193603923	2.15
C 	57.27191541377289	16.639029564179626	2.15
C 	57.610632923534475	18.018040241651313	2.15
C 	58.974249957195745	18.414207612227013	2.15
C 	59.312967466957325	19.793218289698697	2.15
C 	60.67658450061859	20.1893856602744	2.15
C 	61.015302010380175	21.568396337746087	2.15
C 	62.378919044041425	21.964563708321798	2.15
C 	62.71763655380301	23.34357438579348	2.15
C 	64.08125358746427	23.739741756369177	2.15
C 	64.41997109722585	25.118752433840864	2.15
C 	65.78358813088711	25.514919804416564	2.15
C 	66.12230564064869	26.893930481888248	2.15
C 	67.48592267430996	27.29009785246396	2.15
C 	67.82464018407155	28.669108529935645	2.15
C 	69.18825721773281	29.065275900511345	2.15
C 	69.52697472749439	30.44428657798303	2.15
C 	70.89059176115565	30.840453948558732	2.15
C 	71.22930927091723	32.219464626030415	2.15
C 	72.5929263045785	32.615631996606126	2.15
C 	72.93164381434008	33.99464267407782	2.15
C 	74.29526084800135	34.39081004465351	2.15
C 	74.63397835776293	35.769820722125196	2.15
C 	36.49643638832225	-0.9222423505496902	2.15
C 	37.860053421983515	-0.5260749799739857	2.15
C 	38.1987709317451	0.8529356974976994	2.15
C 	39.562387965406366	1.2491030680733988	2.15
C 	39.90110547516795	2.628113745545084	2.15
C 	41.2647225088292	3.02428111612079	2.15
C 	41.60344001859079	4.403291793592475	2.15
C 	42.967057052252045	4.7994591641681765	2.15
C 	43.30577456201363	6.178469841639862	2.15
C 	44.66939159567489	6.574637212215566	2.15
C 	45.008109105436475	7.953647889687251	2.15
C 	46.371726139097746	8.349815260262957	2.15
C 	46.710443648859325	9.728825937734642	2.15
C 	48.07406068252058	10.12499330831034	2.15
C 	48.41277819228217	11.504003985782026	2.15
C 	49.77639522594343	11.900171356357733	2.15
C 	50.11511273570502	13.279182033829418	2.15
C 	51.47872976936627	13.675349404405123	2.15
C 	51.817447279127855	15.054360081876808	2.15
C 	53.18106431278912	15.450527452452508	2.15
C 	53.519781822550705	16.829538129924195	2.15
C 	54.883398856211954	17.2257055004999	2.15
C 	55.22211636597354	18.604716177971586	2.15
C 	56.58573339963481	19.000883548547293	2.15
C 	56.9244509093964	20.379894226018976	2.15
C 	58.28806794305765	20.776061596594676	2.15
C 	58.626785452819234	22.15507227406636	2.15
C 	59.9904024864805	22.551239644642067	2.15
C 	60.329119996242085	23.930250322113753	2.15
C 	61.692737029903334	24.326417692689457	2.15
C 	62.03145453966492	25.705428370161144	2.15
C 	63.395071573326184	26.101595740736844	2.15
C 	63.73378908308777	27.480606418208527	2.15
C 	65.09740611674903	27.876773788784224	2.15
C 	65.43612362651062	29.25578446625591	2.15
C 	66.79974066017186	29.651951836831625	2.15
C 	67.13845816993346	31.03096251430331	2.15
C 	68.50207520359471	31.427129884879008	2.15
C 	68.84079271335631	32.80614056235069	2.15
C 	70.20440974701755	33.202307932926395	2.15
C 	70.54312725677914	34.58131861039808	2.15
C 	71.90674429044041	34.97748598097379	2.15
C 	72.245461800202	36.35649665844547	2.15
C 	73.60907883386325	36.752664029021176	2.15
C 	73.94779634362483	38.13167470649286	2.15
C 	75.3114133772861	38.52784207706856	2.15
C 	75.65013088704768	39.906852754540246	2.15
C 	34.107919830761325	-0.3355664142294229	2.15
C 	35.47153686442258	0.06060095634628336	2.15
C 	35.81025437418416	1.439611633817965	2.15
C 	37.173871407845425	1.8357790043936764	2.15
C 	37.51258891760701	3.214789681865358	2.15
C 	38.87620595126827	3.610957052441059	2.15
C 	39.214923461029855	4.989967729912741	2.15
C 	40.57854049469112	5.386135100488451	2.15
C 	40.917258004452705	6.765145777960132	2.15
C 	42.280875038113955	7.161313148535835	2.15
C 	42.61959254787554	8.540323826007516	2.15
C 	43.983209581536805	8.936491196583228	2.15
C 	44.321927091298384	10.31550187405491	2.15
C 	45.68554412495965	10.711669244630617	2.15
C 	46.024261634721235	12.090679922102298	2.15
C 	47.3878786683825	12.486847292678002	2.15
C 	47.726596178144085	13.865857970149683	2.15
C 	49.09021321180534	14.262025340725392	2.15
C 	49.42893072156693	15.641036018197074	2.15
C 	50.792547755228185	16.037203388772785	2.15
C 	51.13126526498977	17.416214066244468	2.15
C 	52.49488229865102	17.812381436820168	2.15
C 	52.83359980841261	19.19139211429185	2.15
C 	54.19721684207388	19.587559484867562	2.15
C 	54.53593435183546	20.96657016233924	2.15
C 	55.89955138549672	21.362737532914945	2.15
C 	56.23826889525831	22.741748210386632	2.15
C 	57.60188592891956	23.137915580962336	2.15
C 	57.940603438681144	24.51692625843402	2.15
C 	59.3042204723424	24.91309362900973	2.15
C 	59.64293798210399	26.29210430648141	2.15
C 	61.00655501576525	26.688271677057116	2.15
C 	61.34527252552684	28.0672823545288	2.15
C 	62.708889559188094	28.463449725104496	2.15
C 	63.04760706894968	29.842460402576183	2.15
C 	64.41122410261094	30.238627773151883	2.15
C 	64.74994161237254	31.617638450623566	2.15
C 	66.11355864603378	32.013805821199284	2.15
C 	66.45227615579536	33.39281649867097	2.15
C 	67.81589318945662	33.788983869246664	2.15
C 	68.15461069921821	35.167994546718354	2.15
C 	69.51822773287947	35.56416191729405	2.15
C 	69.85694524264106	36.943172594765734	2.15
C 	71.22056227630232	37.339339965341445	2.15
C 	71.55927978606391	38.718350642813135	2.15
C 	72.92289681972515	39.11451801338883	2.15
C 	73.26161432948675	40.49352869086052	2.15
C 	74.625231363148	40.88969606143622	2.15
C 	74.96394887290958	42.2687067389079	2.15
C 	31.71940327320039	0.2511095220908539	2.15
C 	33.08302030686165	0.6472768926665559	2.15
C 	33.421737816623235	2.026287570138241	2.15
C 	34.78535485028449	2.4224549407139446	2.15
C 	35.12407236004608	3.8014656181856297	2.15
C 	36.487689393707335	4.197632988761335	2.15
C 	36.82640690346892	5.57664366623302	2.15
C 	38.19002393713018	5.9728110368087215	2.15
C 	38.528741446891765	7.3518217142804065	2.15
C 	39.89235848055302	7.747989084856111	2.15
C 	40.23107599031461	9.126999762327795	2.15
C 	41.594693023975864	9.523167132903497	2.15
C 	41.93341053373745	10.902177810375182	2.15
C 	43.297027567398715	11.298345180950886	2.15
C 	43.6357450771603	12.67735585842257	2.15
C 	44.99936211082156	13.07352322899828	2.15
C 	45.338079620583144	14.452533906469965	2.15
C 	46.7016966542444	14.848701277045663	2.15
C 	47.04041416400599	16.227711954517346	2.15
C 	48.40403119766725	16.623879325093053	2.15
C 	48.74274870742884	18.00289000256474	2.15
C 	50.10636574109009	18.399057373140444	2.15
C 	50.445083250851674	19.77806805061213	2.15
C 	51.808700284512945	20.17423542118783	2.15
C 	52.147417794274524	21.553246098659514	2.15
C 	53.51103482793578	21.94941346923522	2.15
C 	53.84975233769737	23.328424146706904	2.15
C 	55.21336937135863	23.72459151728261	2.15
C 	55.55208688112022	25.1036021947543	2.15
C 	56.91570391478147	25.499769565329995	2.15
C 	57.254421424543054	26.87878024280168	2.15
C 	58.61803845820432	27.27494761337739	2.15
C 	58.956755967965904	28.653958290849072	2.15
C 	60.32037300162716	29.05012566142478	2.15
C 	60.65909051138874	30.429136338896463	2.15
C 	62.02270754505001	30.825303709472163	2.15
C 	62.36142505481159	32.20431438694385	2.15
C 	63.725042088472854	32.600481757519546	2.15
C 	64.06375959823444	33.97949243499123	2.15
C 	65.4273766318957	34.37565980556695	2.15
C 	65.76609414165728	35.75467048303863	2.15
C 	67.12971117531855	36.15083785361433	2.15
C 	67.46842868508013	37.52984853108602	2.15
C 	68.83204571874138	37.926015901661714	2.15
C 	69.17076322850296	39.3050265791334	2.15
C 	70.53438026216423	39.701193949709115	2.15
C 	70.87309777192581	41.0802046271808	2.15
C 	72.23671480558707	41.476371997756495	2.15
C 	72.57543231534865	42.855382675228185	2.15
C 	73.93904934900992	43.25155004580388	2.15
C 	74.2777668587715	44.630560723275565	2.15
C 	27.628552172216615	-0.9373925896362624	2.15
C 	28.992169205877868	-0.5412252190605586	2.15
C 	29.330886715639455	0.8377854584111264	2.15
C 	30.69450374930072	1.2339528289868318	2.15
C 	31.0332212590623	2.6129635064585166	2.15
C 	32.39683829272356	3.0091308770342207	2.15
C 	32.735555802485145	4.388141554505905	2.15
C 	34.09917283614641	4.784308925081607	2.15
C 	34.43789034590799	6.163319602553292	2.15
C 	35.801507379569244	6.559486973128999	2.15
C 	36.14022488933083	7.938497650600684	2.15
C 	37.50384192299209	8.334665021176383	2.15
C 	37.842559432753674	9.713675698648068	2.15
C 	39.20617646641494	10.109843069223777	2.15
C 	39.54489397617652	11.488853746695462	2.15
C 	40.90851100983778	11.885021117271158	2.15
C 	41.24722851959937	13.264031794742843	2.15
C 	42.610845553260624	13.660199165318552	2.15
C 	42.94956306302221	15.039209842790237	2.15
C 	44.31318009668347	15.43537721336594	2.15
C 	44.651897606445054	16.814387890837626	2.15
C 	46.01551464010631	17.21055526141333	2.15
C 	46.3542321498679	18.589565938885013	2.15
C 	47.717849183529154	18.985733309460716	2.15
C 	48.05656669329074	20.364743986932403	2.15
C 	49.42018372695201	20.76091135750811	2.15
C 	49.7589012367136	22.139922034979794	2.15
C 	51.12251827037485	22.536089405555494	2.15
C 	51.461235780136434	23.915100083027177	2.15
C 	52.82485281379769	24.311267453602888	2.15
C 	53.16357032355928	25.69027813107457	2.15
C 	54.527187357220534	26.086445501650275	2.15
C 	54.86590486698212	27.46545617912196	2.15
C 	56.22952190064338	27.86162354969766	2.15
C 	56.56823941040496	29.24063422716935	2.15
C 	57.93185644406623	29.636801597745052	2.15
C 	58.27057395382781	31.015812275216735	2.15
C 	59.63419098748907	31.411979645792446	2.15
C 	59.97290849725066	32.79099032326413	2.15
C 	61.33652553091191	33.18715769383983	2.15
C 	61.6752430406735	34.56616837131151	2.15
C 	63.038860074334764	34.96233574188721	2.15
C 	63.37757758409635	36.3413464193589	2.15
C 	64.7411946177576	36.73751378993461	2.15
C 	65.0799121275192	38.11652446740629	2.15
C 	66.44352916118045	38.512691837982	2.15
C 	66.78224667094204	39.89170251545368	2.15
C 	68.14586370460329	40.28786988602938	2.15
C 	68.48458121436488	41.66688056350107	2.15
C 	69.84819824802614	42.06304793407678	2.15
C 	70.18691575778772	43.44205861154846	2.15
C 	71.55053279144897	43.838225982124165	2.15
C 	71.88925030121057	45.21723665959585	2.15
C 	73.25286733487182	45.613404030171544	2.15
C 	25.240035614655675	-0.35071665331599244	2.15
C 	26.603652648316935	0.04545071725971383	2.15
C 	26.94237015807852	1.4244613947313953	2.15
C 	28.30598719173978	1.8206287653071007	2.15
C 	28.644704701501368	3.1996394427787824	2.15
C 	30.008321735162625	3.595806813354493	2.15
C 	30.347039244924208	4.974817490826174	2.15
C 	31.71065627858547	5.37098486140188	2.15
C 	32.049373788347054	6.749995538873562	2.15
C 	33.41299082200831	7.146162909449269	2.15
C 	33.7517083317699	8.52517358692095	2.15
C 	35.11532536543116	8.921340957496659	2.15
C 	35.45404287519275	10.30035163496834	2.15
C 	36.817659908854004	10.696519005544044	2.15
C 	37.156377418615584	12.075529683015725	2.15
C 	38.51999445227685	12.471697053591434	2.15
C 	38.858711962038434	13.850707731063116	2.15
C 	40.22232899569969	14.246875101638821	2.15
C 	40.56104650546128	15.625885779110503	2.15
C 	41.924663539122534	16.02205314968621	2.15
C 	42.26338104888412	17.40106382715789	2.15
C 	43.62699808254538	17.797231197733606	2.15
C 	43.965715592306964	19.176241875205285	2.15
C 	45.32933262596822	19.572409245780985	2.15
C 	45.66805013572981	20.95141992325267	2.15
C 	47.03166716939108	21.34758729382838	2.15
C 	47.37038467915266	22.72659797130006	2.15
C 	48.734001712813914	23.122765341875766	2.15
C 	49.0727192225755	24.50177601934745	2.15
C 	50.436336256236764	24.89794338992315	2.15
C 	50.77505376599835	26.276954067394836	2.15
C 	52.1386707996596	26.673121437970547	2.15
C 	52.47738830942119	28.052132115442227	2.15
C 	53.84100534308245	28.448299486017934	2.15
C 	54.17972285284404	29.827310163489617	2.15
C 	55.54333988650529	30.223477534065317	2.15
C 	55.88205739626687	31.602488211537	2.15
C 	57.245674429928144	31.998655582112715	2.15
C 	57.58439193968972	33.377666259584394	2.15
C 	58.94800897335098	33.7738336301601	2.15
C 	59.28672648311257	35.15284430763178	2.15
C 	60.65034351677383	35.549011678207485	2.15
C 	60.98906102653542	36.92802235567917	2.15
C 	62.35267806019667	37.324189726254865	2.15
C 	62.69139556995826	38.703200403726555	2.15
C 	64.05501260361952	39.099367774302266	2.15
C 	64.39373011338111	40.47837845177395	2.15
C 	65.75734714704237	40.87454582234965	2.15
C 	66.09606465680395	42.253556499821336	2.15
C 	67.4596816904652	42.64972387039703	2.15
C 	67.7983992002268	44.02873454786872	2.15
C 	69.16201623388805	44.424901918444434	2.15
C 	69.50073374364963	45.80391259591612	2.15
C 	70.86435077731089	46.20007996649182	2.15
C 	22.85151905709474	0.23595928300427832	2.15
C 	24.215136090756	0.6321266535799863	2.15
C 	24.553853600517588	2.01113733105167	2.15
C 	25.917470634178848	2.4073047016273734	2.15
C 	26.256188143940435	3.7863153790990567	2.15
C 	27.61980517760169	4.182482749674762	2.15
C 	27.958522687363274	5.561493427146446	2.15
C 	29.322139721024538	5.957660797722152	2.15
C 	29.660857230786124	7.336671475193836	2.15
C 	31.024474264447377	7.732838845769542	2.15
C 	31.363191774208964	9.111849523241222	2.15
C 	32.72680880787023	9.508016893816928	2.15
C 	33.065526317631814	10.887027571288613	2.15
C 	34.42914335129307	11.28319494186432	2.15
C 	34.76786086105465	12.662205619336005	2.15
C 	36.131477894715914	13.058372989911703	2.15
C 	36.4701954044775	14.437383667383388	2.15
C 	37.83381243813876	14.833551037959095	2.15
C 	38.172529947900344	16.21256171543078	2.15
C 	39.5361469815616	16.60872908600648	2.15
C 	39.87486449132319	17.987739763478164	2.15
C 	41.238481524984444	18.383907134053874	2.15
C 	41.57719903474603	19.762917811525558	2.15
C 	42.94081606840729	20.15908518210126	2.15
C 	43.27953357816887	21.538095859572948	2.15
C 	44.64315061183014	21.934263230148648	2.15
C 	44.98186812159172	23.313273907620335	2.15
C 	46.34548515525298	23.70944127819604	2.15
C 	46.68420266501457	25.088451955667722	2.15
C 	48.04781969867583	25.48461932624343	2.15
C 	48.38653720843742	26.863630003715116	2.15
C 	49.75015424209867	27.259797374290812	2.15
C 	50.08887175186025	28.6388080517625	2.15
C 	51.45248878552151	29.034975422338206	2.15
C 	51.7912062952831	30.413986099809893	2.15
C 	53.15482332894436	30.810153470385597	2.15
C 	53.49354083870594	32.189164147857284	2.15
C 	54.8571578723672	32.58533151843298	2.15
C 	55.19587538212878	33.96434219590467	2.15
C 	56.55949241579005	34.360509566480374	2.15
C 	56.89820992555163	35.73952024395206	2.15
C 	58.26182695921289	36.13568761452777	2.15
C 	58.600544468974476	37.51469829199945	2.15
C 	59.96416150263573	37.91086566257515	2.15
C 	60.30287901239732	39.28987634004683	2.15
C 	61.66649604605858	39.686043710622535	2.15
C 	62.00521355582017	41.06505438809422	2.15
C 	63.368830589481426	41.46122175866993	2.15
C 	63.70754809924301	42.84023243614162	2.15
C 	65.07116513290427	43.236399806717316	2.15
C 	65.40988264266586	44.615410484189	2.15
C 	66.7734996763271	45.0115778547647	2.15
C 	67.1122171860887	46.390588532236386	2.15
C 	68.47583421974997	46.7867559028121	2.15
C 	18.760667956110964	-0.9525428287228371	2.15
C 	20.124284989772224	-0.5563754581471325	2.15
C 	20.463002499533808	0.8226352193245507	2.15
C 	21.826619533195068	1.2188025899002553	2.15
C 	22.16533704295665	2.5978132673719387	2.15
C 	23.52895407661791	2.993980637947647	2.15
C 	23.867671586379497	4.37299131541933	2.15
C 	25.231288620040758	4.769158685995034	2.15
C 	25.57000612980234	6.148169363466718	2.15
C 	26.933623163463604	6.544336734042422	2.15
C 	27.27234067322519	7.923347411514105	2.15
C 	28.635957706886444	8.319514782089813	2.15
C 	28.97467521664803	9.698525459561495	2.15
C 	30.338292250309294	10.0946928301372	2.15
C 	30.677009760070877	11.473703507608885	2.15
C 	32.04062679373214	11.869870878184589	2.15
C 	32.37934430349372	13.24888155565627	2.15
C 	33.74296133715498	13.64504892623198	2.15
C 	34.08167884691657	15.02405960370366	2.15
C 	35.445295880577824	15.420226974279366	2.15
C 	35.78401339033941	16.799237651751046	2.15
C 	37.147630424000674	17.195405022326756	2.15
C 	37.486347933762254	18.574415699798436	2.15
C 	38.84996496742351	18.97058307037414	2.15
C 	39.1886824771851	20.349593747845823	2.15
C 	40.55229951084635	20.74576111842153	2.15
C 	40.89101702060794	22.124771795893214	2.15
C 	42.254634054269204	22.520939166468924	2.15
C 	42.59335156403078	23.899949843940608	2.15
C 	43.95696859769205	24.29611721451631	2.15
C 	44.295686107453626	25.675127891987987	2.15
C 	45.6593031411149	26.071295262563694	2.15
C 	45.998020650876484	27.45030594003538	2.15
C 	47.36163768453773	27.846473310611092	2.15
C 	47.70035519429932	29.22548398808277	2.15
C 	49.06397222796058	29.62165135865848	2.15
C 	49.40268973772217	31.000662036130155	2.15
C 	50.76630677138342	31.396829406705862	2.15
C 	51.105024281145006	32.775840084177545	2.15
C 	52.46864131480628	33.17200745475326	2.15
C 	52.80735882456786	34.55101813222494	2.15
C 	54.17097585822911	34.94718550280064	2.15
C 	54.50969336799069	36.326196180272326	2.15
C 	55.87331040165196	36.72236355084803	2.15
C 	56.21202791141355	38.10137422831971	2.15
C 	57.5756449450748	38.497541598895424	2.15
C 	57.914362454836386	39.87655227636711	2.15
C 	59.27797948849765	40.27271964694281	2.15
C 	59.616696998259236	41.65173032441449	2.15
C 	60.98031403192049	42.0478976949902	2.15
C 	61.31903154168208	43.426908372461874	2.15
C 	62.68264857534334	43.82307574303759	2.15
C 	63.02136608510493	45.202086420509275	2.15
C 	64.38498311876619	45.59825379108498	2.15
C 	16.37215139855003	-0.36586689240256287	2.15
C 	17.73576843221129	0.03030047817314168	2.15
C 	18.074485941972874	1.409311155644825	2.15
C 	19.438102975634134	1.8054785262205295	2.15
C 	19.77682048539572	3.184489203692213	2.15
C 	21.140437519056977	3.5806565742679175	2.15
C 	21.479155028818564	4.9596672517396	2.15
C 	22.842772062479824	5.355834622315308	2.15
C 	23.181489572241407	6.734845299786992	2.15
C 	24.54510660590267	7.131012670362696	2.15
C 	24.883824115664257	8.510023347834379	2.15
C 	26.24744114932551	8.906190718410084	2.15
C 	26.586158659087097	10.285201395881767	2.15
C 	27.94977569274836	10.681368766457473	2.15
C 	28.288493202509944	12.060379443929158	2.15
C 	29.6521102361712	12.456546814504865	2.15
C 	29.990827745932787	13.835557491976546	2.15
C 	31.354444779594047	14.231724862552248	2.15
C 	31.693162289355634	15.610735540023933	2.15
C 	33.05677932301689	16.006902910599642	2.15
C 	33.39549683277848	17.385913588071325	2.15
C 	34.75911386643973	17.782080958647025	2.15
C 	35.09783137620132	19.16109163611871	2.15
C 	36.46144840986258	19.557259006694416	2.15
C 	36.80016591962416	20.936269684166103	2.15
C 	38.16378295328543	21.3324370547418	2.15
C 	38.502500463047014	22.711447732213486	2.15
C 	39.86611749670827	23.107615102789193	2.15
C 	40.20483500646985	24.486625780260876	2.15
C 	41.56845204013111	24.882793150836584	2.15
C 	41.9071695498927	26.261803828308267	2.15
C 	43.27078658355396	26.65797119888397	2.15
C 	43.60950409331554	28.036981876355654	2.15
C 	44.9731211269768	28.433149246931357	2.15
C 	45.311838636738386	29.812159924403044	2.15
C 	46.67545567039965	30.20832729497875	2.15
C 	47.01417318016124	31.587337972450435	2.15
C 	48.377790213822486	31.983505343026135	2.15
C 	48.71650772358407	33.36251602049782	2.15
C 	50.080124757245336	33.758683391073525	2.15
C 	50.418842267006916	35.137694068545215	2.15
C 	51.78245930066818	35.53386143912092	2.15
C 	52.121176810429766	36.9128721165926	2.15
C 	53.48479384409102	37.309039487168306	2.15
C 	53.82351135385261	38.68805016463999	2.15
C 	55.187128387513866	39.08421753521569	2.15
C 	55.52584589727545	40.463228212687376	2.15
C 	56.88946293093671	40.85939558326309	2.15
C 	57.228180440698296	42.23840626073477	2.15
C 	58.59179747435955	42.63457363131047	2.15
C 	58.93051498412114	44.01358430878216	2.15
C 	60.2941320177824	44.40975167935785	2.15
C 	60.63284952754399	45.78876235682954	2.15
C 	61.996466561205246	46.184929727405255	2.15
C 	13.9836348409891	0.2208090439177096	2.15
C 	15.34725187465036	0.6169764144934159	2.15
C 	15.685969384411944	1.9959870919650993	2.15
C 	17.049586418073204	2.3921544625408036	2.15
C 	17.388303927834787	3.7711651400124873	2.15
C 	18.751920961496044	4.167332510588191	2.15
C 	19.09063847125763	5.546343188059875	2.15
C 	20.45425550491889	5.942510558635579	2.15
C 	20.792973014680474	7.321521236107263	2.15
C 	22.156590048341734	7.71768860668297	2.15
C 	22.49530755810332	9.096699284154655	2.15
C 	23.858924591764577	9.492866654730358	2.15
C 	24.197642101526164	10.87187733220204	2.15
C 	25.561259135187424	11.268044702777747	2.15
C 	25.899976644949007	12.647055380249432	2.15
C 	27.263593678610267	13.043222750825137	2.15
C 	27.602311188371853	14.422233428296822	2.15
C 	28.965928222033114	14.818400798872526	2.15
C 	29.304645731794697	16.197411476344207	2.15
C 	30.668262765455957	16.593578846919915	2.15
C 	31.006980275217543	17.972589524391598	2.15
C 	32.3705973088788	18.368756894967305	2.15
C 	32.70931481864039	19.74776757243899	2.15
C 	34.07293185230164	20.14393494301469	2.15
C 	34.41164936206323	21.522945620486375	2.15
C 	35.775266395724486	21.919112991062082	2.15
C 	36.11398390548607	23.298123668533766	2.15
C 	37.47760093914734	23.694291039109466	2.15
C 	37.816318448908916	25.07330171658115	2.15
C 	39.17993548257018	25.469469087156856	2.15
C 	39.518652992331766	26.848479764628543	2.15
C 	40.88227002599302	27.244647135204247	2.15
C 	41.22098753575461	28.623657812675933	2.15
C 	42.584604569415866	29.01982518325163	2.15
C 	42.92332207917745	30.398835860723317	2.15
C 	44.286939112838716	30.795003231299024	2.15
C 	44.6256566226003	32.17401390877071	2.15
C 	45.98927365626156	32.570181279346414	2.15
C 	46.32799116602314	33.9491919568181	2.15
C 	47.69160819968441	34.3453593273938	2.15
C 	48.03032570944599	35.724370004865484	2.15
C 	49.393942743107246	36.12053737544119	2.15
C 	49.73266025286883	37.49954805291287	2.15
C 	51.096277286530096	37.89571542348858	2.15
C 	51.43499479629168	39.274726100960265	2.15
C 	52.79861182995293	39.67089347153597	2.15
C 	53.13732933971452	41.04990414900765	2.15
C 	54.50094637337578	41.446071519583356	2.15
C 	54.83966388313737	42.82508219705504	2.15
C 	56.203280916798626	43.22124956763075	2.15
C 	56.54199842656021	44.60026024510243	2.15
C 	57.905615460221476	44.99642761567813	2.15
C 	58.24433296998306	46.37543829314982	2.15
C 	59.60795000364432	46.771605663725516	2.15
C 	9.892783740005319	-0.9676930678094071	2.15
C 	11.256400773666579	-0.5715256972337025	2.15
C 	11.595118283428164	0.8074849802379808	2.15
C 	12.958735317089424	1.2036523508136867	2.15
C 	13.29745282685101	2.5826630282853698	2.15
C 	14.661069860512269	2.978830398861076	2.15
C 	14.999787370273854	4.357841076332759	2.15
C 	16.363404403935114	4.754008446908464	2.15
C 	16.702121913696697	6.133019124380147	2.15
C 	18.065738947357957	6.529186494955852	2.15
C 	18.404456457119544	7.908197172427536	2.15
C 	19.7680734907808	8.30436454300324	2.15
C 	20.106791000542387	9.683375220474923	2.15
C 	21.470408034203643	10.07954259105063	2.15
C 	21.80912554396523	11.458553268522312	2.15
C 	23.17274257762649	11.85472063909802	2.15
C 	23.511460087388073	13.233731316569704	2.15
C 	24.875077121049333	13.629898687145406	2.15
C 	25.21379463081092	15.008909364617088	2.15
C 	26.57741166447218	15.405076735192798	2.15
C 	26.916129174233763	16.78408741266448	2.15
C 	28.279746207895023	17.180254783240187	2.15
C 	28.61846371765661	18.55926546071187	2.15
C 	29.982080751317866	18.955432831287574	2.15
C 	30.320798261079453	20.334443508759257	2.15
C 	31.684415294740713	20.730610879334964	2.15
C 	32.023132804502296	22.109621556806648	2.15
C 	33.38674983816355	22.50578892738235	2.15
C 	33.72546734792514	23.88479960485403	2.15
C 	35.0890843815864	24.28096697542974	2.15
C 	35.42780189134798	25.65997765290142	2.15
C 	36.791418925009246	26.05614502347713	2.15
C 	37.130136434770826	27.43515570094881	2.15
C 	38.49375346843209	27.831323071524512	2.15
C 	38.832470978193676	29.2103337489962	2.15
C 	40.19608801185493	29.606501119571913	2.15
C 	40.53480552161652	30.98551179704359	2.15
C 	41.898422555277776	31.381679167619296	2.15
C 	42.23714006503936	32.76068984509097	2.15
C 	43.60075709870062	33.156857215666676	2.15
C 	43.939474608462206	34.53586789313837	2.15
C 	45.303091642123476	34.93203526371408	2.15
C 	45.641809151885056	36.31104594118575	2.15
C 	47.00542618554631	36.707213311761464	2.15
C 	47.34414369530789	38.08622398923314	2.15
C 	48.707760728969156	38.48239135980885	2.15
C 	49.04647823873074	39.861402037280534	2.15
C 	50.410095272392	40.257569407856245	2.15
C 	50.748812782153585	41.63658008532792	2.15
C 	52.11242981581484	42.03274745590363	2.15
C 	52.45114732557643	43.41175813337531	2.15
C 	53.814764359237685	43.80792550395101	2.15
C 	54.15348186899927	45.1869361814227	2.15
C 	55.517098902660535	45.58310355199841	2.15
C 	7.504267182444386	-0.3810171314891346	2.15
C 	8.867884216105645	0.01515023908657084	2.15
C 	9.20660172586723	1.3941609165582542	2.15
C 	10.570218759528489	1.7903282871339588	2.15
C 	10.908936269290074	3.1693389646056422	2.15
C 	12.272553302951335	3.565506335181348	2.15
C 	12.61127081271292	4.944517012653031	2.15
C 	13.97488784637418	5.340684383228736	2.15
C 	14.313605356135765	6.719695060700421	2.15
C 	15.677222389797024	7.115862431276124	2.15
C 	16.01593989955861	8.494873108747809	2.15
C 	17.379556933219867	8.891040479323513	2.15
C 	17.718274442981453	10.270051156795198	2.15
C 	19.081891476642713	10.6662185273709	2.15
C 	19.420608986404297	12.045229204842585	2.15
C 	20.784226020065557	12.441396575418292	2.15
C 	21.12294352982714	13.820407252889977	2.15
C 	22.4865605634884	14.216574623465679	2.15
C 	22.825278073249986	15.595585300937364	2.15
C 	24.188895106911243	15.991752671513067	2.15
C 	24.52761261667283	17.370763348984752	2.15
C 	25.89122965033409	17.76693071956046	2.15
C 	26.229947160095676	19.145941397032143	2.15
C 	27.593564193756933	19.542108767607846	2.15
C 	27.93228170351852	20.921119445079533	2.15
C 	29.295898737179776	21.317286815655233	2.15
C 	29.634616246941363	22.69629749312692	2.15
C 	30.998233280602623	23.092464863702627	2.15
C 	31.33695079036421	24.47147554117431	2.15
C 	32.70056782402547	24.86764291175001	2.15
C 	33.03928533378705	26.246653589221694	2.15
C 	34.40290236744831	26.6428209597974	2.15
C 	34.7416198772099	28.021831637269088	2.15
C 	36.105236910871156	28.417999007844784	2.15
C 	36.44395442063274	29.79700968531647	2.15
C 	37.807571454294	30.19317705589218	2.15
C 	38.146288964055586	31.57218773336386	2.15
C 	39.50990599771684	31.96835510393957	2.15
C 	39.84862350747843	33.347365781411256	2.15
C 	41.212240541139685	33.74353315198695	2.15
C 	41.55095805090127	35.122543829458635	2.15
C 	42.91457508456254	35.518711200034346	2.15
C 	43.25329259432412	36.89772187750603	2.15
C 	44.61690962798538	37.29388924808173	2.15
C 	44.955627137746966	38.672899925553416	2.15
C 	46.31924417140823	39.06906729612912	2.15
C 	46.657961681169816	40.4480779736008	2.15
C 	48.021578714831065	40.844245344176514	2.15
C 	48.36029622459265	42.2232560216482	2.15
C 	49.723913258253916	42.6194233922239	2.15
C 	50.0626307680155	43.998434069695584	2.15
C 	51.42624780167675	44.39460144027129	2.15
C 	51.76496531143834	45.77361211774297	2.15
C 	53.12858234509961	46.169779488318675	2.15
C 	5.115750624883452	0.20565880483113813	2.15
C 	6.479367658544712	0.6018261754068434	2.15
C 	6.818085168306298	1.9808368528785267	2.15
C 	8.181702201967557	2.377004223454232	2.15
C 	8.520419711729142	3.756014900925915	2.15
C 	9.8840367453904	4.15218227150162	2.15
C 	10.222754255151985	5.531192948973303	2.15
C 	11.586371288813245	5.92736031954901	2.15
C 	11.92508879857483	7.306370997020693	2.15
C 	13.28870583223609	7.702538367596399	2.15
C 	13.627423341997675	9.081549045068082	2.15
C 	14.991040375658933	9.477716415643787	2.15
C 	15.329757885420518	10.85672709311547	2.15
C 	16.693374919081776	11.252894463691176	2.15
C 	17.032092428843363	12.631905141162859	2.15
C 	18.395709462504623	13.028072511738564	2.15
C 	18.734426972266206	14.407083189210246	2.15
C 	20.098044005927466	14.803250559785956	2.15
C 	20.436761515689053	16.182261237257638	2.15
C 	21.80037854935031	16.578428607833338	2.15
C 	22.139096059111896	17.957439285305025	2.15
C 	23.502713092773156	18.353606655880732	2.15
C 	23.84143060253474	19.73261733335241	2.15
C 	25.205047636196	20.128784703928122	2.15
C 	25.543765145957586	21.507795381399806	2.15
C 	26.907382179618843	21.903962751975506	2.15
C 	27.24609968938043	23.282973429447193	2.15
C 	28.60971672304169	23.6791408000229	2.15
C 	28.948434232803272	25.05815147749458	2.15
C 	30.312051266464536	25.45431884807029	2.15
C 	30.65076877622612	26.833329525541973	2.15
C 	32.01438580988738	27.229496896117674	2.15
C 	32.353103319648966	28.60850757358936	2.15
C 	33.71672035331022	29.004674944165064	2.15
C 	34.05543786307181	30.383685621636744	2.15
C 	35.419054896733066	30.77985299221245	2.15
C 	35.75777240649465	32.15886366968413	2.15
C 	37.12138944015591	32.55503104025984	2.15
C 	37.460106949917495	33.934041717731525	2.15
C 	38.82372398357876	34.330209088307235	2.15
C 	39.16244149334034	35.70921976577891	2.15
C 	40.5260585270016	36.105387136354615	2.15
C 	40.86477603676318	37.4843978138263	2.15
C 	42.228393070424445	37.88056518440201	2.15
C 	42.56711058018603	39.25957586187369	2.15
C 	43.930727613847296	39.655743232449396	2.15
C 	44.26944512360888	41.03475390992108	2.15
C 	45.63306215727013	41.43092128049678	2.15
C 	45.97177966703172	42.80993195796846	2.15
C 	47.335396700692975	43.20609932854418	2.15
C 	47.67411421045456	44.58511000601586	2.15
C 	49.037731244115825	44.981277376591564	2.15
C 	49.376448753877405	46.36028805406325	2.15
C 	50.74006578753867	46.75645542463895	2.15
C 	2.3885165575609335	-0.5866759363202726	2.15
C 	2.727234067322519	0.7923347411514107	2.15
C 	4.0908511009837785	1.188502111727116	2.15
C 	4.429568610745363	2.5675127891987994	2.15
C 	5.7931856444066225	2.963680159774505	2.15
C 	6.131903154168207	4.342690837246188	2.15
C 	7.495520187829467	4.7388582078218935	2.15
C 	7.8342376975910515	6.117868885293577	2.15
C 	9.197854731252312	6.514036255869282	2.15
C 	9.536572241013896	7.893046933340964	2.15
C 	10.900189274675155	8.289214303916669	2.15
C 	11.238906784436741	9.668224981388354	2.15
C 	12.602523818098	10.064392351964061	2.15
C 	12.941241327859585	11.443403029435743	2.15
C 	14.304858361520845	11.83957040001145	2.15
C 	14.64357587128243	13.218581077483131	2.15
C 	16.00719290494369	13.614748448058837	2.15
C 	16.345910414705273	14.993759125530518	2.15
C 	17.709527448366533	15.389926496106225	2.15
C 	18.04824495812812	16.768937173577907	2.15
C 	19.41186199178938	17.165104544153618	2.15
C 	19.750579501550963	18.544115221625297	2.15
C 	21.114196535212223	18.940282592201005	2.15
C 	21.45291404497381	20.319293269672684	2.15
C 	22.816531078635066	20.71546064024839	2.15
C 	23.155248588396653	22.094471317720075	2.15
C 	24.518865622057913	22.490638688295782	2.15
C 	24.857583131819496	23.869649365767465	2.15
C 	26.221200165480756	24.265816736343172	2.15
C 	26.55991767524234	25.644827413814852	2.15
C 	27.9235347089036	26.04099478439056	2.15
C 	28.262252218665186	27.42000546186224	2.15
C 	29.625869252326446	27.816172832437946	2.15
C 	29.96458676208803	29.195183509909633	2.15
C 	31.32820379574929	29.59135088048533	2.15
C 	31.666921305510872	30.970361557957016	2.15
C 	33.03053833917213	31.366528928532723	2.15
C 	33.36925584893372	32.74553960600441	2.15
C 	34.732872882594975	33.1417069765801	2.15
C 	35.07159039235656	34.52071765405179	2.15
C 	36.43520742601782	34.9168850246275	2.15
C 	36.773924935779405	36.29589570209918	2.15
C 	38.13754196944067	36.69206307267489	2.15
C 	38.47625947920225	38.071073750146574	2.15
C 	39.83987651286351	38.46724112072227	2.15
C 	40.17859402262509	39.84625179819396	2.15
C 	41.542211056286355	40.242419168769665	2.15
C 	41.88092856604794	41.62142984624135	2.15
C 	43.244545599709205	42.01759721681706	2.15
C 	43.58326310947079	43.39660789428874	2.15
C 	44.94688014313205	43.79277526486444	2.15
C 	45.285597652893635	45.17178594233612	2.15
C 	46.649214686554885	45.56795331291183	2.15
C 	1.7023345434228445	1.7751780480473887	2.15
C 	2.0410520531844294	3.154188725519072	2.15
C 	3.404669086845689	3.5503560960947773	2.15
C 	3.743386596607274	4.929366773566461	2.15
C 	5.107003630268534	5.325534144142166	2.15
C 	5.445721140030119	6.704544821613849	2.15
C 	6.809338173691378	7.100712192189555	2.15
C 	7.148055683452963	8.479722869661238	2.15
C 	8.511672717114221	8.875890240236943	2.15
C 	8.850390226875806	10.254900917708627	2.15
C 	10.214007260537068	10.651068288284332	2.15
C 	10.552724770298653	12.030078965756015	2.15
C 	11.916341803959911	12.426246336331722	2.15
C 	12.255059313721496	13.805257013803404	2.15
C 	13.618676347382756	14.20142438437911	2.15
C 	13.957393857144341	15.580435061850794	2.15
C 	15.3210108908056	15.976602432426498	2.15
C 	15.659728400567184	17.35561310989818	2.15
C 	17.023345434228442	17.751780480473887	2.15
C 	17.36206294399003	19.13079115794557	2.15
C 	18.72567997765129	19.526958528521277	2.15
C 	19.064397487412876	20.90596920599296	2.15
C 	20.428014521074136	21.302136576568664	2.15
C 	20.76673203083572	22.681147254040347	2.15
C 	22.13034906449698	23.07731462461605	2.15
C 	22.469066574258566	24.456325302087738	2.15
C 	23.832683607919822	24.852492672663445	2.15
C 	24.17140111768141	26.231503350135128	2.15
C 	25.535018151342666	26.62767072071083	2.15
C 	25.873735661104252	28.00668139818251	2.15
C 	27.237352694765512	28.40284876875822	2.15
C 	27.576070204527095	29.781859446229905	2.15
C 	28.939687238188355	30.17802681680561	2.15
C 	29.278404747949942	31.557037494277296	2.15
C 	30.6420217816112	31.953204864852996	2.15
C 	30.980739291372785	33.33221554232468	2.15
C 	32.34435632503404	33.728382912900386	2.15
C 	32.68307383479563	35.10739359037207	2.15
C 	34.046690868456885	35.50356096094777	2.15
C 	34.38540837821847	36.882571638419456	2.15
C 	35.749025411879735	37.27873900899516	2.15
C 	36.087742921641315	38.65774968646684	2.15
C 	37.45135995530258	39.053917057042554	2.15
C 	37.790077465064165	40.43292773451424	2.15
C 	39.15369449872542	40.82909510508994	2.15
C 	39.49241200848701	42.208105782561624	2.15
C 	40.85602904214827	42.60427315313733	2.15
C 	41.19474655190986	43.98328383060901	2.15
C 	42.558363585571115	44.37945120118472	2.15
C 	42.8970810953327	45.758461878656405	2.15
C 	44.26069812899396	46.1546292492321	2.15
C 	6.123156159553289	9.462566176557216	2.15
C 	6.461873669314874	10.8415768540289	2.15
C 	7.825490702976133	11.237744224604603	2.15
C 	8.164208212737718	12.616754902076288	2.15
C 	9.527825246398978	13.012922272651995	2.15
C 	9.866542756160563	14.391932950123676	2.15
C 	11.230159789821823	14.788100320699382	2.15
C 	11.568877299583407	16.16711099817107	2.15
C 	12.932494333244666	16.56327836874677	2.15
C 	13.271211843006252	17.942289046218455	2.15
C 	14.63482887666751	18.33845641679416	2.15
C 	14.973546386429096	19.717467094265842	2.15
C 	16.337163420090356	20.113634464841546	2.15
C 	16.67588092985194	21.49264514231323	2.15
C 	18.0394979635132	21.888812512888936	2.15
C 	18.378215473274786	23.267823190360623	2.15
C 	19.741832506936046	23.663990560936323	2.15
C 	20.080550016697632	25.04300123840801	2.15
C 	21.44416705035889	25.439168608983714	2.15
C 	21.782884560120475	26.818179286455397	2.15
C 	23.146501593781736	27.214346657031104	2.15
C 	23.48521910354332	28.593357334502784	2.15
C 	24.84883613720458	28.98952470507849	2.15
C 	25.187553646966162	30.368535382550178	2.15
C 	26.551170680627422	30.76470275312588	2.15
C 	26.889888190389005	32.14371343059756	2.15
C 	28.25350522405027	32.539880801173275	2.15
C 	28.59222273381185	33.91889147864495	2.15
C 	29.955839767473112	34.315058849220655	2.15
C 	30.294557277234695	35.69406952669234	2.15
C 	31.658174310895955	36.09023689726805	2.15
C 	31.996891820657538	37.469247574739725	2.15
C 	33.3605088543188	37.865414945315436	2.15
C 	33.69922636408038	39.24442562278711	2.15
C 	35.062843397741645	39.64059299336282	2.15
C 	35.401560907503224	41.019603670834506	2.15
C 	36.76517794116449	41.41577104141022	2.15
C 	37.103895450926075	42.79478171888189	2.15
C 	38.46751248458733	43.190949089457604	2.15
C 	38.80622999434892	44.56995976692928	2.15
C 	40.16984702801018	44.96612713750499	2.15
C 	40.50856453777177	46.34513781497667	2.15
C 	41.872181571433025	46.741305185552385	2.15
C 	10.543977775683734	17.149954305067045	2.15
C 	10.882695285445319	18.528964982538728	2.15
C 	12.246312319106577	18.92513235311443	2.15
C 	12.585029828868164	20.304143030586115	2.15
C 	13.948646862529422	20.700310401161822	2.15
C 	14.287364372291007	22.0793210786335	2.15
C 	15.650981405952265	22.475488449209205	2.15
C 	15.98969891571385	23.854499126680892	2.15
C 	17.35331594937511	24.250666497256596	2.15
C 	17.692033459136695	25.629677174728283	2.15
C 	19.055650492797955	26.02584454530399	2.15
C 	19.394368002559542	27.40485522277567	2.15
C 	20.757985036220802	27.801022593351373	2.15
C 	21.096702545982385	29.180033270823056	2.15
C 	22.460319579643645	29.576200641398763	2.15
C 	22.799037089405232	30.95521131887045	2.15
C 	24.162654123066492	31.351378689446154	2.15
C 	24.501371632828075	32.730389366917834	2.15
C 	25.86498866648933	33.12655673749354	2.15
C 	26.20370617625092	34.50556741496523	2.15
C 	27.56732320991218	34.90173478554093	2.15
C 	27.90604071967376	36.280745463012614	2.15
C 	29.26965775333502	36.67691283358832	2.15
C 	29.608375263096605	38.05592351106	2.15
C 	30.971992296757865	38.452090881635705	2.15
C 	31.31070980651945	39.83110155910739	2.15
C 	32.67432684018071	40.22726892968309	2.15
C 	33.01304434994229	41.606279607154775	2.15
C 	34.376661383603555	42.002446977730486	2.15
C 	34.71537889336514	43.38145765520217	2.15
C 	36.0789959270264	43.77762502577787	2.15
C 	36.417713436787984	45.156635703249556	2.15
C 	37.78133047044924	45.55280307382526	2.15
C 	14.964799391814175	24.83734243357687	2.15
C 	15.30351690157576	26.21635311104855	2.15
C 	16.66713393523702	26.612520481624262	2.15
C 	17.005851444998605	27.991531159095942	2.15
C 	18.36946847865987	28.38769852967165	2.15
C 	18.70818598842145	29.76670920714333	2.15
C 	20.07180302208271	30.162876577719036	2.15
C 	20.4105205318443	31.541887255190723	2.15
C 	21.77413756550556	31.938054625766426	2.15
C 	22.11285507526714	33.31706530323811	2.15
C 	23.4764721089284	33.71323267381381	2.15
C 	23.815189618689985	35.0922433512855	2.15
C 	25.178806652351245	35.4884107218612	2.15
C 	25.51752416211283	36.86742139933289	2.15
C 	26.881141195774088	37.263588769908594	2.15
C 	27.219858705535675	38.64259944738028	2.15
C 	28.58347573919693	39.03876681795598	2.15
C 	28.922193248958518	40.417777495427664	2.15
C 	30.285810282619778	40.81394486600337	2.15
C 	30.62452779238136	42.19295554347506	2.15
C 	31.98814482604262	42.589122914050755	2.15
C 	32.32686233580421	43.96813359152244	2.15
C 	33.690479369465464	44.36430096209815	2.15
C 	34.02919687922705	45.74331163956983	2.15
C 	35.39281391288831	46.139479010145536	2.15
C 	19.38562100794462	32.524730562086695	2.15
C 	19.724338517706208	33.90374123955838	2.15
C 	21.087955551367468	34.29990861013409	2.15
C 	21.42667306112905	35.67891928760577	2.15
C 	22.79029009479031	36.075086658181476	2.15
C 	23.129007604551898	37.45409733565316	2.15
C 	24.492624638213154	37.85026470622886	2.15
C 	24.83134214797474	39.229275383700546	2.15
C 	26.194959181636	39.62544275427626	2.15
C 	26.533676691397584	41.00445343174793	2.15
C 	27.897293725058844	41.400620802323644	2.15
C 	28.236011234820428	42.77963147979532	2.15
C 	29.599628268481688	43.17579885037103	2.15
C 	29.938345778243274	44.554809527842714	2.15
C 	31.30196281190453	44.95097689841841	2.15
C 	31.640680321666117	46.329987575890094	2.15
C 	33.004297355327374	46.72615494646581	2.15
C 	23.806442624075068	40.212118690596526	2.15
C 	24.14516013383665	41.59112936806821	2.15
C 	25.50877716749791	41.98729673864391	2.15
C 	25.847494677259498	43.3663074161156	2.15
C 	27.211111710920754	43.7624747866913	2.15
C 	27.54982922068234	45.14148546416298	2.15
C 	28.913446254343597	45.537652834738694	2.15
H 	51.583686794211964	-1.363802301157781	2.15
H 	53.99402394526108	-0.6635346249993215	2.15
H 	55.696358488683934	1.111643423048076	2.15
H 	57.39869303210678	2.886821471095455	2.15
H 	57.99741201062902	5.32436851366865	2.15
H 	49.195170236651045	-0.7771263648375129	2.15
H 	58.41484556139153	7.023853503510509	2.15
H 	60.11718010481438	8.799031551557901	2.15
H 	61.81951464823721	10.574209599605277	2.15
H 	62.41823362675946	13.011756642178472	2.15
H 	45.10431913566723	-1.9656284765646268	2.15
H 	47.514656286716374	-1.265360800406159	2.15
H 	62.83566717752197	14.71124163202034	2.15
H 	64.53800172094482	16.486419680067733	2.15
H 	66.24033626436767	18.261597728115117	2.15
H 	66.8390552428899	20.699144770688306	2.15
H 	42.7158025781063	-1.3789525402443543	2.15
H 	67.25648879365242	22.398629760530152	2.15
H 	68.95882333707526	24.17380780857756	2.15
H 	70.6611578804981	25.94898585662492	2.15
H 	71.25987685902035	28.38653289919813	2.15
H 	40.32728602054537	-0.7922766039240821	2.15
H 	71.67731040978286	30.08601788903999	2.15
H 	73.37964495320573	31.8611959370874	2.15
H 	75.08197949662856	33.63637398513477	2.15
H 	75.68069847515079	36.073921027707954	2.15
H 	36.23643491956159	-1.9807787156511918	2.15
H 	38.64677207061073	-1.2805110394927293	2.15
H 	76.09813202591333	37.773406017549824	2.15
H 	76.69685100443554	40.21095306012301	2.15
H 	33.84791836200068	-1.3941027793309275	2.15
H 	76.01066899029745	42.57280704449066	2.15
H 	31.459401804439732	-0.807426843010649	2.15
H 	75.32448697615936	44.93466102885833	2.15
H 	27.36855070345597	-1.9959289547377677	2.15
H 	29.77888785450508	-1.2956612785793054	2.15
H 	73.51286880363247	46.67194039527305	2.15
H 	24.980034145895022	-1.4092530184174956	2.15
H 	71.12435224607154	47.25861633159332	2.15
H 	22.59151758833409	-0.8225770820972249	2.15
H 	66.32549853746148	47.145024591755124	2.15
H 	68.73583568851063	47.8452922679136	2.15
H 	18.50066648735031	-2.01107919382434	2.15
H 	20.91100363839944	-1.3108115176658752	2.15
H 	64.64498458752684	46.65679015618648	2.15
H 	16.112149929789375	-1.424403257504066	2.15
H 	62.25646802996588	47.243466092506765	2.15
H 	13.723633372228447	-0.837727321183794	2.15
H 	57.45761432135585	47.129874352668566	2.15
H 	59.86795147240497	47.83014202882702	2.15
H 	9.632782271244665	-2.02622943291091	2.15
H 	12.043119422293794	-1.3259617567524469	2.15
H 	55.777100371421184	46.641639917099916	2.15
H 	7.244265713683733	-1.439553496590638	2.15
H 	53.38858381386028	47.22831585342017	2.15
H 	4.855749156122798	-0.8528775602703651	2.15
H 	48.58973010525018	47.114724113581985	2.15
H 	51.00006725629933	47.81499178974045	2.15
H 	46.909216155315534	46.626489678013336	2.15
H 	0.6556144260349765	1.4710777424646289	2.15
H 	1.2543334045572148	3.9086247850378153	2.15
H 	2.956667947980059	5.6838028330852035	2.15
H 	4.659002491402903	7.458980881132592	2.15
H 	44.52069959775461	47.213165614333604	2.15
H 	5.076436042165421	9.158465870974455	2.15
H 	5.6751550206876615	11.596012913547646	2.15
H 	7.377489564110504	13.371190961595032	2.15
H 	9.079824107533346	15.146369009642418	2.15
H 	39.721845889144554	47.099573874495405	2.15
H 	42.132183040193674	47.79984155065389	2.15
H 	9.497257658295865	16.845853999484287	2.15
H 	10.095976636818106	19.283401042057474	2.15
H 	11.798311180240951	21.05857909010486	2.15
H 	13.500645723663794	22.833757138152247	2.15
H 	38.04133193920989	46.61133943892676	2.15
H 	13.918079274426304	24.533242127994118	2.15
H 	14.51679825294854	26.97078917056729	2.15
H 	16.219132796371387	28.745967218614684	2.15
H 	17.921467339794233	30.52114526666207	2.15
H 	35.652815381648956	47.19801537524704	2.15
H 	18.338900890556754	32.22063025650393	2.15
H 	18.93761986907899	34.65817729907712	2.15
H 	20.63995441250184	36.43335534712452	2.15
H 	22.342288955924683	38.208533395171905	2.15
H 	30.8539616730389	47.08442363540883	2.15
H 	33.26429882408802	47.784691311567315	2.15
H 	22.7597225066872	39.90801838501376	2.15
H 	23.358441485209433	42.34556542758695	2.15
H 	25.060776028632294	44.120743475634356	2.15
H 	26.763110572055126	45.89592152368173	2.15
H 	29.173447723104246	46.5961891998402	2.15
