2342

C 	0.0	0.0	0.0
C 	1.2297560733739028	0.7099999999999999	0.0
C 	2.4595121467478056	-2.3647750424515833e-16	0.0
C 	3.689268220121708	0.7099999999999995	0.0
C 	4.919024293495611	-4.729550084903167e-16	0.0
C 	6.148780366869514	0.7099999999999993	0.0
C 	7.378536440243416	-7.09432512735475e-16	0.0
C 	8.60829251361732	0.7099999999999991	0.0
C 	9.838048586991222	-9.459100169806333e-16	0.0
C 	11.067804660365125	0.7099999999999989	0.0
C 	12.297560733739026	-1.1823875212257916e-15	0.0
C 	13.527316807112928	0.7099999999999986	0.0
C 	14.757072880486833	-1.41886502547095e-15	0.0
C 	15.986828953860735	0.7099999999999984	0.0
C 	17.21658502723464	-7.671641100159832e-16	0.0
C 	18.44634110060854	0.7099999999999982	0.0
C 	19.676097173982445	-1.8918200339612667e-15	0.0
C 	20.905853247356347	0.7099999999999989	0.0
C 	22.135609320730246	-2.128297538206425e-15	0.0
C 	23.36536539410415	0.7099999999999967	0.0
C 	24.59512146747805	-2.364775042451583e-15	0.0
C 	25.824877540851954	0.7099999999999983	0.0
C 	27.05463361422586	-8.248957072964913e-16	0.0
C 	28.284389687599763	0.7099999999999999	0.0
C 	29.514145760973665	-2.8377300509419e-15	0.0
C 	30.743901834347565	0.7099999999999961	0.0
C 	31.97365790772147	-3.0742075551870582e-15	0.0
C 	33.20341398109537	0.7099999999999976	0.0
C 	34.43317005446928	-1.5343282200319664e-15	0.0
C 	35.66292612784318	0.7099999999999992	0.0
C 	36.892682201217085	-1.7708057242771246e-15	0.0
C 	38.122438274590984	0.7099999999999972	0.0
C 	39.35219434796489	-3.783640067922533e-15	0.0
C 	40.58195042133879	0.7099999999999969	0.0
C 	41.811706494712695	-4.67403893367191e-16	0.0
C 	43.0414625680866	0.7100000000000002	0.0
C 	44.27121864146049	-4.25659507641285e-15	0.0
C 	45.5009747148344	0.7099999999999964	0.0
C 	46.730730788208305	-9.403589018575075e-16	0.0
C 	47.96048686158221	0.7099999999999997	0.0
C 	49.1902429349561	-4.729550084903166e-15	0.0
C 	50.41999900833001	0.709999999999996	0.0
C 	51.64975508170391	-1.413313910347824e-15	0.0
C 	52.879511155077815	0.7099999999999993	0.0
C 	54.10926722845172	-1.6497914145929826e-15	0.0
C 	55.33902330182562	0.7099999999999991	0.0
C 	56.56877937519952	-5.438982597638641e-15	0.0
C 	57.798535448573425	0.7099999999999953	0.0
C 	59.02829152194733	-5.6754601018838e-15	0.0
C 	60.25804759532124	0.709999999999995	0.0
C 	1.2297560733739028	2.1299999999999994	0.0
C 	2.4595121467478056	2.8399999999999994	0.0
C 	3.689268220121708	2.1299999999999994	0.0
C 	4.919024293495611	2.8399999999999994	0.0
C 	6.148780366869514	2.129999999999999	0.0
C 	7.378536440243416	2.839999999999999	0.0
C 	8.60829251361732	2.1299999999999986	0.0
C 	9.838048586991222	2.8399999999999985	0.0
C 	11.067804660365123	2.129999999999998	0.0
C 	12.297560733739028	2.839999999999999	0.0
C 	13.527316807112928	2.1299999999999977	0.0
C 	14.757072880486833	2.839999999999998	0.0
C 	15.986828953860735	2.129999999999998	0.0
C 	17.216585027234636	2.839999999999997	0.0
C 	18.446341100608542	2.129999999999998	0.0
C 	19.676097173982445	2.8399999999999985	0.0
C 	20.905853247356344	2.1299999999999977	0.0
C 	22.13560932073025	2.8399999999999985	0.0
C 	23.36536539410415	2.129999999999997	0.0
C 	24.595121467478055	2.839999999999997	0.0
C 	25.824877540851954	2.1299999999999963	0.0
C 	27.05463361422586	2.839999999999997	0.0
C 	28.284389687599763	2.129999999999998	0.0
C 	29.514145760973665	2.8399999999999985	0.0
C 	30.743901834347568	2.129999999999996	0.0
C 	31.97365790772147	2.8399999999999967	0.0
C 	33.20341398109537	2.129999999999996	0.0
C 	34.43317005446928	2.8399999999999963	0.0
C 	35.66292612784318	2.1299999999999972	0.0
C 	36.89268220121708	2.8399999999999963	0.0
C 	38.122438274590984	2.129999999999997	0.0
C 	39.35219434796489	2.8399999999999976	0.0
C 	40.58195042133879	2.1299999999999986	0.0
C 	41.81170649471269	2.839999999999996	0.0
C 	43.0414625680866	2.129999999999998	0.0
C 	44.2712186414605	2.8399999999999954	0.0
C 	45.5009747148344	2.129999999999998	0.0
C 	46.7307307882083	2.8399999999999954	0.0
C 	47.96048686158221	2.1299999999999977	0.0
C 	49.19024293495611	2.839999999999995	0.0
C 	50.41999900833001	2.1299999999999977	0.0
C 	51.64975508170391	2.8399999999999945	0.0
C 	52.879511155077815	2.1299999999999972	0.0
C 	54.10926722845171	2.8399999999999945	0.0
C 	55.33902330182563	2.130000000000001	0.0
C 	56.56877937519952	2.8399999999999976	0.0
C 	57.798535448573425	2.129999999999997	0.0
C 	59.028291521947324	2.839999999999994	0.0
C 	60.25804759532124	2.129999999999997	0.0
C 	61.487803668695136	2.8399999999999936	0.0
C 	2.4595121467478056	4.259999999999999	0.0
C 	3.689268220121708	4.969999999999999	0.0
C 	4.919024293495611	4.259999999999999	0.0
C 	6.148780366869514	4.969999999999999	0.0
C 	7.378536440243416	4.259999999999999	0.0
C 	8.60829251361732	4.969999999999999	0.0
C 	9.83804858699122	4.259999999999998	0.0
C 	11.067804660365125	4.969999999999999	0.0
C 	12.297560733739028	4.259999999999998	0.0
C 	13.52731680711293	4.969999999999998	0.0
C 	14.757072880486831	4.259999999999998	0.0
C 	15.986828953860735	4.969999999999998	0.0
C 	17.21658502723464	4.259999999999997	0.0
C 	18.446341100608542	4.969999999999998	0.0
C 	19.676097173982445	4.259999999999999	0.0
C 	20.905853247356347	4.969999999999997	0.0
C 	22.135609320730246	4.259999999999996	0.0
C 	23.365365394104153	4.969999999999997	0.0
C 	24.595121467478055	4.259999999999998	0.0
C 	25.824877540851958	4.969999999999997	0.0
C 	27.054633614225857	4.259999999999995	0.0
C 	28.28438968759976	4.969999999999996	0.0
C 	29.514145760973665	4.259999999999997	0.0
C 	30.743901834347568	4.969999999999997	0.0
C 	31.97365790772147	4.259999999999996	0.0
C 	33.20341398109537	4.969999999999995	0.0
C 	34.43317005446927	4.2599999999999945	0.0
C 	35.66292612784318	4.969999999999995	0.0
C 	36.892682201217085	4.259999999999996	0.0
C 	38.122438274590984	4.969999999999997	0.0
C 	39.35219434796489	4.259999999999997	0.0
C 	40.58195042133879	4.969999999999994	0.0
C 	41.81170649471269	4.259999999999995	0.0
C 	43.041462568086594	4.969999999999996	0.0
C 	44.2712186414605	4.259999999999997	0.0
C 	45.500974714834406	4.969999999999998	0.0
C 	46.7307307882083	4.259999999999994	0.0
C 	47.960486861582204	4.9699999999999935	0.0
C 	49.19024293495611	4.259999999999996	0.0
C 	50.41999900833001	4.969999999999997	0.0
C 	51.64975508170391	4.259999999999993	0.0
C 	52.879511155077815	4.9699999999999935	0.0
C 	54.10926722845171	4.259999999999996	0.0
C 	55.33902330182562	4.969999999999997	0.0
C 	56.568779375199526	4.259999999999996	0.0
C 	57.798535448573425	4.969999999999996	0.0
C 	59.028291521947324	4.259999999999995	0.0
C 	60.25804759532123	4.969999999999996	0.0
C 	61.487803668695136	4.259999999999992	0.0
C 	62.717559742069035	4.969999999999993	0.0
C 	3.6892682201217086	6.389999999999999	0.0
C 	4.919024293495611	7.099999999999999	0.0
C 	6.148780366869514	6.389999999999999	0.0
C 	7.378536440243416	7.099999999999999	0.0
C 	8.608292513617318	6.389999999999998	0.0
C 	9.838048586991222	7.099999999999999	0.0
C 	11.067804660365125	6.389999999999998	0.0
C 	12.297560733739028	7.099999999999998	0.0
C 	13.52731680711293	6.389999999999999	0.0
C 	14.757072880486833	7.099999999999998	0.0
C 	15.986828953860735	6.389999999999998	0.0
C 	17.216585027234636	7.099999999999997	0.0
C 	18.44634110060854	6.389999999999997	0.0
C 	19.676097173982445	7.099999999999998	0.0
C 	20.905853247356347	6.389999999999998	0.0
C 	22.13560932073025	7.099999999999997	0.0
C 	23.365365394104153	6.389999999999998	0.0
C 	24.59512146747805	7.099999999999997	0.0
C 	25.824877540851958	6.389999999999998	0.0
C 	27.054633614225857	7.099999999999997	0.0
C 	28.28438968759976	6.389999999999999	0.0
C 	29.514145760973662	7.099999999999997	0.0
C 	30.743901834347568	6.389999999999999	0.0
C 	31.97365790772147	7.099999999999998	0.0
C 	33.20341398109537	6.389999999999995	0.0
C 	34.43317005446928	7.099999999999994	0.0
C 	35.66292612784318	6.389999999999995	0.0
C 	36.892682201217085	7.099999999999996	0.0
C 	38.122438274590984	6.389999999999996	0.0
C 	39.35219434796489	7.099999999999997	0.0
C 	40.58195042133879	6.389999999999994	0.0
C 	41.811706494712695	7.099999999999995	0.0
C 	43.041462568086594	6.389999999999996	0.0
C 	44.2712186414605	7.099999999999997	0.0
C 	45.500974714834406	6.389999999999998	0.0
C 	46.730730788208305	7.099999999999998	0.0
C 	47.960486861582204	6.389999999999995	0.0
C 	49.19024293495611	7.099999999999996	0.0
C 	50.41999900833001	6.389999999999995	0.0
C 	51.649755081703915	7.099999999999996	0.0
C 	52.879511155077815	6.389999999999995	0.0
C 	54.10926722845172	7.099999999999996	0.0
C 	55.33902330182562	6.389999999999995	0.0
C 	56.568779375199526	7.099999999999995	0.0
C 	57.79853544857343	6.389999999999998	0.0
C 	59.02829152194733	7.099999999999999	0.0
C 	60.25804759532123	6.389999999999994	0.0
C 	61.487803668695136	7.099999999999995	0.0
C 	62.71755974206904	6.389999999999994	0.0
C 	63.94731581544294	7.099999999999995	0.0
C 	4.919024293495611	8.519999999999998	0.0
C 	6.148780366869514	9.229999999999999	0.0
C 	7.378536440243416	8.519999999999998	0.0
C 	8.60829251361732	9.229999999999999	0.0
C 	9.838048586991222	8.519999999999998	0.0
C 	11.067804660365125	9.229999999999999	0.0
C 	12.297560733739028	8.519999999999998	0.0
C 	13.52731680711293	9.229999999999997	0.0
C 	14.757072880486833	8.519999999999998	0.0
C 	15.986828953860737	9.229999999999999	0.0
C 	17.216585027234636	8.519999999999998	0.0
C 	18.44634110060854	9.229999999999997	0.0
C 	19.67609717398244	8.519999999999996	0.0
C 	20.905853247356347	9.229999999999997	0.0
C 	22.13560932073025	8.519999999999998	0.0
C 	23.365365394104153	9.229999999999999	0.0
C 	24.595121467478055	8.519999999999996	0.0
C 	25.824877540851954	9.229999999999995	0.0
C 	27.05463361422586	8.519999999999996	0.0
C 	28.284389687599763	9.229999999999997	0.0
C 	29.514145760973662	8.519999999999996	0.0
C 	30.743901834347565	9.229999999999995	0.0
C 	31.97365790772147	8.52	0.0
C 	33.20341398109537	9.229999999999997	0.0
C 	34.43317005446928	8.519999999999994	0.0
C 	35.66292612784318	9.229999999999995	0.0
C 	36.89268220121708	8.519999999999992	0.0
C 	38.122438274590984	9.229999999999993	0.0
C 	39.35219434796489	8.519999999999998	0.0
C 	40.58195042133879	9.229999999999995	0.0
C 	41.811706494712695	8.519999999999994	0.0
C 	43.0414625680866	9.229999999999995	0.0
C 	44.27121864146049	8.519999999999992	0.0
C 	45.5009747148344	9.229999999999993	0.0
C 	46.730730788208305	8.519999999999998	0.0
C 	47.960486861582204	9.229999999999995	0.0
C 	49.19024293495611	8.519999999999996	0.0
C 	50.41999900833001	9.229999999999993	0.0
C 	51.64975508170391	8.519999999999994	0.0
C 	52.879511155077815	9.229999999999995	0.0
C 	54.10926722845171	8.51999999999999	0.0
C 	55.33902330182562	9.229999999999992	0.0
C 	56.568779375199526	8.519999999999998	0.0
C 	57.798535448573425	9.229999999999995	0.0
C 	59.02829152194733	8.519999999999994	0.0
C 	60.25804759532123	9.229999999999993	0.0
C 	61.48780366869513	8.519999999999992	0.0
C 	62.717559742069035	9.229999999999993	0.0
C 	63.94731581544294	8.519999999999992	0.0
C 	65.17707188881684	9.22999999999999	0.0
C 	6.148780366869514	10.649999999999997	0.0
C 	7.378536440243416	11.359999999999998	0.0
C 	8.608292513617318	10.649999999999997	0.0
C 	9.838048586991222	11.359999999999998	0.0
C 	11.067804660365125	10.649999999999997	0.0
C 	12.297560733739028	11.359999999999996	0.0
C 	13.52731680711293	10.649999999999997	0.0
C 	14.757072880486831	11.359999999999996	0.0
C 	15.986828953860735	10.649999999999997	0.0
C 	17.216585027234636	11.359999999999996	0.0
C 	18.44634110060854	10.649999999999997	0.0
C 	19.676097173982445	11.359999999999998	0.0
C 	20.905853247356347	10.649999999999997	0.0
C 	22.13560932073025	11.359999999999996	0.0
C 	23.365365394104153	10.649999999999997	0.0
C 	24.595121467478055	11.359999999999996	0.0
C 	25.824877540851958	10.649999999999997	0.0
C 	27.05463361422586	11.359999999999996	0.0
C 	28.284389687599763	10.649999999999995	0.0
C 	29.514145760973662	11.359999999999994	0.0
C 	30.743901834347565	10.649999999999995	0.0
C 	31.97365790772147	11.359999999999996	0.0
C 	33.20341398109537	10.649999999999997	0.0
C 	34.43317005446928	11.359999999999998	0.0
C 	35.66292612784318	10.649999999999991	0.0
C 	36.89268220121708	11.359999999999992	0.0
C 	38.122438274590984	10.649999999999993	0.0
C 	39.35219434796489	11.359999999999994	0.0
C 	40.58195042133879	10.649999999999993	0.0
C 	41.811706494712695	11.359999999999994	0.0
C 	43.041462568086594	10.649999999999991	0.0
C 	44.2712186414605	11.359999999999992	0.0
C 	45.5009747148344	10.649999999999993	0.0
C 	46.730730788208305	11.359999999999994	0.0
C 	47.960486861582204	10.649999999999995	0.0
C 	49.19024293495611	11.359999999999996	0.0
C 	50.41999900833001	10.649999999999993	0.0
C 	51.649755081703915	11.359999999999994	0.0
C 	52.879511155077815	10.649999999999995	0.0
C 	54.10926722845172	11.359999999999996	0.0
C 	55.33902330182562	10.649999999999993	0.0
C 	56.568779375199526	11.359999999999994	0.0
C 	57.798535448573425	10.649999999999993	0.0
C 	59.02829152194733	11.359999999999992	0.0
C 	60.25804759532124	10.649999999999995	0.0
C 	61.487803668695136	11.359999999999996	0.0
C 	62.717559742069035	10.649999999999991	0.0
C 	63.94731581544294	11.359999999999992	0.0
C 	65.17707188881684	10.649999999999991	0.0
C 	66.40682796219075	11.359999999999992	0.0
C 	7.378536440243417	12.779999999999998	0.0
C 	8.60829251361732	13.489999999999998	0.0
C 	9.838048586991222	12.78	0.0
C 	11.067804660365125	13.489999999999997	0.0
C 	12.297560733739028	12.779999999999998	0.0
C 	13.527316807112932	13.489999999999998	0.0
C 	14.757072880486833	12.779999999999998	0.0
C 	15.986828953860737	13.489999999999997	0.0
C 	17.216585027234636	12.779999999999996	0.0
C 	18.446341100608542	13.489999999999997	0.0
C 	19.676097173982445	12.779999999999998	0.0
C 	20.905853247356347	13.489999999999997	0.0
C 	22.13560932073025	12.779999999999996	0.0
C 	23.36536539410415	13.489999999999995	0.0
C 	24.595121467478055	12.779999999999996	0.0
C 	25.824877540851958	13.489999999999997	0.0
C 	27.05463361422586	12.779999999999998	0.0
C 	28.284389687599763	13.489999999999997	0.0
C 	29.514145760973662	12.779999999999996	0.0
C 	30.743901834347568	13.489999999999997	0.0
C 	31.97365790772147	12.779999999999996	0.0
C 	33.20341398109537	13.489999999999997	0.0
C 	34.43317005446928	12.779999999999998	0.0
C 	35.66292612784318	13.489999999999995	0.0
C 	36.89268220121708	12.779999999999994	0.0
C 	38.122438274590984	13.489999999999995	0.0
C 	39.35219434796489	12.779999999999996	0.0
C 	40.581950421338796	13.489999999999997	0.0
C 	41.811706494712695	12.779999999999996	0.0
C 	43.041462568086594	13.489999999999993	0.0
C 	44.2712186414605	12.779999999999994	0.0
C 	45.5009747148344	13.489999999999995	0.0
C 	46.730730788208305	12.779999999999996	0.0
C 	47.96048686158221	13.489999999999997	0.0
C 	49.19024293495611	12.779999999999998	0.0
C 	50.41999900833001	13.489999999999995	0.0
C 	51.649755081703915	12.779999999999996	0.0
C 	52.879511155077815	13.489999999999993	0.0
C 	54.10926722845172	12.779999999999998	0.0
C 	55.33902330182563	13.489999999999998	0.0
C 	56.56877937519952	12.779999999999998	0.0
C 	57.798535448573425	13.489999999999997	0.0
C 	59.02829152194733	12.779999999999994	0.0
C 	60.25804759532123	13.489999999999991	0.0
C 	61.487803668695136	12.779999999999998	0.0
C 	62.71755974206904	13.489999999999998	0.0
C 	63.94731581544294	12.779999999999994	0.0
C 	65.17707188881684	13.489999999999995	0.0
C 	66.40682796219075	12.77999999999999	0.0
C 	67.63658403556465	13.489999999999988	0.0
C 	8.60829251361732	14.909999999999998	0.0
C 	9.838048586991222	15.619999999999996	0.0
C 	11.067804660365125	14.909999999999997	0.0
C 	12.297560733739026	15.619999999999996	0.0
C 	13.527316807112934	14.909999999999998	0.0
C 	14.757072880486831	15.619999999999996	0.0
C 	15.986828953860737	14.909999999999998	0.0
C 	17.21658502723464	15.619999999999997	0.0
C 	18.446341100608542	14.909999999999997	0.0
C 	19.676097173982445	15.619999999999996	0.0
C 	20.905853247356347	14.909999999999997	0.0
C 	22.135609320730246	15.619999999999996	0.0
C 	23.365365394104153	14.909999999999995	0.0
C 	24.595121467478055	15.619999999999996	0.0
C 	25.824877540851958	14.909999999999997	0.0
C 	27.05463361422586	15.619999999999996	0.0
C 	28.284389687599763	14.909999999999997	0.0
C 	29.514145760973665	15.619999999999996	0.0
C 	30.743901834347568	14.909999999999997	0.0
C 	31.973657907721474	15.619999999999997	0.0
C 	33.203413981095366	14.909999999999993	0.0
C 	34.43317005446927	15.619999999999994	0.0
C 	35.662926127843185	14.909999999999998	0.0
C 	36.892682201217085	15.619999999999996	0.0
C 	38.122438274590984	14.909999999999995	0.0
C 	39.35219434796489	15.619999999999996	0.0
C 	40.58195042133879	14.909999999999993	0.0
C 	41.811706494712695	15.619999999999994	0.0
C 	43.0414625680866	14.909999999999998	0.0
C 	44.2712186414605	15.619999999999996	0.0
C 	45.5009747148344	14.909999999999995	0.0
C 	46.730730788208305	15.619999999999996	0.0
C 	47.960486861582204	14.909999999999993	0.0
C 	49.19024293495611	15.619999999999994	0.0
C 	50.41999900833002	14.909999999999998	0.0
C 	51.649755081703915	15.619999999999996	0.0
C 	52.87951115507782	14.909999999999997	0.0
C 	54.10926722845171	15.619999999999994	0.0
C 	55.33902330182562	14.909999999999995	0.0
C 	56.568779375199526	15.619999999999994	0.0
C 	57.798535448573425	14.909999999999991	0.0
C 	59.028291521947324	15.619999999999992	0.0
C 	60.25804759532124	14.909999999999998	0.0
C 	61.487803668695136	15.619999999999996	0.0
C 	62.717559742069035	14.909999999999993	0.0
C 	63.94731581544294	15.619999999999994	0.0
C 	65.17707188881684	14.909999999999993	0.0
C 	66.40682796219075	15.619999999999994	0.0
C 	67.63658403556465	14.909999999999997	0.0
C 	68.86634010893854	15.61999999999999	0.0
C 	9.838048586991222	17.039999999999996	0.0
C 	11.067804660365127	17.749999999999996	0.0
C 	12.297560733739028	17.039999999999996	0.0
C 	13.527316807112932	17.749999999999996	0.0
C 	14.757072880486833	17.039999999999996	0.0
C 	15.986828953860735	17.749999999999996	0.0
C 	17.21658502723464	17.039999999999996	0.0
C 	18.446341100608546	17.749999999999996	0.0
C 	19.676097173982445	17.039999999999996	0.0
C 	20.905853247356347	17.749999999999996	0.0
C 	22.13560932073025	17.039999999999996	0.0
C 	23.365365394104153	17.749999999999996	0.0
C 	24.595121467478055	17.039999999999996	0.0
C 	25.82487754085196	17.749999999999996	0.0
C 	27.05463361422586	17.039999999999996	0.0
C 	28.28438968759977	17.75	0.0
C 	29.514145760973665	17.039999999999996	0.0
C 	30.74390183434757	17.749999999999996	0.0
C 	31.973657907721467	17.039999999999992	0.0
C 	33.20341398109537	17.749999999999993	0.0
C 	34.43317005446927	17.039999999999996	0.0
C 	35.66292612784318	17.749999999999996	0.0
C 	36.892682201217085	17.039999999999996	0.0
C 	38.122438274590984	17.749999999999996	0.0
C 	39.35219434796488	17.039999999999992	0.0
C 	40.58195042133879	17.749999999999993	0.0
C 	41.811706494712695	17.039999999999992	0.0
C 	43.041462568086594	17.749999999999993	0.0
C 	44.2712186414605	17.039999999999996	0.0
C 	45.500974714834406	17.749999999999996	0.0
C 	46.7307307882083	17.039999999999992	0.0
C 	47.960486861582204	17.749999999999993	0.0
C 	49.19024293495611	17.039999999999992	0.0
C 	50.41999900833002	17.749999999999993	0.0
C 	51.649755081703915	17.039999999999996	0.0
C 	52.87951115507782	17.749999999999996	0.0
C 	54.10926722845172	17.039999999999992	0.0
C 	55.33902330182562	17.749999999999993	0.0
C 	56.568779375199526	17.039999999999996	0.0
C 	57.79853544857343	17.749999999999996	0.0
C 	59.028291521947324	17.039999999999992	0.0
C 	60.25804759532123	17.749999999999993	0.0
C 	61.487803668695136	17.039999999999996	0.0
C 	62.71755974206904	17.749999999999996	0.0
C 	63.94731581544294	17.04	0.0
C 	65.17707188881684	17.749999999999993	0.0
C 	66.40682796219075	17.039999999999996	0.0
C 	67.63658403556464	17.74999999999999	0.0
C 	68.86634010893856	17.03999999999999	0.0
C 	70.09609618231246	17.74999999999999	0.0
C 	11.067804660365125	19.169999999999995	0.0
C 	12.297560733739026	19.879999999999995	0.0
C 	13.52731680711293	19.169999999999995	0.0
C 	14.757072880486831	19.879999999999995	0.0
C 	15.986828953860737	19.169999999999998	0.0
C 	17.216585027234636	19.879999999999992	0.0
C 	18.446341100608542	19.169999999999995	0.0
C 	19.676097173982445	19.879999999999995	0.0
C 	20.905853247356347	19.169999999999995	0.0
C 	22.135609320730246	19.879999999999995	0.0
C 	23.365365394104153	19.169999999999995	0.0
C 	24.59512146747805	19.879999999999995	0.0
C 	25.824877540851958	19.169999999999995	0.0
C 	27.05463361422586	19.879999999999995	0.0
C 	28.284389687599763	19.169999999999995	0.0
C 	29.51414576097367	19.879999999999995	0.0
C 	30.743901834347565	19.16999999999999	0.0
C 	31.97365790772147	19.879999999999992	0.0
C 	33.20341398109537	19.169999999999995	0.0
C 	34.43317005446927	19.879999999999992	0.0
C 	35.66292612784318	19.169999999999995	0.0
C 	36.89268220121708	19.879999999999992	0.0
C 	38.122438274590984	19.169999999999995	0.0
C 	39.35219434796488	19.879999999999992	0.0
C 	40.58195042133879	19.16999999999999	0.0
C 	41.81170649471269	19.87999999999999	0.0
C 	43.0414625680866	19.169999999999995	0.0
C 	44.27121864146049	19.879999999999992	0.0
C 	45.5009747148344	19.16999999999999	0.0
C 	46.730730788208305	19.879999999999992	0.0
C 	47.960486861582204	19.169999999999995	0.0
C 	49.1902429349561	19.879999999999992	0.0
C 	50.41999900833002	19.169999999999995	0.0
C 	51.649755081703915	19.879999999999992	0.0
C 	52.879511155077815	19.16999999999999	0.0
C 	54.10926722845172	19.879999999999992	0.0
C 	55.33902330182562	19.16999999999999	0.0
C 	56.56877937519952	19.879999999999992	0.0
C 	57.79853544857343	19.169999999999995	0.0
C 	59.02829152194733	19.879999999999992	0.0
C 	60.25804759532123	19.169999999999995	0.0
C 	61.48780366869513	19.879999999999992	0.0
C 	62.717559742069035	19.16999999999999	0.0
C 	63.94731581544294	19.879999999999992	0.0
C 	65.17707188881684	19.169999999999995	0.0
C 	66.40682796219075	19.87999999999999	0.0
C 	67.63658403556465	19.169999999999995	0.0
C 	68.86634010893854	19.87999999999999	0.0
C 	70.09609618231245	19.16999999999999	0.0
C 	71.32585225568636	19.879999999999992	0.0
C 	12.297560733739028	21.299999999999994	0.0
C 	13.527316807112932	22.009999999999994	0.0
C 	14.757072880486831	21.299999999999994	0.0
C 	15.986828953860735	22.009999999999994	0.0
C 	17.216585027234636	21.299999999999994	0.0
C 	18.44634110060854	22.009999999999994	0.0
C 	19.676097173982445	21.299999999999994	0.0
C 	20.905853247356347	22.009999999999994	0.0
C 	22.13560932073025	21.299999999999994	0.0
C 	23.365365394104153	22.009999999999994	0.0
C 	24.595121467478055	21.299999999999994	0.0
C 	25.824877540851958	22.009999999999994	0.0
C 	27.05463361422586	21.299999999999994	0.0
C 	28.284389687599766	22.009999999999994	0.0
C 	29.514145760973662	21.29999999999999	0.0
C 	30.743901834347568	22.00999999999999	0.0
C 	31.97365790772147	21.299999999999994	0.0
C 	33.20341398109537	22.009999999999994	0.0
C 	34.43317005446928	21.299999999999994	0.0
C 	35.662926127843185	22.009999999999994	0.0
C 	36.89268220121708	21.299999999999994	0.0
C 	38.122438274590984	22.009999999999994	0.0
C 	39.35219434796489	21.299999999999994	0.0
C 	40.58195042133879	22.009999999999994	0.0
C 	41.811706494712695	21.299999999999994	0.0
C 	43.0414625680866	22.009999999999994	0.0
C 	44.2712186414605	21.29999999999999	0.0
C 	45.5009747148344	22.00999999999999	0.0
C 	46.730730788208305	21.299999999999994	0.0
C 	47.96048686158221	22.009999999999994	0.0
C 	49.19024293495611	21.299999999999994	0.0
C 	50.41999900833002	22.009999999999994	0.0
C 	51.649755081703915	21.299999999999994	0.0
C 	52.879511155077815	22.00999999999999	0.0
C 	54.10926722845172	21.299999999999994	0.0
C 	55.33902330182563	22.009999999999994	0.0
C 	56.568779375199526	21.29999999999999	0.0
C 	57.798535448573425	22.00999999999999	0.0
C 	59.02829152194733	21.299999999999994	0.0
C 	60.25804759532124	22.009999999999994	0.0
C 	61.48780366869513	21.29999999999999	0.0
C 	62.717559742069035	22.00999999999999	0.0
C 	63.94731581544294	21.299999999999994	0.0
C 	65.17707188881684	22.009999999999987	0.0
C 	66.40682796219075	21.299999999999994	0.0
C 	67.63658403556465	22.009999999999994	0.0
C 	68.86634010893854	21.29999999999999	0.0
C 	70.09609618231245	22.00999999999999	0.0
C 	71.32585225568636	21.299999999999983	0.0
C 	72.55560832906026	22.00999999999999	0.0
C 	13.527316807112932	23.429999999999996	0.0
C 	14.757072880486836	24.139999999999997	0.0
C 	15.986828953860737	23.429999999999996	0.0
C 	17.216585027234643	24.139999999999997	0.0
C 	18.446341100608542	23.429999999999996	0.0
C 	19.676097173982445	24.139999999999997	0.0
C 	20.90585324735635	23.429999999999996	0.0
C 	22.135609320730254	24.139999999999997	0.0
C 	23.365365394104156	23.429999999999993	0.0
C 	24.595121467478062	24.139999999999997	0.0
C 	25.824877540851958	23.429999999999993	0.0
C 	27.054633614225864	24.139999999999993	0.0
C 	28.284389687599766	23.429999999999996	0.0
C 	29.514145760973673	24.139999999999997	0.0
C 	30.743901834347575	23.429999999999996	0.0
C 	31.973657907721478	24.139999999999997	0.0
C 	33.20341398109537	23.429999999999993	0.0
C 	34.43317005446928	24.139999999999993	0.0
C 	35.66292612784318	23.429999999999993	0.0
C 	36.892682201217085	24.139999999999993	0.0
C 	38.122438274590984	23.429999999999993	0.0
C 	39.35219434796489	24.139999999999993	0.0
C 	40.58195042133879	23.429999999999996	0.0
C 	41.811706494712695	24.139999999999993	0.0
C 	43.041462568086594	23.42999999999999	0.0
C 	44.2712186414605	24.13999999999999	0.0
C 	45.5009747148344	23.429999999999993	0.0
C 	46.730730788208305	24.139999999999993	0.0
C 	47.96048686158221	23.429999999999993	0.0
C 	49.19024293495611	24.139999999999993	0.0
C 	50.41999900833001	23.429999999999993	0.0
C 	51.649755081703915	24.13999999999999	0.0
C 	52.87951115507782	23.429999999999993	0.0
C 	54.10926722845172	24.139999999999993	0.0
C 	55.33902330182563	23.429999999999993	0.0
C 	56.56877937519953	24.139999999999993	0.0
C 	57.798535448573425	23.429999999999993	0.0
C 	59.02829152194733	24.139999999999993	0.0
C 	60.25804759532124	23.429999999999993	0.0
C 	61.487803668695136	24.13999999999999	0.0
C 	62.71755974206904	23.429999999999993	0.0
C 	63.947315815442934	24.139999999999986	0.0
C 	65.17707188881684	23.429999999999993	0.0
C 	66.40682796219075	24.139999999999993	0.0
C 	67.63658403556464	23.42999999999999	0.0
C 	68.86634010893856	24.139999999999997	0.0
C 	70.09609618231245	23.42999999999999	0.0
C 	71.32585225568636	24.139999999999997	0.0
C 	72.55560832906026	23.42999999999999	0.0
C 	73.78536440243417	24.13999999999999	0.0
C 	14.757072880486835	25.559999999999995	0.0
C 	15.986828953860735	26.269999999999996	0.0
C 	17.21658502723464	25.559999999999995	0.0
C 	18.44634110060854	26.269999999999996	0.0
C 	19.676097173982445	25.56	0.0
C 	20.905853247356344	26.269999999999996	0.0
C 	22.13560932073025	25.56	0.0
C 	23.365365394104153	26.269999999999996	0.0
C 	24.595121467478055	25.559999999999995	0.0
C 	25.824877540851958	26.269999999999996	0.0
C 	27.054633614225857	25.559999999999995	0.0
C 	28.28438968759976	26.269999999999996	0.0
C 	29.514145760973665	25.559999999999995	0.0
C 	30.743901834347568	26.269999999999996	0.0
C 	31.973657907721474	25.559999999999995	0.0
C 	33.20341398109538	26.269999999999996	0.0
C 	34.43317005446927	25.55999999999999	0.0
C 	35.66292612784318	26.269999999999992	0.0
C 	36.892682201217085	25.559999999999995	0.0
C 	38.12243827459098	26.269999999999992	0.0
C 	39.35219434796489	25.559999999999995	0.0
C 	40.58195042133879	26.269999999999992	0.0
C 	41.81170649471269	25.55999999999999	0.0
C 	43.041462568086594	26.269999999999992	0.0
C 	44.2712186414605	25.55999999999999	0.0
C 	45.5009747148344	26.26999999999999	0.0
C 	46.730730788208305	25.559999999999995	0.0
C 	47.960486861582204	26.269999999999992	0.0
C 	49.19024293495611	25.55999999999999	0.0
C 	50.41999900833001	26.269999999999992	0.0
C 	51.649755081703915	25.559999999999995	0.0
C 	52.879511155077815	26.269999999999992	0.0
C 	54.10926722845172	25.559999999999995	0.0
C 	55.33902330182562	26.269999999999992	0.0
C 	56.568779375199526	25.55999999999999	0.0
C 	57.79853544857343	26.269999999999992	0.0
C 	59.028291521947324	25.55999999999999	0.0
C 	60.25804759532123	26.269999999999992	0.0
C 	61.487803668695136	25.559999999999995	0.0
C 	62.717559742069035	26.26999999999999	0.0
C 	63.94731581544294	25.55999999999999	0.0
C 	65.17707188881683	26.269999999999985	0.0
C 	66.40682796219075	25.55999999999999	0.0
C 	67.63658403556465	26.269999999999992	0.0
C 	68.86634010893856	25.559999999999995	0.0
C 	70.09609618231246	26.269999999999996	0.0
C 	71.32585225568636	25.559999999999995	0.0
C 	72.55560832906026	26.269999999999996	0.0
C 	73.78536440243415	25.559999999999988	0.0
C 	75.01512047580806	26.26999999999999	0.0
C 	15.986828953860735	27.689999999999994	0.0
C 	17.21658502723464	28.399999999999995	0.0
C 	18.446341100608542	27.689999999999994	0.0
C 	19.676097173982445	28.399999999999995	0.0
C 	20.905853247356344	27.689999999999994	0.0
C 	22.13560932073025	28.399999999999995	0.0
C 	23.365365394104153	27.689999999999994	0.0
C 	24.59512146747806	28.399999999999995	0.0
C 	25.824877540851954	27.689999999999994	0.0
C 	27.054633614225857	28.399999999999995	0.0
C 	28.284389687599763	27.689999999999994	0.0
C 	29.514145760973665	28.399999999999995	0.0
C 	30.74390183434757	27.689999999999994	0.0
C 	31.973657907721474	28.399999999999995	0.0
C 	33.20341398109537	27.68999999999999	0.0
C 	34.43317005446928	28.39999999999999	0.0
C 	35.66292612784318	27.689999999999994	0.0
C 	36.892682201217085	28.399999999999995	0.0
C 	38.122438274590984	27.689999999999994	0.0
C 	39.35219434796489	28.399999999999995	0.0
C 	40.58195042133879	27.689999999999994	0.0
C 	41.811706494712695	28.399999999999995	0.0
C 	43.041462568086594	27.689999999999994	0.0
C 	44.2712186414605	28.399999999999995	0.0
C 	45.500974714834406	27.689999999999994	0.0
C 	46.730730788208305	28.399999999999995	0.0
C 	47.960486861582204	27.68999999999999	0.0
C 	49.19024293495611	28.39999999999999	0.0
C 	50.41999900833002	27.689999999999994	0.0
C 	51.649755081703915	28.399999999999995	0.0
C 	52.87951115507782	27.689999999999994	0.0
C 	54.10926722845173	28.399999999999995	0.0
C 	55.33902330182562	27.68999999999999	0.0
C 	56.568779375199526	28.39999999999999	0.0
C 	57.79853544857343	27.689999999999994	0.0
C 	59.02829152194733	28.39999999999999	0.0
C 	60.25804759532124	27.689999999999994	0.0
C 	61.48780366869513	28.399999999999988	0.0
C 	62.717559742069035	27.689999999999994	0.0
C 	63.94731581544294	28.399999999999995	0.0
C 	65.17707188881684	27.68999999999999	0.0
C 	66.40682796219075	28.39999999999999	0.0
C 	67.63658403556464	27.689999999999987	0.0
C 	68.86634010893856	28.399999999999995	0.0
C 	70.09609618231245	27.689999999999994	0.0
C 	71.32585225568636	28.399999999999995	0.0
C 	72.55560832906026	27.68999999999999	0.0
C 	73.78536440243415	28.39999999999999	0.0
C 	75.01512047580808	27.689999999999994	0.0
C 	76.24487654918197	28.399999999999984	0.0
C 	17.21658502723464	29.819999999999997	0.0
C 	18.446341100608546	30.529999999999998	0.0
C 	19.676097173982445	29.819999999999997	0.0
C 	20.905853247356355	30.529999999999998	0.0
C 	22.13560932073025	29.819999999999993	0.0
C 	23.365365394104156	30.529999999999994	0.0
C 	24.59512146747806	29.819999999999997	0.0
C 	25.82487754085196	30.529999999999998	0.0
C 	27.054633614225867	29.819999999999997	0.0
C 	28.28438968759977	30.529999999999998	0.0
C 	29.514145760973665	29.819999999999997	0.0
C 	30.74390183434757	30.529999999999998	0.0
C 	31.973657907721474	29.819999999999997	0.0
C 	33.20341398109538	30.529999999999998	0.0
C 	34.43317005446928	29.819999999999997	0.0
C 	35.662926127843185	30.529999999999998	0.0
C 	36.892682201217085	29.819999999999993	0.0
C 	38.12243827459099	30.529999999999994	0.0
C 	39.35219434796488	29.819999999999993	0.0
C 	40.58195042133879	30.529999999999994	0.0
C 	41.811706494712695	29.819999999999993	0.0
C 	43.0414625680866	30.529999999999994	0.0
C 	44.2712186414605	29.819999999999993	0.0
C 	45.500974714834406	30.529999999999994	0.0
C 	46.730730788208305	29.81999999999999	0.0
C 	47.960486861582204	30.52999999999999	0.0
C 	49.19024293495611	29.819999999999993	0.0
C 	50.41999900833002	30.529999999999994	0.0
C 	51.649755081703915	29.819999999999993	0.0
C 	52.87951115507782	30.529999999999994	0.0
C 	54.10926722845172	29.819999999999993	0.0
C 	55.33902330182563	30.52999999999999	0.0
C 	56.568779375199526	29.819999999999993	0.0
C 	57.798535448573425	30.52999999999999	0.0
C 	59.02829152194734	29.819999999999993	0.0
C 	60.25804759532124	30.529999999999994	0.0
C 	61.487803668695136	29.819999999999993	0.0
C 	62.71755974206904	30.529999999999994	0.0
C 	63.947315815442934	29.81999999999999	0.0
C 	65.17707188881685	30.529999999999998	0.0
C 	66.40682796219073	29.819999999999986	0.0
C 	67.63658403556465	30.529999999999994	0.0
C 	68.86634010893856	29.819999999999993	0.0
C 	70.09609618231245	30.529999999999994	0.0
C 	71.32585225568637	29.819999999999997	0.0
C 	72.55560832906026	30.52999999999999	0.0
C 	73.78536440243417	29.819999999999997	0.0
C 	75.01512047580806	30.529999999999987	0.0
C 	76.24487654918197	29.81999999999999	0.0
C 	77.47463262255587	30.52999999999999	0.0
C 	18.446341100608542	31.949999999999996	0.0
C 	19.676097173982445	32.65999999999999	0.0
C 	20.905853247356347	31.949999999999992	0.0
C 	22.135609320730254	32.66	0.0
C 	23.365365394104156	31.949999999999996	0.0
C 	24.595121467478055	32.65999999999999	0.0
C 	25.824877540851958	31.949999999999992	0.0
C 	27.05463361422586	32.66	0.0
C 	28.284389687599766	31.949999999999996	0.0
C 	29.51414576097367	32.66	0.0
C 	30.743901834347568	31.949999999999992	0.0
C 	31.97365790772147	32.66	0.0
C 	33.20341398109537	31.949999999999992	0.0
C 	34.43317005446928	32.66	0.0
C 	35.66292612784318	31.949999999999996	0.0
C 	36.892682201217085	32.66	0.0
C 	38.122438274590984	31.949999999999992	0.0
C 	39.35219434796489	32.65999999999999	0.0
C 	40.58195042133879	31.949999999999992	0.0
C 	41.81170649471269	32.65999999999999	0.0
C 	43.0414625680866	31.949999999999996	0.0
C 	44.2712186414605	32.65999999999999	0.0
C 	45.5009747148344	31.949999999999992	0.0
C 	46.730730788208305	32.65999999999999	0.0
C 	47.96048686158221	31.949999999999992	0.0
C 	49.1902429349561	32.65999999999999	0.0
C 	50.41999900833002	31.949999999999992	0.0
C 	51.649755081703915	32.65999999999999	0.0
C 	52.879511155077815	31.949999999999992	0.0
C 	54.10926722845172	32.65999999999999	0.0
C 	55.33902330182563	31.949999999999992	0.0
C 	56.568779375199526	32.65999999999999	0.0
C 	57.79853544857343	31.949999999999992	0.0
C 	59.028291521947324	32.65999999999999	0.0
C 	60.25804759532124	31.949999999999992	0.0
C 	61.487803668695136	32.65999999999999	0.0
C 	62.717559742069035	31.94999999999999	0.0
C 	63.94731581544294	32.65999999999999	0.0
C 	65.17707188881685	31.949999999999992	0.0
C 	66.40682796219076	32.66	0.0
C 	67.63658403556465	31.949999999999992	0.0
C 	68.86634010893856	32.65999999999999	0.0
C 	70.09609618231245	31.94999999999999	0.0
C 	71.32585225568636	32.65999999999999	0.0
C 	72.55560832906026	31.949999999999996	0.0
C 	73.78536440243415	32.65999999999999	0.0
C 	75.01512047580806	31.949999999999992	0.0
C 	76.24487654918195	32.65999999999998	0.0
C 	77.47463262255587	31.949999999999985	0.0
C 	78.70438869592978	32.65999999999999	0.0
C 	19.676097173982445	34.07999999999999	0.0
C 	20.90585324735635	34.78999999999999	0.0
C 	22.135609320730254	34.07999999999999	0.0
C 	23.365365394104156	34.78999999999999	0.0
C 	24.595121467478055	34.07999999999999	0.0
C 	25.824877540851958	34.78999999999999	0.0
C 	27.054633614225864	34.07999999999999	0.0
C 	28.284389687599766	34.78999999999999	0.0
C 	29.514145760973665	34.07999999999999	0.0
C 	30.743901834347568	34.78999999999999	0.0
C 	31.97365790772147	34.07999999999999	0.0
C 	33.20341398109537	34.78999999999999	0.0
C 	34.43317005446928	34.07999999999999	0.0
C 	35.662926127843185	34.78999999999999	0.0
C 	36.89268220121708	34.07999999999999	0.0
C 	38.122438274590984	34.78999999999999	0.0
C 	39.35219434796489	34.07999999999999	0.0
C 	40.581950421338796	34.78999999999999	0.0
C 	41.811706494712695	34.07999999999999	0.0
C 	43.0414625680866	34.78999999999999	0.0
C 	44.2712186414605	34.07999999999999	0.0
C 	45.5009747148344	34.78999999999999	0.0
C 	46.730730788208305	34.07999999999999	0.0
C 	47.96048686158221	34.78999999999999	0.0
C 	49.19024293495611	34.07999999999999	0.0
C 	50.41999900833002	34.78999999999999	0.0
C 	51.649755081703915	34.07999999999999	0.0
C 	52.87951115507782	34.78999999999999	0.0
C 	54.10926722845172	34.07999999999999	0.0
C 	55.33902330182562	34.78999999999999	0.0
C 	56.56877937519953	34.07999999999999	0.0
C 	57.79853544857343	34.78999999999999	0.0
C 	59.02829152194733	34.07999999999999	0.0
C 	60.25804759532124	34.78999999999999	0.0
C 	61.487803668695136	34.07999999999999	0.0
C 	62.71755974206905	34.79	0.0
C 	63.947315815442934	34.079999999999984	0.0
C 	65.17707188881685	34.78999999999999	0.0
C 	66.40682796219075	34.07999999999999	0.0
C 	67.63658403556465	34.78999999999999	0.0
C 	68.86634010893854	34.07999999999999	0.0
C 	70.09609618231245	34.78999999999999	0.0
C 	71.32585225568636	34.07999999999999	0.0
C 	72.55560832906025	34.789999999999985	0.0
C 	73.78536440243417	34.07999999999999	0.0
C 	75.01512047580808	34.78999999999999	0.0
C 	76.24487654918197	34.07999999999999	0.0
C 	77.47463262255587	34.78999999999999	0.0
C 	78.70438869592977	34.079999999999984	0.0
C 	79.93414476930369	34.78999999999999	0.0
C 	20.90585324735635	36.209999999999994	0.0
C 	22.135609320730254	36.919999999999995	0.0
C 	23.36536539410416	36.209999999999994	0.0
C 	24.595121467478062	36.919999999999995	0.0
C 	25.82487754085196	36.209999999999994	0.0
C 	27.054633614225864	36.919999999999995	0.0
C 	28.284389687599766	36.209999999999994	0.0
C 	29.514145760973673	36.919999999999995	0.0
C 	30.743901834347575	36.209999999999994	0.0
C 	31.973657907721478	36.919999999999995	0.0
C 	33.20341398109537	36.209999999999994	0.0
C 	34.43317005446928	36.919999999999995	0.0
C 	35.662926127843185	36.209999999999994	0.0
C 	36.89268220121709	36.919999999999995	0.0
C 	38.12243827459099	36.209999999999994	0.0
C 	39.3521943479649	36.919999999999995	0.0
C 	40.581950421338796	36.209999999999994	0.0
C 	41.811706494712695	36.919999999999995	0.0
C 	43.041462568086594	36.209999999999994	0.0
C 	44.2712186414605	36.919999999999995	0.0
C 	45.500974714834406	36.209999999999994	0.0
C 	46.730730788208305	36.919999999999995	0.0
C 	47.96048686158221	36.209999999999994	0.0
C 	49.19024293495612	36.919999999999995	0.0
C 	50.41999900833002	36.20999999999999	0.0
C 	51.649755081703915	36.91999999999999	0.0
C 	52.87951115507782	36.209999999999994	0.0
C 	54.10926722845172	36.91999999999999	0.0
C 	55.33902330182563	36.209999999999994	0.0
C 	56.56877937519953	36.919999999999995	0.0
C 	57.79853544857343	36.20999999999999	0.0
C 	59.02829152194733	36.91999999999999	0.0
C 	60.25804759532123	36.20999999999999	0.0
C 	61.48780366869515	36.919999999999995	0.0
C 	62.71755974206904	36.209999999999994	0.0
C 	63.94731581544295	36.919999999999995	0.0
C 	65.17707188881684	36.209999999999994	0.0
C 	66.40682796219075	36.919999999999995	0.0
C 	67.63658403556467	36.209999999999994	0.0
C 	68.86634010893856	36.91999999999999	0.0
C 	70.09609618231246	36.209999999999994	0.0
C 	71.32585225568636	36.91999999999999	0.0
C 	72.55560832906026	36.209999999999994	0.0
C 	73.78536440243417	36.919999999999995	0.0
C 	75.01512047580806	36.20999999999999	0.0
C 	76.24487654918198	36.919999999999995	0.0
C 	77.47463262255586	36.20999999999999	0.0
C 	78.70438869592978	36.919999999999995	0.0
C 	79.93414476930369	36.20999999999999	0.0
C 	81.16390084267759	36.91999999999999	0.0
C 	22.13560932073025	38.33999999999999	0.0
C 	23.365365394104153	39.04999999999999	0.0
C 	24.59512146747806	38.33999999999999	0.0
C 	25.82487754085196	39.04999999999999	0.0
C 	27.05463361422586	38.33999999999999	0.0
C 	28.284389687599763	39.04999999999999	0.0
C 	29.514145760973665	38.33999999999999	0.0
C 	30.74390183434757	39.04999999999999	0.0
C 	31.973657907721474	38.339999999999996	0.0
C 	33.20341398109538	39.04999999999999	0.0
C 	34.43317005446927	38.33999999999999	0.0
C 	35.66292612784318	39.04999999999999	0.0
C 	36.892682201217085	38.33999999999999	0.0
C 	38.12243827459099	39.04999999999999	0.0
C 	39.35219434796489	38.33999999999999	0.0
C 	40.581950421338796	39.04999999999999	0.0
C 	41.811706494712695	38.33999999999999	0.0
C 	43.0414625680866	39.04999999999999	0.0
C 	44.27121864146049	38.33999999999999	0.0
C 	45.5009747148344	39.04999999999999	0.0
C 	46.730730788208305	38.33999999999999	0.0
C 	47.960486861582204	39.04999999999999	0.0
C 	49.19024293495611	38.33999999999999	0.0
C 	50.41999900833002	39.04999999999999	0.0
C 	51.649755081703915	38.33999999999999	0.0
C 	52.879511155077815	39.04999999999999	0.0
C 	54.10926722845173	38.33999999999999	0.0
C 	55.33902330182562	39.04999999999998	0.0
C 	56.568779375199526	38.33999999999999	0.0
C 	57.79853544857343	39.04999999999999	0.0
C 	59.02829152194733	38.33999999999999	0.0
C 	60.25804759532123	39.04999999999999	0.0
C 	61.48780366869513	38.33999999999998	0.0
C 	62.71755974206905	39.04999999999999	0.0
C 	63.94731581544294	38.33999999999999	0.0
C 	65.17707188881685	39.04999999999999	0.0
C 	66.40682796219075	38.33999999999999	0.0
C 	67.63658403556465	39.04999999999999	0.0
C 	68.86634010893856	38.33999999999999	0.0
C 	70.09609618231245	39.04999999999998	0.0
C 	71.32585225568636	38.33999999999999	0.0
C 	72.55560832906025	39.04999999999998	0.0
C 	73.78536440243415	38.33999999999999	0.0
C 	75.01512047580806	39.04999999999999	0.0
C 	76.24487654918197	38.33999999999999	0.0
C 	77.47463262255587	39.05	0.0
C 	78.70438869592977	38.33999999999998	0.0
C 	79.93414476930369	39.04999999999999	0.0
C 	81.16390084267758	38.33999999999998	0.0
C 	82.39365691605148	39.04999999999998	0.0
C 	23.365365394104156	40.46999999999999	0.0
C 	24.59512146747806	41.17999999999999	0.0
C 	25.82487754085196	40.46999999999999	0.0
C 	27.054633614225867	41.17999999999999	0.0
C 	28.284389687599763	40.46999999999999	0.0
C 	29.51414576097367	41.17999999999999	0.0
C 	30.74390183434757	40.46999999999999	0.0
C 	31.973657907721474	41.17999999999999	0.0
C 	33.20341398109537	40.46999999999999	0.0
C 	34.43317005446928	41.17999999999999	0.0
C 	35.66292612784318	40.46999999999999	0.0
C 	36.892682201217085	41.17999999999999	0.0
C 	38.12243827459099	40.46999999999999	0.0
C 	39.3521943479649	41.17999999999999	0.0
C 	40.58195042133879	40.46999999999999	0.0
C 	41.811706494712695	41.17999999999999	0.0
C 	43.0414625680866	40.46999999999999	0.0
C 	44.2712186414605	41.17999999999999	0.0
C 	45.500974714834406	40.46999999999999	0.0
C 	46.73073078820831	41.17999999999999	0.0
C 	47.960486861582204	40.46999999999999	0.0
C 	49.19024293495611	41.17999999999999	0.0
C 	50.41999900833002	40.46999999999999	0.0
C 	51.649755081703915	41.179999999999986	0.0
C 	52.87951115507782	40.46999999999999	0.0
C 	54.10926722845173	41.17999999999999	0.0
C 	55.33902330182563	40.46999999999999	0.0
C 	56.568779375199526	41.17999999999999	0.0
C 	57.798535448573425	40.469999999999985	0.0
C 	59.028291521947345	41.17999999999999	0.0
C 	60.25804759532124	40.46999999999999	0.0
C 	61.48780366869514	41.17999999999999	0.0
C 	62.71755974206904	40.46999999999999	0.0
C 	63.94731581544295	41.17999999999999	0.0
C 	65.17707188881685	40.46999999999999	0.0
C 	66.40682796219075	41.179999999999986	0.0
C 	67.63658403556465	40.46999999999999	0.0
C 	68.86634010893854	41.179999999999986	0.0
C 	70.09609618231246	40.46999999999999	0.0
C 	71.32585225568636	41.17999999999999	0.0
C 	72.55560832906026	40.469999999999985	0.0
C 	73.78536440243417	41.179999999999986	0.0
C 	75.01512047580806	40.469999999999985	0.0
C 	76.24487654918198	41.17999999999999	0.0
C 	77.47463262255587	40.46999999999999	0.0
C 	78.70438869592978	41.17999999999999	0.0
C 	79.93414476930367	40.469999999999985	0.0
C 	81.16390084267758	41.179999999999986	0.0
C 	82.3936569160515	40.46999999999999	0.0
C 	83.62341298942539	41.179999999999986	0.0
C 	24.595121467478055	42.59999999999999	0.0
C 	25.82487754085196	43.30999999999999	0.0
C 	27.05463361422586	42.59999999999999	0.0
C 	28.284389687599766	43.30999999999999	0.0
C 	29.514145760973662	42.59999999999999	0.0
C 	30.743901834347568	43.30999999999999	0.0
C 	31.97365790772147	42.59999999999999	0.0
C 	33.20341398109537	43.30999999999999	0.0
C 	34.43317005446927	42.59999999999999	0.0
C 	35.66292612784318	43.30999999999999	0.0
C 	36.89268220121708	42.59999999999999	0.0
C 	38.122438274590984	43.30999999999999	0.0
C 	39.35219434796489	42.59999999999999	0.0
C 	40.581950421338796	43.30999999999999	0.0
C 	41.81170649471269	42.59999999999999	0.0
C 	43.041462568086594	43.30999999999999	0.0
C 	44.2712186414605	42.59999999999999	0.0
C 	45.5009747148344	43.30999999999999	0.0
C 	46.730730788208305	42.59999999999999	0.0
C 	47.96048686158221	43.30999999999999	0.0
C 	49.19024293495611	42.59999999999999	0.0
C 	50.41999900833001	43.30999999999999	0.0
C 	51.64975508170392	42.599999999999994	0.0
C 	52.879511155077815	43.30999999999999	0.0
C 	54.10926722845172	42.59999999999999	0.0
C 	55.33902330182563	43.30999999999999	0.0
C 	56.568779375199526	42.59999999999999	0.0
C 	57.798535448573425	43.30999999999999	0.0
C 	59.028291521947324	42.59999999999998	0.0
C 	60.258047595321244	43.30999999999999	0.0
C 	61.487803668695136	42.59999999999999	0.0
C 	62.71755974206904	43.30999999999999	0.0
C 	63.94731581544294	42.59999999999999	0.0
C 	65.17707188881684	43.30999999999999	0.0
C 	66.40682796219076	42.599999999999994	0.0
C 	67.63658403556465	43.30999999999999	0.0
C 	68.86634010893856	42.59999999999999	0.0
C 	70.09609618231245	43.30999999999998	0.0
C 	71.32585225568636	42.59999999999999	0.0
C 	72.55560832906026	43.30999999999999	0.0
C 	73.78536440243415	42.59999999999999	0.0
C 	75.01512047580806	43.30999999999999	0.0
C 	76.24487654918197	42.59999999999998	0.0
C 	77.47463262255587	43.30999999999999	0.0
C 	78.70438869592978	42.59999999999999	0.0
C 	79.93414476930367	43.30999999999999	0.0
C 	81.16390084267758	42.59999999999999	0.0
C 	82.39365691605148	43.30999999999999	0.0
C 	83.62341298942539	42.59999999999999	0.0
C 	84.85316906279928	43.30999999999998	0.0
C 	25.82487754085196	44.72999999999999	0.0
C 	27.054633614225864	45.43999999999999	0.0
C 	28.284389687599766	44.72999999999999	0.0
C 	29.514145760973673	45.43999999999999	0.0
C 	30.743901834347568	44.72999999999999	0.0
C 	31.97365790772147	45.43999999999999	0.0
C 	33.20341398109537	44.72999999999999	0.0
C 	34.43317005446928	45.43999999999999	0.0
C 	35.662926127843185	44.72999999999999	0.0
C 	36.892682201217085	45.43999999999999	0.0
C 	38.122438274590984	44.72999999999999	0.0
C 	39.35219434796489	45.43999999999999	0.0
C 	40.581950421338796	44.72999999999999	0.0
C 	41.811706494712695	45.43999999999999	0.0
C 	43.0414625680866	44.72999999999999	0.0
C 	44.27121864146051	45.43999999999999	0.0
C 	45.500974714834406	44.72999999999999	0.0
C 	46.730730788208305	45.43999999999999	0.0
C 	47.960486861582204	44.72999999999999	0.0
C 	49.19024293495611	45.43999999999998	0.0
C 	50.41999900833002	44.72999999999999	0.0
C 	51.64975508170391	45.43999999999998	0.0
C 	52.87951115507782	44.72999999999999	0.0
C 	54.10926722845172	45.43999999999999	0.0
C 	55.33902330182562	44.72999999999998	0.0
C 	56.568779375199526	45.43999999999998	0.0
C 	57.798535448573425	44.72999999999998	0.0
C 	59.02829152194734	45.43999999999999	0.0
C 	60.25804759532124	44.72999999999999	0.0
C 	61.48780366869514	45.43999999999999	0.0
C 	62.717559742069035	44.72999999999998	0.0
C 	63.94731581544294	45.43999999999998	0.0
C 	65.17707188881685	44.72999999999999	0.0
C 	66.40682796219075	45.43999999999998	0.0
C 	67.63658403556465	44.72999999999999	0.0
C 	68.86634010893856	45.43999999999999	0.0
C 	70.09609618231245	44.72999999999999	0.0
C 	71.32585225568636	45.43999999999998	0.0
C 	72.55560832906026	44.72999999999998	0.0
C 	73.78536440243417	45.43999999999999	0.0
C 	75.01512047580806	44.72999999999998	0.0
C 	76.24487654918198	45.43999999999999	0.0
C 	77.47463262255587	44.72999999999999	0.0
C 	78.70438869592978	45.43999999999999	0.0
C 	79.93414476930369	44.72999999999999	0.0
C 	81.16390084267758	45.43999999999998	0.0
C 	82.39365691605148	44.72999999999999	0.0
C 	83.62341298942538	45.43999999999998	0.0
C 	84.8531690627993	44.72999999999998	0.0
C 	86.08292513617319	45.43999999999998	0.0
C 	27.054633614225864	46.85999999999999	0.0
C 	28.28438968759977	47.56999999999999	0.0
C 	29.514145760973673	46.85999999999999	0.0
C 	30.74390183434758	47.56999999999999	0.0
C 	31.973657907721474	46.85999999999999	0.0
C 	33.20341398109538	47.56999999999999	0.0
C 	34.43317005446928	46.85999999999999	0.0
C 	35.662926127843185	47.56999999999999	0.0
C 	36.892682201217085	46.85999999999999	0.0
C 	38.122438274590984	47.56999999999999	0.0
C 	39.35219434796489	46.85999999999999	0.0
C 	40.581950421338796	47.56999999999999	0.0
C 	41.8117064947127	46.85999999999999	0.0
C 	43.0414625680866	47.56999999999999	0.0
C 	44.2712186414605	46.85999999999999	0.0
C 	45.500974714834406	47.56999999999999	0.0
C 	46.73073078820831	46.859999999999985	0.0
C 	47.960486861582204	47.569999999999986	0.0
C 	49.19024293495612	46.85999999999999	0.0
C 	50.41999900833002	47.56999999999999	0.0
C 	51.649755081703915	46.859999999999985	0.0
C 	52.87951115507782	47.569999999999986	0.0
C 	54.10926722845172	46.859999999999985	0.0
C 	55.339023301825634	47.56999999999999	0.0
C 	56.56877937519953	46.85999999999999	0.0
C 	57.79853544857344	47.56999999999999	0.0
C 	59.02829152194733	46.859999999999985	0.0
C 	60.25804759532124	47.569999999999986	0.0
C 	61.48780366869515	46.85999999999999	0.0
C 	62.71755974206904	47.569999999999986	0.0
C 	63.94731581544295	46.85999999999999	0.0
C 	65.17707188881685	47.56999999999999	0.0
C 	66.40682796219075	46.859999999999985	0.0
C 	67.63658403556465	47.569999999999986	0.0
C 	68.86634010893856	46.859999999999985	0.0
C 	70.09609618231246	47.56999999999999	0.0
C 	71.32585225568636	46.859999999999985	0.0
C 	72.55560832906028	47.56999999999999	0.0
C 	73.78536440243417	46.859999999999985	0.0
C 	75.01512047580808	47.569999999999986	0.0
C 	76.24487654918197	46.859999999999985	0.0
C 	77.47463262255587	47.569999999999986	0.0
C 	78.70438869592978	46.85999999999999	0.0
C 	79.93414476930367	47.569999999999986	0.0
C 	81.16390084267758	46.85999999999999	0.0
C 	82.39365691605148	47.56999999999999	0.0
C 	83.62341298942539	46.859999999999985	0.0
C 	84.8531690627993	47.569999999999986	0.0
C 	86.08292513617319	46.85999999999998	0.0
C 	87.31268120954711	47.569999999999986	0.0
C 	28.284389687599763	48.98999999999999	0.0
C 	29.51414576097367	49.69999999999999	0.0
C 	30.74390183434757	48.98999999999999	0.0
C 	31.973657907721478	49.69999999999999	0.0
C 	33.20341398109537	48.98999999999999	0.0
C 	34.43317005446928	49.69999999999999	0.0
C 	35.66292612784318	48.98999999999999	0.0
C 	36.892682201217085	49.69999999999999	0.0
C 	38.122438274590984	48.98999999999999	0.0
C 	39.35219434796488	49.69999999999999	0.0
C 	40.58195042133879	48.98999999999999	0.0
C 	41.811706494712695	49.69999999999999	0.0
C 	43.041462568086594	48.98999999999999	0.0
C 	44.2712186414605	49.69999999999999	0.0
C 	45.5009747148344	48.98999999999999	0.0
C 	46.730730788208305	49.69999999999998	0.0
C 	47.96048686158221	48.98999999999999	0.0
C 	49.1902429349561	49.69999999999998	0.0
C 	50.41999900833002	48.98999999999999	0.0
C 	51.64975508170392	49.69999999999999	0.0
C 	52.879511155077815	48.98999999999999	0.0
C 	54.10926722845172	49.69999999999999	0.0
C 	55.33902330182562	48.98999999999998	0.0
C 	56.56877937519953	49.69999999999999	0.0
C 	57.79853544857343	48.98999999999999	0.0
C 	59.02829152194734	49.69999999999999	0.0
C 	60.25804759532124	48.98999999999999	0.0
C 	61.487803668695136	49.69999999999999	0.0
C 	62.71755974206905	48.98999999999999	0.0
C 	63.94731581544294	49.69999999999998	0.0
C 	65.17707188881685	48.98999999999999	0.0
C 	66.40682796219075	49.69999999999999	0.0
C 	67.63658403556465	48.98999999999999	0.0
C 	68.86634010893856	49.69999999999999	0.0
C 	70.09609618231245	48.98999999999998	0.0
C 	71.32585225568637	49.69999999999999	0.0
C 	72.55560832906025	48.98999999999998	0.0
C 	73.78536440243417	49.69999999999999	0.0
C 	75.01512047580806	48.98999999999999	0.0
C 	76.24487654918197	49.69999999999999	0.0
C 	77.47463262255587	48.98999999999998	0.0
C 	78.70438869592978	49.69999999999998	0.0
C 	79.93414476930369	48.98999999999999	0.0
C 	81.16390084267758	49.69999999999998	0.0
C 	82.39365691605148	48.98999999999999	0.0
C 	83.62341298942539	49.69999999999999	0.0
C 	84.85316906279928	48.98999999999998	0.0
C 	86.08292513617319	49.69999999999998	0.0
C 	87.3126812095471	48.98999999999998	0.0
C 	88.542437282921	49.69999999999999	0.0
C 	29.51414576097367	51.11999999999999	0.0
C 	30.74390183434757	51.82999999999999	0.0
C 	31.973657907721474	51.11999999999999	0.0
C 	33.20341398109538	51.82999999999999	0.0
C 	34.43317005446928	51.11999999999999	0.0
C 	35.66292612784318	51.82999999999999	0.0
C 	36.892682201217085	51.11999999999999	0.0
C 	38.12243827459099	51.82999999999999	0.0
C 	39.35219434796489	51.12	0.0
C 	40.581950421338796	51.83	0.0
C 	41.811706494712695	51.11999999999999	0.0
C 	43.041462568086594	51.82999999999999	0.0
C 	44.2712186414605	51.12	0.0
C 	45.5009747148344	51.82999999999999	0.0
C 	46.73073078820831	51.11999999999999	0.0
C 	47.96048686158221	51.82999999999999	0.0
C 	49.19024293495611	51.11999999999999	0.0
C 	50.41999900833002	51.82999999999999	0.0
C 	51.649755081703915	51.11999999999998	0.0
C 	52.879511155077815	51.829999999999984	0.0
C 	54.10926722845171	51.11999999999999	0.0
C 	55.33902330182563	51.83	0.0
C 	56.568779375199526	51.11999999999999	0.0
C 	57.79853544857343	51.82999999999999	0.0
C 	59.02829152194733	51.11999999999999	0.0
C 	60.25804759532124	51.82999999999999	0.0
C 	61.48780366869514	51.11999999999999	0.0
C 	62.717559742069035	51.829999999999984	0.0
C 	63.94731581544295	51.11999999999999	0.0
C 	65.17707188881685	51.82999999999999	0.0
C 	66.40682796219075	51.11999999999999	0.0
C 	67.63658403556465	51.82999999999999	0.0
C 	68.86634010893854	51.11999999999998	0.0
C 	70.09609618231246	51.82999999999999	0.0
C 	71.32585225568636	51.11999999999999	0.0
C 	72.55560832906026	51.82999999999999	0.0
C 	73.78536440243417	51.11999999999999	0.0
C 	75.01512047580806	51.82999999999999	0.0
C 	76.24487654918198	51.11999999999999	0.0
C 	77.47463262255587	51.829999999999984	0.0
C 	78.70438869592978	51.11999999999999	0.0
C 	79.93414476930367	51.829999999999984	0.0
C 	81.16390084267758	51.11999999999999	0.0
C 	82.39365691605148	51.82999999999999	0.0
C 	83.62341298942538	51.11999999999998	0.0
C 	84.8531690627993	51.82999999999999	0.0
C 	86.08292513617319	51.11999999999998	0.0
C 	87.3126812095471	51.82999999999999	0.0
C 	88.542437282921	51.11999999999998	0.0
C 	89.7721933562949	51.829999999999984	0.0
C 	52.53151045861204	-0.9444622473842458	2.15
C 	53.936277171419476	-0.7370243468256216	2.15
C 	54.45901403623172	0.583258263135697	2.15
C 	50.24471389780939	-0.0390554385401823	2.15
C 	51.649480610616834	0.1683824620184452	2.15
C 	52.17221747542907	1.4886650719797605	2.15
C 	53.57698418823653	1.6961029725383878	2.15
C 	54.09972105304877	3.0163855824997032	2.15
C 	55.504487765856204	3.223823483058324	2.15
C 	56.02722463066844	4.544106093019639	2.15
C 	57.43199134347589	4.75154399357827	2.15
C 	57.95472820828813	6.071826603539585	2.15
C 	46.03041375938706	-0.6613691402160536	2.15
C 	47.4351804721945	-0.45393123965742765	2.15
C 	47.95791733700675	0.8663513703038909	2.15
C 	49.362684049814185	1.073789270862512	2.15
C 	49.88542091462642	2.3940718808238306	2.15
C 	51.29018762743387	2.601509781382455	2.15
C 	51.81292449224612	3.9217923913437733	2.15
C 	53.21769120505356	4.129230291902397	2.15
C 	53.74042806986581	5.449512901863716	2.15
C 	55.14519478267325	5.656950802422333	2.15
C 	55.667931647485496	6.977233412383652	2.15
C 	57.07269836029293	7.18467131294228	2.15
C 	57.59543522510518	8.504953922903598	2.15
C 	59.00020193791262	8.712391823462223	2.15
C 	59.52293880272486	10.03267443342354	2.15
C 	43.74361719858441	0.24403766862801826	2.15
C 	45.14838391139185	0.45147556918664244	2.15
C 	45.6711207762041	1.7717581791479609	2.15
C 	47.07588748901155	1.9791960797065833	2.15
C 	47.598624353823794	3.299478689667902	2.15
C 	49.00339106663123	3.5069165902265214	2.15
C 	49.526127931443476	4.82719920018784	2.15
C 	50.93089464425092	5.034637100746464	2.15
C 	51.453631509063165	6.354919710707782	2.15
C 	52.85839822187061	6.56235761126641	2.15
C 	53.381135086682846	7.882640221227729	2.15
C 	54.78590179949029	8.090078121786346	2.15
C 	55.308638664302535	9.410360731747664	2.15
C 	56.71340537710998	9.617798632306293	2.15
C 	57.23614224192222	10.93808124226761	2.15
C 	58.64090895472966	11.145519142826231	2.15
C 	59.163645819541905	12.46580175278755	2.15
C 	60.56841253234935	12.67323965334617	2.15
C 	61.09114939716159	13.99352226330749	2.15
C 	62.49591610996904	14.200960163866114	2.15
C 	63.01865297478128	15.521242773827433	2.15
C 	39.529317060162086	-0.37827603304785967	2.15
C 	40.93408377296954	-0.17083813248923216	2.15
C 	41.456820637781775	1.1494444774720831	2.15
C 	42.86158735058921	1.3568823780307075	2.15
C 	43.384324215401456	2.6771649879920227	2.15
C 	44.7890909282089	2.884602888550652	2.15
C 	45.31182779302114	4.204885498511967	2.15
C 	46.71659450582859	4.412323399070595	2.15
C 	47.239331370640826	5.73260600903191	2.15
C 	48.64409808344828	5.940043909590529	2.15
C 	49.166834948260515	7.260326519551844	2.15
C 	50.57160166106797	7.467764420110473	2.15
C 	51.09433852588021	8.78804703007179	2.15
C 	52.49910523868765	8.995484930630417	2.15
C 	53.02184210349989	10.31576754059173	2.15
C 	54.426608816307336	10.523205441150356	2.15
C 	54.949345681119574	11.84348805111167	2.15
C 	56.35411239392702	12.0509259516703	2.15
C 	56.87684925873926	13.371208561631613	2.15
C 	58.281615971546714	13.578646462190237	2.15
C 	58.80435283635895	14.898929072151557	2.15
C 	60.20911954916639	15.106366972710177	2.15
C 	60.73185641397863	16.426649582671494	2.15
C 	62.13662312678608	16.634087483230125	2.15
C 	62.659359991598315	17.95437009319144	2.15
C 	64.06412670440577	18.161807993750063	2.15
C 	64.58686356921801	19.48209060371138	2.15
C 	65.99163028202545	19.689528504269997	2.15
C 	66.5143671468377	21.00981111423132	2.15
C 	37.24252049935944	0.5271307757962153	2.15
C 	38.64728721216689	0.7345686763548364	2.15
C 	39.170024076979125	2.054851286316155	2.15
C 	40.57479078978657	2.2622891868747774	2.15
C 	41.097527654598814	3.582571796836096	2.15
C 	42.50229436740626	3.790009697394717	2.15
C 	43.025031232218495	5.110292307356035	2.15
C 	44.42979794502594	5.31773020791466	2.15
C 	44.952534809838184	6.638012817875978	2.15
C 	46.35730152264563	6.845450718434604	2.15
C 	46.88003838745787	8.165733328395923	2.15
C 	48.28480510026531	8.37317122895454	2.15
C 	48.807541965077554	9.69345383891586	2.15
C 	50.212308677885005	9.900891739474481	2.15
C 	50.73504554269725	11.221174349435799	2.15
C 	52.139812255504694	11.428612249994426	2.15
C 	52.66254912031693	12.748894859955744	2.15
C 	54.067315833124376	12.956332760514362	2.15
C 	54.59005269793662	14.27661537047568	2.15
C 	55.994819410744064	14.484053271034307	2.15
C 	56.5175562755563	15.804335880995627	2.15
C 	57.922322988363746	16.01177378155425	2.15
C 	58.44505985317599	17.332056391515568	2.15
C 	59.849826565983435	17.539494292074192	2.15
C 	60.37256343079567	18.85977690203551	2.15
C 	61.777330143603116	19.06721480259413	2.15
C 	62.30006700841536	20.387497412555447	2.15
C 	63.704833721222805	20.594935313114075	2.15
C 	64.22757058603504	21.915217923075396	2.15
C 	65.6323372988425	22.122655823634013	2.15
C 	66.15507416365475	23.44293843359533	2.15
C 	67.55984087646218	23.650376334153947	2.15
C 	68.08257774127442	24.970658944115268	2.15
C 	33.02822036093711	-0.09518292587965582	2.15
C 	34.432987073744556	0.11225497467896509	2.15
C 	34.9557239385568	1.4325375846402837	2.15
C 	36.360490651364245	1.6399754851989095	2.15
C 	36.88322751617648	2.960258095160228	2.15
C 	38.287994228983926	3.1676959957188457	2.15
C 	38.81073109379617	4.487978605680164	2.15
C 	40.215497806603615	4.695416506238792	2.15
C 	40.73823467141586	6.0156991162001106	2.15
C 	42.1430013842233	6.223137016758726	2.15
C 	42.66573824903554	7.543419626720045	2.15
C 	44.070504961842985	7.750857527278672	2.15
C 	44.59324182665523	9.071140137239992	2.15
C 	45.998008539462674	9.278578037798615	2.15
C 	46.52074540427491	10.598860647759933	2.15
C 	47.925512117082356	10.806298548318553	2.15
C 	48.4482489818946	12.12658115827987	2.15
C 	49.853015694702044	12.334019058838496	2.15
C 	50.37575255951428	13.654301668799814	2.15
C 	51.78051927232173	13.861739569358436	2.15
C 	52.30325613713398	15.182022179319755	2.15
C 	53.70802284994142	15.389460079878374	2.15
C 	54.23075971475366	16.709742689839693	2.15
C 	55.635526427561096	16.91718059039832	2.15
C 	56.15826329237334	18.237463200359638	2.15
C 	57.56303000518079	18.444901100918262	2.15
C 	58.08576686999304	19.765183710879583	2.15
C 	59.49053358280047	19.972621611438203	2.15
C 	60.01327044761271	21.29290422139952	2.15
C 	61.41803716042016	21.500342121958145	2.15
C 	61.94077402523241	22.820624731919466	2.15
C 	63.34554073803985	23.02806263247809	2.15
C 	63.868277602852096	24.348345242439407	2.15
C 	65.27304431565953	24.555783142998024	2.15
C 	65.79578118047178	25.87606575295934	2.15
C 	67.20054789327922	26.083503653517962	2.15
C 	67.72328475809147	27.40378626347928	2.15
C 	69.12805147089891	27.611224164037914	2.15
C 	69.65078833571116	28.93150677399923	2.15
C 	71.0555550485186	29.138944674557848	2.15
C 	71.57829191333084	30.45922728451917	2.15
C 	28.813920222514785	-0.7174966275555352	2.15
C 	30.218686935322225	-0.510058726996906	2.15
C 	30.741423800134466	0.8102238829644092	2.15
C 	32.146190512941914	1.0176617835230335	2.15
C 	32.66892737775415	2.3379443934843485	2.15
C 	34.073694090561595	2.5453822940429744	2.15
C 	34.59643095537384	3.86566490400429	2.15
C 	36.00119766818129	4.073102804562917	2.15
C 	36.52393453299353	5.393385414524232	2.15
C 	37.928701245800966	5.600823315082855	2.15
C 	38.45143811061321	6.92110592504417	2.15
C 	39.85620482342066	7.128543825602798	2.15
C 	40.3789416882329	8.448826435564113	2.15
C 	41.78370840104034	8.656264336122737	2.15
C 	42.30644526585258	9.976546946084053	2.15
C 	43.71121197866003	10.183984846642678	2.15
C 	44.23394884347227	11.504267456603994	2.15
C 	45.63871555627971	11.711705357162625	2.15
C 	46.16145242109196	13.03198796712394	2.15
C 	47.5662191338994	13.239425867682561	2.15
C 	48.08895599871164	14.559708477643875	2.15
C 	49.49372271151909	14.767146378202503	2.15
C 	50.016459576331336	16.08742898816382	2.15
C 	51.42122628913877	16.294866888722446	2.15
C 	51.94396315395101	17.615149498683763	2.15
C 	53.34872986675846	17.82258739924238	2.15
C 	53.871466731570706	19.142870009203698	2.15
C 	55.27623344437815	19.35030790976233	2.15
C 	55.79897030919039	20.670590519723643	2.15
C 	57.20373702199783	20.878028420282266	2.15
C 	57.726473886810076	22.198311030243584	2.15
C 	59.13124059961752	22.405748930802204	2.15
C 	59.65397746442976	23.726031540763525	2.15
C 	61.05874417723721	23.933469441322156	2.15
C 	61.58148104204945	25.253752051283467	2.15
C 	62.98624775485689	25.461189951842094	2.15
C 	63.508984619669135	26.78147256180341	2.15
C 	64.91375133247658	26.98891046236203	2.15
C 	65.43648819728882	28.309193072323346	2.15
C 	66.84125491009627	28.516630972881963	2.15
C 	67.36399177490851	29.83691358284328	2.15
C 	68.76875848771596	30.044351483401915	2.15
C 	69.2914953525282	31.364634093363236	2.15
C 	70.69626206533565	31.572071993921853	2.15
C 	71.21899893014788	32.89235460388317	2.15
C 	72.62376564295532	33.099792504441794	2.15
C 	73.14650250776756	34.42007511440311	2.15
C 	74.55126922057501	34.627513014961735	2.15
C 	75.07400608538725	35.94779562492305	2.15
C 	26.527123661712142	0.1879101812885347	2.15
C 	27.93189037451958	0.395348081847159	2.15
C 	28.454627239331824	1.7156306918084758	2.15
C 	29.85939395213927	1.9230685923671018	2.15
C 	30.382130816951513	3.2433512023284186	2.15
C 	31.786897529758953	3.4507891028870428	2.15
C 	32.30963439457119	4.771071712848358	2.15
C 	33.71440110737864	4.978509613406982	2.15
C 	34.23713797219089	6.2987922233683005	2.15
C 	35.64190468499833	6.506230123926927	2.15
C 	36.16464154981057	7.826512733888245	2.15
C 	37.56940826261801	8.033950634446862	2.15
C 	38.09214512743026	9.354233244408181	2.15
C 	39.4969118402377	9.561671144966807	2.15
C 	40.01964870504994	10.881953754928126	2.15
C 	41.42441541785738	11.089391655486743	2.15
C 	41.94715228266963	12.409674265448063	2.15
C 	43.35191899547707	12.61711216600669	2.15
C 	43.874655860289316	13.937394775968007	2.15
C 	45.27942257309676	14.144832676526631	2.15
C 	45.802159437909	15.465115286487949	2.15
C 	47.20692615071644	15.67255318704657	2.15
C 	47.729663015528686	16.99283579700789	2.15
C 	49.13442972833613	17.200273697566512	2.15
C 	49.65716659314837	18.52055630752783	2.15
C 	51.06193330595582	18.727994208086454	2.15
C 	51.584670170768064	20.04827681804777	2.15
C 	52.9894368835755	20.255714718606395	2.15
C 	53.51217374838774	21.575997328567713	2.15
C 	54.91694046119518	21.783435229126336	2.15
C 	55.43967732600743	23.103717839087658	2.15
C 	56.84444403881488	23.311155739646278	2.15
C 	57.36718090362712	24.6314383496076	2.15
C 	58.77194761643455	24.83887625016622	2.15
C 	59.2946844812468	26.159158860127537	2.15
C 	60.69945119405425	26.36659676068616	2.15
C 	61.22218805886649	27.68687937064748	2.15
C 	62.62695477167393	27.89431727120611	2.15
C 	63.149691636486175	29.214599881167427	2.15
C 	64.55445834929363	29.422037781726043	2.15
C 	65.07719521410586	30.74232039168736	2.15
C 	66.4819619269133	30.949758292245978	2.15
C 	67.00469879172554	32.27004090220729	2.15
C 	68.40946550453299	32.47747880276593	2.15
C 	68.93220236934523	33.79776141272725	2.15
C 	70.33696908215268	34.005199313285864	2.15
C 	70.85970594696492	35.32548192324718	2.15
C 	72.26447265977237	35.532919823805805	2.15
C 	72.7872095245846	36.85320243376712	2.15
C 	74.19197623739205	37.060640334325754	2.15
C 	74.7147131022043	38.38092294428707	2.15
C 	76.11947981501173	38.58836084484569	2.15
C 	76.64221667982397	39.908643454807	2.15
C 	78.04698339263143	40.11608135536563	2.15
C 	78.56972025744366	41.43636396532694	2.15
C 	22.312823523289804	-0.43440352038733965	2.15
C 	23.71759023609725	-0.22696561982871383	2.15
C 	24.240327100909496	1.093316990132603	2.15
C 	25.645093813716937	1.3007548906912274	2.15
C 	26.16783067852918	2.621037500652544	2.15
C 	27.572597391336625	2.8284754012111666	2.15
C 	28.09533425614887	4.148758011172483	2.15
C 	29.50010096895631	4.3561959117311115	2.15
C 	30.022837833768552	5.6764785216924265	2.15
C 	31.427604546576	5.88391642225105	2.15
C 	31.95034141138824	7.204199032212369	2.15
C 	33.35510812419568	7.411636932770992	2.15
C 	33.87784498900792	8.731919542732307	2.15
C 	35.28261170181537	8.939357443290934	2.15
C 	35.805348566627615	10.25964005325225	2.15
C 	37.21011527943505	10.467077953810872	2.15
C 	37.732852144247296	11.787360563772188	2.15
C 	39.13761885705475	11.994798464330815	2.15
C 	39.660355721866985	13.31508107429213	2.15
C 	41.06512243467442	13.522518974850753	2.15
C 	41.58785929948667	14.842801584812069	2.15
C 	42.99262601229412	15.050239485370696	2.15
C 	43.515362877106355	16.37052209533201	2.15
C 	44.9201295899138	16.57795999589064	2.15
C 	45.442866454726044	17.89824260585196	2.15
C 	46.84763316753349	18.10568050641058	2.15
C 	47.370370032345726	19.425963116371893	2.15
C 	48.775136745153176	19.633401016930517	2.15
C 	49.29787360996542	20.953683626891834	2.15
C 	50.70264032277286	21.16112152745047	2.15
C 	51.225377187585096	22.48140413741178	2.15
C 	52.63014390039255	22.688842037970403	2.15
C 	53.15288076520479	24.009124647931714	2.15
C 	54.55764747801223	24.21656254849034	2.15
C 	55.080384342824466	25.536845158451662	2.15
C 	56.485151055631924	25.74428305901029	2.15
C 	57.00788792044416	27.064565668971603	2.15
C 	58.412654633251606	27.272003569530227	2.15
C 	58.935391498063844	28.59228617949154	2.15
C 	60.34015821087129	28.799724080050165	2.15
C 	60.86289507568353	30.120006690011483	2.15
C 	62.267661788490976	30.327444590570117	2.15
C 	62.79039865330322	31.647727200531428	2.15
C 	64.19516536611066	31.85516510109005	2.15
C 	64.7179022309229	33.17544771105136	2.15
C 	66.12266894373036	33.382885611609986	2.15
C 	66.64540580854259	34.7031682215713	2.15
C 	68.05017252135004	34.91060612212994	2.15
C 	68.57290938616228	36.23088873209125	2.15
C 	69.97767609896972	36.438326632649876	2.15
C 	70.50041296378197	37.758609242611186	2.15
C 	71.90517967658941	37.96604714316982	2.15
C 	72.42791654140166	39.28632975313113	2.15
C 	73.8326832542091	39.493767653689765	2.15
C 	74.35542011902135	40.81405026365108	2.15
C 	75.76018683182879	41.0214881642097	2.15
C 	76.28292369664102	42.341770774171025	2.15
C 	77.68769040944846	42.549208674729634	2.15
C 	78.21042727426071	43.86949128469095	2.15
C 	20.026026962487165	0.4710032884567294	2.15
C 	21.430793675294606	0.6784411890153538	2.15
C 	21.95353054010685	1.9987237989766706	2.15
C 	23.358297252914294	2.2061616995352975	2.15
C 	23.881034117726536	3.5264443094966142	2.15
C 	25.285800830533987	3.7338822100552367	2.15
C 	25.808537695346228	5.054164820016553	2.15
C 	27.213304408153668	5.261602720575178	2.15
C 	27.73604127296591	6.581885330536495	2.15
C 	29.140807985773357	6.789323231095119	2.15
C 	29.6635448505856	8.109605841056437	2.15
C 	31.06831156339304	8.317043741615063	2.15
C 	31.59104842820528	9.637326351576379	2.15
C 	32.99581514101273	9.844764252134999	2.15
C 	33.51855200582497	11.165046862096318	2.15
C 	34.92331871863241	11.372484762654944	2.15
C 	35.446055583444654	12.692767372616263	2.15
C 	36.8508222962521	12.90020527317488	2.15
C 	37.37355916106434	14.2204878831362	2.15
C 	38.778325873871786	14.427925783694825	2.15
C 	39.301062738684024	15.748208393656142	2.15
C 	40.70582945149147	15.95564629421476	2.15
C 	41.22856631630371	17.27592890417608	2.15
C 	42.63333302911116	17.483366804734704	2.15
C 	43.156069893923394	18.803649414696025	2.15
C 	44.560836606730845	19.01108731525465	2.15
C 	45.08357347154308	20.331369925215967	2.15
C 	46.48834018435053	20.538807825774587	2.15
C 	47.01107704916277	21.859090435735904	2.15
C 	48.415843761970216	22.066528336294528	2.15
C 	48.93858062678245	23.386810946255846	2.15
C 	50.343347339589904	23.59424884681447	2.15
C 	50.86608420440215	24.91453145677579	2.15
C 	52.270850917209586	25.12196935733441	2.15
C 	52.793587782021824	26.44225196729573	2.15
C 	54.19835449482927	26.649689867854356	2.15
C 	54.72109135964151	27.969972477815674	2.15
C 	56.125858072448956	28.177410378374297	2.15
C 	56.6485949372612	29.497692988335615	2.15
C 	58.05336165006864	29.705130888894235	2.15
C 	58.57609851488088	31.025413498855553	2.15
C 	59.980865227688334	31.232851399414177	2.15
C 	60.50360209250058	32.5531340093755	2.15
C 	61.908368805308015	32.76057190993412	2.15
C 	62.43110567012026	34.08085451989544	2.15
C 	63.835872382927704	34.288292420454056	2.15
C 	64.35860924773995	35.60857503041538	2.15
C 	65.76337596054739	35.816012930974	2.15
C 	66.28611282535964	37.136295540935315	2.15
C 	67.69087953816708	37.343733441493946	2.15
C 	68.21361640297933	38.66401605145526	2.15
C 	69.61838311578676	38.87145395201388	2.15
C 	70.141119980599	40.1917365619752	2.15
C 	71.54588669340644	40.39917446253382	2.15
C 	72.06862355821869	41.71945707249514	2.15
C 	73.47339027102615	41.92689497305377	2.15
C 	73.99612713583838	43.24717758301509	2.15
C 	75.40089384864582	43.45461548357371	2.15
C 	75.92363071345807	44.77489809353503	2.15
C 	77.32839742626551	44.982335994093646	2.15
C 	15.811726824064836	-0.1513104132191409	2.15
C 	17.216493536872278	0.05612748733948254	2.15
C 	17.739230401684523	1.3764100973007993	2.15
C 	19.143997114491963	1.5838479978594229	2.15
C 	19.666733979304208	2.90413060782074	2.15
C 	21.07150069211165	3.111568508379363	2.15
C 	21.594237556923893	4.43185111834068	2.15
C 	22.999004269731337	4.639289018899308	2.15
C 	23.52174113454358	5.959571628860624	2.15
C 	24.926507847351022	6.167009529419248	2.15
C 	25.449244712163264	7.487292139380563	2.15
C 	26.85401142497071	7.694730039939187	2.15
C 	27.376748289782952	9.015012649900505	2.15
C 	28.781515002590396	9.222450550459131	2.15
C 	29.30425186740264	10.54273316042045	2.15
C 	30.70901858021008	10.750171060979072	2.15
C 	31.231755445022323	12.070453670940388	2.15
C 	32.636522157829766	12.277891571499012	2.15
C 	33.15925902264201	13.598174181460331	2.15
C 	34.564025735449455	13.805612082018957	2.15
C 	35.08676260026169	15.125894691980275	2.15
C 	36.49152931306914	15.333332592538893	2.15
C 	37.01426617788138	16.653615202500212	2.15
C 	38.419032890688825	16.861053103058836	2.15
C 	38.94176975550107	18.181335713020157	2.15
C 	40.346536468308514	18.388773613578774	2.15
C 	40.86927333312075	19.70905622354009	2.15
C 	42.274040045928196	19.91649412409872	2.15
C 	42.79677691074044	21.236776734060037	2.15
C 	44.201543623547884	21.44421463461866	2.15
C 	44.72428048836013	22.764497244579978	2.15
C 	46.12904720116757	22.9719351451386	2.15
C 	46.65178406597981	24.292217755099916	2.15
C 	48.05655077878726	24.49965565565854	2.15
C 	48.57928764359951	25.819938265619857	2.15
C 	49.98405435640694	26.027376166178485	2.15
C 	50.50679122121919	27.347658776139802	2.15
C 	51.91155793402663	27.55509667669842	2.15
C 	52.43429479883888	28.87537928665974	2.15
C 	53.839061511646314	29.082817187218367	2.15
C 	54.36179837645856	30.403099797179685	2.15
C 	55.76656508926601	30.61053769773831	2.15
C 	56.289301954078255	31.930820307699626	2.15
C 	57.694068666885684	32.13825820825825	2.15
C 	58.21680553169793	33.45854081821957	2.15
C 	59.62157224450538	33.665978718778184	2.15
C 	60.144309109317625	34.98626132873951	2.15
C 	61.54907582212506	35.19369922929813	2.15
C 	62.07181268693731	36.51398183925945	2.15
C 	63.47657939974475	36.72141973981807	2.15
C 	63.999316264556995	38.041702349779385	2.15
C 	65.40408297736444	38.249140250338	2.15
C 	65.92681984217668	39.569422860299326	2.15
C 	67.33158655498413	39.77686076085796	2.15
C 	67.85432341979636	41.097143370819275	2.15
C 	69.25909013260382	41.30458127137789	2.15
C 	69.78182699741605	42.6248638813392	2.15
C 	71.18659371022349	42.83230178189783	2.15
C 	71.70933057503574	44.15258439185914	2.15
C 	73.11409728784318	44.360022292417774	2.15
C 	73.63683415265542	45.68030490237909	2.15
C 	75.04160086546287	45.88774280293771	2.15
C 	11.597426685642505	-0.7736241148950161	2.15
C 	13.002193398449949	-0.566186214336391	2.15
C 	13.524930263262192	0.7540963956249258	2.15
C 	14.929696976069636	0.9615342961835509	2.15
C 	15.452433840881877	2.2818169061448677	2.15
C 	16.85720055368932	2.489254806703491	2.15
C 	17.379937418501562	3.809537416664808	2.15
C 	18.784704131309006	4.016975317223431	2.15
C 	19.30744099612125	5.337257927184749	2.15
C 	20.71220770892869	5.5446958277433716	2.15
C 	21.234944573740936	6.864978437704688	2.15
C 	22.63971128654838	7.072416338263316	2.15
C 	23.16244815136062	8.39269894822463	2.15
C 	24.567214864168065	8.600136848783256	2.15
C 	25.089951728980306	9.920419458744576	2.15
C 	26.49471844178775	10.127857359303198	2.15
C 	27.01745530659999	11.448139969264512	2.15
C 	28.42222201940744	11.655577869823139	2.15
C 	28.94495888421968	12.975860479784455	2.15
C 	30.349725597027124	13.18329838034308	2.15
C 	30.87246246183937	14.5035809903044	2.15
C 	32.27722917464681	14.711018890863022	2.15
C 	32.79996603945905	16.031301500824338	2.15
C 	34.204732752266494	16.238739401382965	2.15
C 	34.72746961707874	17.55902201134428	2.15
C 	36.13223632988618	17.766459911902903	2.15
C 	36.65497319469842	19.086742521864217	2.15
C 	38.059739907505865	19.294180422422844	2.15
C 	38.58247677231811	20.614463032384162	2.15
C 	39.98724348512555	20.821900932942786	2.15
C 	40.5099803499378	22.1421835429041	2.15
C 	41.91474706274524	22.349621443462723	2.15
C 	42.43748392755748	23.66990405342404	2.15
C 	43.84225064036493	23.877341953982672	2.15
C 	44.36498750517717	25.197624563943986	2.15
C 	45.76975421798461	25.40506246450261	2.15
C 	46.29249108279685	26.72534507446392	2.15
C 	47.6972577956043	26.932782975022544	2.15
C 	48.21999466041654	28.253065584983865	2.15
C 	49.624761373224	28.460503485542496	2.15
C 	50.147498238036235	29.780786095503807	2.15
C 	51.55226495084367	29.988223996062434	2.15
C 	52.07500181565591	31.308506606023744	2.15
C 	53.47976852846335	31.515944506582372	2.15
C 	54.0025053932756	32.83622711654369	2.15
C 	55.40727210608304	33.04366501710232	2.15
C 	55.93000897089529	34.36394762706363	2.15
C 	57.33477568370273	34.57138552762226	2.15
C 	57.85751254851497	35.89166813758357	2.15
C 	59.26227926132241	36.099106038142196	2.15
C 	59.78501612613466	37.419388648103514	2.15
C 	61.1897828389421	37.626826548662144	2.15
C 	61.712519703754346	38.94710915862346	2.15
C 	63.11728641656179	39.15454705918208	2.15
C 	63.640023281374035	40.474829669143396	2.15
C 	65.04478999418147	40.68226756970202	2.15
C 	65.56752685899372	42.00255017966333	2.15
C 	66.97229357180116	42.20998808022197	2.15
C 	67.4950304366134	43.530270690183286	2.15
C 	68.89979714942085	43.7377085907419	2.15
C 	69.4225340142331	45.05799120070323	2.15
C 	70.82730072704054	45.265429101261844	2.15
C 	71.35003759185278	46.58571171122316	2.15
C 	72.75480430466023	46.79314961178179	2.15
C 	9.31063012483986	0.13178269394905298	2.15
C 	10.715396837647303	0.3392205945076769	2.15
C 	11.238133702459546	1.6595032044689937	2.15
C 	12.642900415266993	1.8669411050276183	2.15
C 	13.165637280079235	3.187223714988935	2.15
C 	14.570403992886678	3.3946616155475593	2.15
C 	15.093140857698922	4.714944225508878	2.15
C 	16.497907570506364	4.922382126067499	2.15
C 	17.020644435318605	6.242664736028818	2.15
C 	18.42541114812605	6.45010263658744	2.15
C 	18.94814801293829	7.770385246548758	2.15
C 	20.352914725745734	7.97782314710738	2.15
C 	20.87565159055798	9.298105757068699	2.15
C 	22.280418303365423	9.505543657627324	2.15
C 	22.803155168177664	10.825826267588642	2.15
C 	24.207921880985108	11.033264168147264	2.15
C 	24.73065874579735	12.353546778108583	2.15
C 	26.135425458604793	12.560984678667205	2.15
C 	26.658162323417034	13.881267288628523	2.15
C 	28.062929036224478	14.088705189187149	2.15
C 	28.585665901036723	15.408987799148468	2.15
C 	29.990432613844167	15.616425699707088	2.15
C 	30.513169478656412	16.936708309668408	2.15
C 	31.917936191463852	17.144146210227028	2.15
C 	32.4406730562761	18.46442882018835	2.15
C 	33.84543976908354	18.671866720746973	2.15
C 	34.36817663389578	19.992149330708294	2.15
C 	35.77294334670322	20.19958723126691	2.15
C 	36.29568021151547	21.51986984122823	2.15
C 	37.70044692432291	21.727307741786856	2.15
C 	38.22318378913515	23.047590351748173	2.15
C 	39.62795050194259	23.25502825230679	2.15
C 	40.15068736675484	24.575310862268108	2.15
C 	41.55545407956228	24.782748762826735	2.15
C 	42.078190944374526	26.103031372788053	2.15
C 	43.48295765718197	26.310469273346676	2.15
C 	44.005694521994215	27.630751883307997	2.15
C 	45.41046123480165	27.838189783866614	2.15
C 	45.9331980996139	29.158472393827935	2.15
C 	47.33796481242135	29.365910294386556	2.15
C 	47.86070167723359	30.686192904347877	2.15
C 	49.26546839004103	30.8936308049065	2.15
C 	49.788205254853274	32.21391341486782	2.15
C 	51.19297196766072	32.421351315426435	2.15
C 	51.71570883247296	33.74163392538775	2.15
C 	53.1204755452804	33.94907182594638	2.15
C 	53.643212410092644	35.2693544359077	2.15
C 	55.047979122900095	35.476792336466325	2.15
C 	55.57071598771234	36.79707494642764	2.15
C 	56.97548270051977	37.004512846986266	2.15
C 	57.498219565332015	38.324795456947584	2.15
C 	58.902986278139466	38.53223335750621	2.15
C 	59.42572314295171	39.852515967467525	2.15
C 	60.83048985575914	40.05995386802615	2.15
C 	61.353226720571385	41.38023647798747	2.15
C 	62.757993433378836	41.58767437854608	2.15
C 	63.28073029819108	42.9079569885074	2.15
C 	64.68549701099853	43.115394889066025	2.15
C 	65.20823387581076	44.43567749902734	2.15
C 	66.6130005886182	44.64311539958597	2.15
C 	67.13573745343045	45.96339800954729	2.15
C 	68.5405041662379	46.17083591010591	2.15
C 	5.096329986417531	-0.49053100772681957	2.15
C 	6.501096699224974	-0.2830931071681955	2.15
C 	7.023833564037218	1.0371895027931213	2.15
C 	8.42860027684466	1.2446274033517455	2.15
C 	8.951337141656904	2.5649100133130625	2.15
C 	10.356103854464346	2.7723479138716858	2.15
C 	10.878840719276589	4.0926305238330025	2.15
C 	12.283607432084032	4.300068424391628	2.15
C 	12.806344296896274	5.620351034352945	2.15
C 	14.21111100970372	5.8277889349115695	2.15
C 	14.733847874515963	7.148071544872886	2.15
C 	16.138614587323406	7.355509445431511	2.15
C 	16.661351452135648	8.675792055392828	2.15
C 	18.06611816494309	8.883229955951451	2.15
C 	18.588855029755333	10.203512565912767	2.15
C 	19.993621742562777	10.410950466471393	2.15
C 	20.516358607375018	11.731233076432709	2.15
C 	21.921125320182465	11.938670976991336	2.15
C 	22.443862184994707	13.258953586952652	2.15
C 	23.84862889780215	13.466391487511272	2.15
C 	24.371365762614392	14.786674097472591	2.15
C 	25.776132475421836	14.994111998031217	2.15
C 	26.298869340234077	16.314394607992533	2.15
C 	27.70363605304152	16.52183250855116	2.15
C 	28.226372917853766	17.842115118512478	2.15
C 	29.631139630661206	18.049553019071098	2.15
C 	30.15387649547345	19.369835629032416	2.15
C 	31.558643208280895	19.57727352959104	2.15
C 	32.081380073093136	20.897556139552357	2.15
C 	33.48614678590058	21.104994040110984	2.15
C 	34.008883650712825	22.425276650072302	2.15
C 	35.41365036352027	22.632714550630922	2.15
C 	35.93638722833251	23.95299716059224	2.15
C 	37.34115394113995	24.160435061150867	2.15
C 	37.863890805952195	25.480717671112178	2.15
C 	39.26865751875964	25.688155571670805	2.15
C 	39.79139438357188	27.008438181632116	2.15
C 	41.19616109637932	27.215876082190746	2.15
C 	41.718897961191566	28.536158692152064	2.15
C 	43.123664673999016	28.74359659271069	2.15
C 	43.646401538811254	30.063879202672002	2.15
C 	45.0511682516187	30.271317103230626	2.15
C 	45.573905116430936	31.59159971319194	2.15
C 	46.97867182923839	31.79903761375057	2.15
C 	47.50140869405063	33.11932022371189	2.15
C 	48.906175406858075	33.32675812427051	2.15
C 	49.42891227167032	34.64704073423182	2.15
C 	50.83367898447776	34.85447863479045	2.15
C 	51.356415849289995	36.174761244751764	2.15
C 	52.761182562097446	36.382199145310395	2.15
C 	53.28391942690969	37.70248175527171	2.15
C 	54.68868613971713	37.909919655830336	2.15
C 	55.21142300452937	39.23020226579165	2.15
C 	56.616189717336816	39.43764016635028	2.15
C 	57.138926582149054	40.75792277631159	2.15
C 	58.5436932949565	40.96536067687022	2.15
C 	59.06643015976874	42.28564328683154	2.15
C 	60.471196872576186	42.49308118739017	2.15
C 	60.99393373738843	43.81336379735148	2.15
C 	62.39870045019587	44.0208016979101	2.15
C 	62.92143731500811	45.34108430787141	2.15
C 	64.32620402781556	45.54852220843003	2.15
C 	2.8095334256148865	0.41487580111724864	2.15
C 	4.21430013842233	0.6223137016758727	2.15
C 	4.7370370032345726	1.9425963116371896	2.15
C 	6.141803716042016	2.150034212195814	2.15
C 	6.664540580854259	3.4703168221571308	2.15
C 	8.069307293661703	3.6777547227157554	2.15
C 	8.592044158473945	4.998037332677073	2.15
C 	9.996810871281388	5.205475233235696	2.15
C 	10.519547736093632	6.525757843197011	2.15
C 	11.924314448901075	6.733195743755636	2.15
C 	12.447051313713319	8.053478353716955	2.15
C 	13.85181802652076	8.26091625427558	2.15
C 	14.374554891333004	9.581198864236896	2.15
C 	15.779321604140447	9.78863676479552	2.15
C 	16.30205846895269	11.108919374756836	2.15
C 	17.706825181760134	11.316357275315461	2.15
C 	18.229562046572376	12.636639885276777	2.15
C 	19.63432875937982	12.844077785835402	2.15
C 	20.15706562419206	14.164360395796717	2.15
C 	21.561832336999508	14.371798296355346	2.15
C 	22.08456920181175	15.69208090631666	2.15
C 	23.489335914619193	15.899518806875285	2.15
C 	24.012072779431435	17.2198014168366	2.15
C 	25.41683949223888	17.427239317395227	2.15
C 	25.93957635705112	18.74752192735654	2.15
C 	27.344343069858564	18.954959827915168	2.15
C 	27.86707993467081	20.275242437876482	2.15
C 	29.27184664747825	20.48268033843511	2.15
C 	29.794583512290494	21.802962948396424	2.15
C 	31.199350225097934	22.01040084895505	2.15
C 	31.72208708991018	23.330683458916365	2.15
C 	33.126853802717626	23.53812135947499	2.15
C 	33.649590667529864	24.858403969436306	2.15
C 	35.05435738033731	25.065841869994927	2.15
C 	35.57709424514955	26.386124479956244	2.15
C 	36.981860957957	26.59356238051487	2.15
C 	37.504597822769234	27.91384499047619	2.15
C 	38.90936453557668	28.12128289103481	2.15
C 	39.43210140038892	29.441565500996127	2.15
C 	40.83686811319637	29.64900340155475	2.15
C 	41.359604978008605	30.969286011516072	2.15
C 	42.76437169081605	31.176723912074696	2.15
C 	43.28710855562829	32.49700652203602	2.15
C 	44.69187526843574	32.704444422594634	2.15
C 	45.21461213324798	34.02472703255595	2.15
C 	46.619378846055426	34.232164933114575	2.15
C 	47.14211571086767	35.55244754307589	2.15
C 	48.546882423675115	35.759885443634516	2.15
C 	49.06961928848736	37.080168053595834	2.15
C 	50.4743860012948	37.28760595415446	2.15
C 	50.99712286610705	38.607888564115775	2.15
C 	52.401889578914485	38.8153264646744	2.15
C 	52.92462644372673	40.13560907463572	2.15
C 	54.32939315653418	40.34304697519434	2.15
C 	54.852130021346426	41.66332958515566	2.15
C 	56.256896734153855	41.87076748571428	2.15
C 	56.7796335989661	43.1910500956756	2.15
C 	58.18440031177355	43.39848799623422	2.15
C 	58.707137176585796	44.71877060619554	2.15
C 	60.111903889393226	44.92620850675417	2.15
C 	60.63464075420548	46.2464911167155	2.15
C 	62.03940746701292	46.453929017274106	2.15
C 	1.927503577619686	1.5277205105199412	2.15
C 	2.450240442431929	2.848003120481258	2.15
C 	3.855007155239372	3.0554410210398824	2.15
C 	4.377744020051615	4.3757236310011995	2.15
C 	5.782510732859059	4.583161531559823	2.15
C 	6.305247597671301	5.90344414152114	2.15
C 	7.710014310478744	6.110882042079765	2.15
C 	8.232751175290987	7.4311646520410815	2.15
C 	9.637517888098431	7.638602552599705	2.15
C 	10.160254752910673	8.958885162561023	2.15
C 	11.565021465718118	9.166323063119647	2.15
C 	12.08775833053036	10.486605673080964	2.15
C 	13.492525043337803	10.694043573639588	2.15
C 	14.015261908150046	12.014326183600904	2.15
C 	15.420028620957488	12.22176408415953	2.15
C 	15.942765485769733	13.542046694120847	2.15
C 	17.347532198577177	13.749484594679469	2.15
C 	17.87026906338942	15.069767204640785	2.15
C 	19.275035776196862	15.27720510519941	2.15
C 	19.797772641009104	16.597487715160728	2.15
C 	21.202539353816547	16.804925615719355	2.15
C 	21.725276218628792	18.125208225680673	2.15
C 	23.130042931436236	18.332646126239293	2.15
C 	23.652779796248478	19.652928736200607	2.15
C 	25.05754650905592	19.860366636759235	2.15
C 	25.580283373868166	21.180649246720552	2.15
C 	26.985050086675606	21.388087147279176	2.15
C 	27.50778695148785	22.708369757240497	2.15
C 	28.91255366429529	22.915807657799117	2.15
C 	29.435290529107537	24.23609026776043	2.15
C 	30.840057241914977	24.44352816831906	2.15
C 	31.362794106727222	25.763810778280376	2.15
C 	32.767560819534665	25.971248678839004	2.15
C 	33.29029768434691	27.29153128880032	2.15
C 	34.695064397154354	27.498969189358938	2.15
C 	35.21780126196659	28.819251799320256	2.15
C 	36.622567974774036	29.026689699878883	2.15
C 	37.14530483958628	30.3469723098402	2.15
C 	38.550071552393725	30.55441021039882	2.15
C 	39.07280841720596	31.87469282036014	2.15
C 	40.477575130013406	32.08213072091876	2.15
C 	41.00031199482565	33.40241333088008	2.15
C 	42.405078707633095	33.60985123143871	2.15
C 	42.92781557244534	34.93013384140003	2.15
C 	44.332582285252776	35.137571741958645	2.15
C 	44.85531915006502	36.45785435191996	2.15
C 	46.26008586287247	36.66529225247859	2.15
C 	46.78282272768471	37.985574862439904	2.15
C 	48.18758944049216	38.19301276299853	2.15
C 	48.710326305304406	39.51329537295985	2.15
C 	50.11509301811184	39.72073327351847	2.15
C 	50.63782988292409	41.04101588347979	2.15
C 	52.042596595731524	41.24845378403841	2.15
C 	52.56533346054377	42.56873639399973	2.15
C 	53.97010017335121	42.77617429455835	2.15
C 	54.49283703816346	44.09645690451967	2.15
C 	55.8976037509709	44.30389480507829	2.15
C 	56.42034061578315	45.62417741503961	2.15
C 	57.82510732859058	45.831615315598235	2.15
C 	3.495714172056415	5.488568340403892	2.15
C 	4.018451036868657	6.808850950365208	2.15
C 	5.423217749676101	7.016288850923833	2.15
C 	5.945954614488344	8.33657146088515	2.15
C 	7.350721327295787	8.544009361443774	2.15
C 	7.87345819210803	9.864291971405091	2.15
C 	9.278224904915472	10.071729871963713	2.15
C 	9.800961769727715	11.392012481925033	2.15
C 	11.20572848253516	11.599450382483656	2.15
C 	11.728465347347402	12.919732992444972	2.15
C 	13.133232060154846	13.127170893003598	2.15
C 	13.65596892496709	14.447453502964915	2.15
C 	15.060735637774531	14.654891403523537	2.15
C 	15.583472502586776	15.975174013484857	2.15
C 	16.988239215394216	16.182611914043477	2.15
C 	17.51097608020646	17.502894524004798	2.15
C 	18.915742793013905	17.71033242456342	2.15
C 	19.438479657826147	19.030615034524736	2.15
C 	20.84324637063359	19.238052935083363	2.15
C 	21.365983235445835	20.55833554504468	2.15
C 	22.77074994825328	20.7657734456033	2.15
C 	23.29348681306552	22.08605605556462	2.15
C 	24.698253525872964	22.293493956123243	2.15
C 	25.220990390685206	23.61377656608456	2.15
C 	26.62575710349265	23.821214466643188	2.15
C 	27.148493968304894	25.1414970766045	2.15
C 	28.553260681112334	25.348934977163125	2.15
C 	29.07599754592458	26.669217587124443	2.15
C 	30.480764258732023	26.87665548768307	2.15
C 	31.003501123544265	28.19693809764438	2.15
C 	32.40826783635171	28.404375998203015	2.15
C 	32.93100470116395	29.724658608164326	2.15
C 	34.33577141397139	29.93209650872295	2.15
C 	34.85850827878363	31.252379118684264	2.15
C 	36.26327499159108	31.459817019242895	2.15
C 	36.78601185640332	32.78009962920421	2.15
C 	38.190778569210764	32.98753752976283	2.15
C 	38.71351543402301	34.30782013972414	2.15
C 	40.11828214683045	34.515258040282774	2.15
C 	40.64101901164269	35.83554065024409	2.15
C 	42.04578572445014	36.04297855080272	2.15
C 	42.56852258926238	37.36326116076403	2.15
C 	43.97328930206982	37.57069906132266	2.15
C 	44.49602616688206	38.89098167128397	2.15
C 	45.90079287968951	39.0984195718426	2.15
C 	46.42352974450176	40.41870218180391	2.15
C 	47.8282964573092	40.62614008236254	2.15
C 	48.35103332212144	41.94642269232386	2.15
C 	49.75580003492889	42.15386059288248	2.15
C 	50.27853689974113	43.47414320284379	2.15
C 	51.68330361254857	43.68158110340242	2.15
C 	52.20604047736081	45.00186371336374	2.15
C 	53.61080719016826	45.20930161392237	2.15
C 	54.1335440549805	46.52958422388368	2.15
C 	55.538310767787934	46.737022124442305	2.15
C 	6.99142834411283	10.977136680807783	2.15
C 	7.514165208925072	12.297419290769101	2.15
C 	8.918931921732515	12.504857191327725	2.15
C 	9.441668786544758	13.82513980128904	2.15
C 	10.846435499352202	14.032577701847666	2.15
C 	11.369172364164447	15.352860311808984	2.15
C 	12.77393907697189	15.56029821236761	2.15
C 	13.296675941784132	16.880580822328923	2.15
C 	14.701442654591574	17.088018722887547	2.15
C 	15.224179519403817	18.408301332848865	2.15
C 	16.628946232211263	18.61573923340749	2.15
C 	17.151683097023504	19.936021843368806	2.15
C 	18.556449809830944	20.143459743927426	2.15
C 	19.07918667464319	21.463742353888744	2.15
C 	20.483953387450633	21.67118025444737	2.15
C 	21.006690252262878	22.99146286440869	2.15
C 	22.41145696507032	23.198900764967313	2.15
C 	22.934193829882563	24.51918337492863	2.15
C 	24.338960542690007	24.72662127548725	2.15
C 	24.86169740750225	26.046903885448568	2.15
C 	26.266464120309692	26.254341786007195	2.15
C 	26.789200985121933	27.574624395968513	2.15
C 	28.19396769792938	27.782062296527137	2.15
C 	28.716704562741622	29.10234490648845	2.15
C 	30.121471275549062	29.309782807047075	2.15
C 	30.644208140361307	30.630065417008392	2.15
C 	32.04897485316875	30.83750331756702	2.15
C 	32.571711717980996	32.15778592752834	2.15
C 	33.97647843078843	32.365223828086954	2.15
C 	34.49921529560068	33.68550643804827	2.15
C 	35.90398200840812	33.8929443386069	2.15
C 	36.426718873220366	35.21322694856822	2.15
C 	37.83148558602781	35.42066484912684	2.15
C 	38.35422245084005	36.740947459088154	2.15
C 	39.75898916364749	36.94838535964678	2.15
C 	40.28172602845974	38.268667969608096	2.15
C 	41.68649274126718	38.47610587016673	2.15
C 	42.209229606079425	39.796388480128044	2.15
C 	43.61399631888686	40.00382638068666	2.15
C 	44.13673318369911	41.32410899064798	2.15
C 	45.54149989650656	41.5315468912066	2.15
C 	46.064236761318796	42.85182950116792	2.15
C 	47.46900347412624	43.059267401726544	2.15
C 	47.991740338938484	44.37955001168787	2.15
C 	49.39650705174593	44.586987912246485	2.15
C 	49.919243916558166	45.9072705222078	2.15
C 	51.32401062936561	46.11470842276643	2.15
C 	8.559638938549558	14.937984510691734	2.15
C 	9.0823758033618	16.25826712065305	2.15
C 	10.487142516169245	16.465705021211676	2.15
C 	11.009879380981488	17.785987631172993	2.15
C 	12.414646093788932	17.993425531731617	2.15
C 	12.937382958601173	19.313708141692935	2.15
C 	14.342149671408617	19.52114604225156	2.15
C 	14.86488653622086	20.841428652212873	2.15
C 	16.269653249028302	21.0488665527715	2.15
C 	16.792390113840547	22.369149162732814	2.15
C 	18.197156826647987	22.576587063291438	2.15
C 	18.71989369146023	23.896869673252755	2.15
C 	20.124660404267672	24.104307573811383	2.15
C 	20.647397269079917	25.424590183772697	2.15
C 	22.052163981887364	25.632028084331324	2.15
C 	22.574900846699606	26.95231069429264	2.15
C 	23.97966755950705	27.159748594851262	2.15
C 	24.50240442431929	28.48003120481258	2.15
C 	25.907171137126735	28.687469105371207	2.15
C 	26.42990800193898	30.007751715332525	2.15
C 	27.83467471474642	30.215189615891145	2.15
C 	28.35741157955866	31.535472225852462	2.15
C 	29.76217829236611	31.742910126411086	2.15
C 	30.28491515717835	33.06319273637241	2.15
C 	31.689681869985794	33.27063063693103	2.15
C 	32.212418734798035	34.59091324689235	2.15
C 	33.61718544760548	34.798351147450965	2.15
C 	34.139922312417724	36.11863375741228	2.15
C 	35.54468902522517	36.326071657970914	2.15
C 	36.067425890037406	37.64635426793223	2.15
C 	37.47219260284485	37.85379216849085	2.15
C 	37.994929467657094	39.174074778452166	2.15
C 	39.39969618046454	39.38151267901079	2.15
C 	39.92243304527678	40.70179528897211	2.15
C 	41.32719975808423	40.90923318953074	2.15
C 	41.84993662289647	42.229515799492056	2.15
C 	43.25470333570391	42.43695370005067	2.15
C 	43.77744020051615	43.75723631001199	2.15
C 	45.1822069133236	43.964674210570614	2.15
C 	45.70494377813584	45.28495682053193	2.15
C 	47.109710490943286	45.49239472109056	2.15
C 	12.055353110605973	20.426552851095625	2.15
C 	12.578089975418218	21.746835461056946	2.15
C 	13.98285668822566	21.954273361615567	2.15
C 	14.505593553037901	23.27455597157688	2.15
C 	15.910360265845345	23.481993872135508	2.15
C 	16.43309713065759	24.802276482096826	2.15
C 	17.83786384346503	25.00971438265545	2.15
C 	18.36060070827727	26.329996992616763	2.15
C 	19.765367421084715	26.53743489317539	2.15
C 	20.28810428589696	27.85771750313671	2.15
C 	21.692870998704404	28.065155403695332	2.15
C 	22.21560786351665	29.38543801365665	2.15
C 	23.620374576324092	29.592875914215266	2.15
C 	24.143111441136334	30.913158524176588	2.15
C 	25.54787815394378	31.12059642473522	2.15
C 	26.07061501875602	32.44087903469653	2.15
C 	27.475381731563463	32.64831693525515	2.15
C 	27.998118596375708	33.96859954521647	2.15
C 	29.402885309183148	34.176037445775094	2.15
C 	29.92562217399539	35.49632005573641	2.15
C 	31.330388886802837	35.70375795629504	2.15
C 	31.853125751615078	37.02404056625635	2.15
C 	33.257892464422525	37.23147846681498	2.15
C 	33.78062932923476	38.551761076776295	2.15
C 	35.18539604204221	38.75919897733492	2.15
C 	35.70813290685445	40.079481587296236	2.15
C 	37.11289961966189	40.28691948785485	2.15
C 	37.635636484474134	41.60720209781617	2.15
C 	39.04040319728158	41.8146399983748	2.15
C 	39.56314006209382	43.13492260833612	2.15
C 	40.967906774901266	43.34236050889474	2.15
C 	41.49064363971351	44.66264311885606	2.15
C 	42.89541035252095	44.87008101941468	2.15
C 	43.41814721733319	46.190363629375994	2.15
C 	44.82291393014064	46.397801529934625	2.15
C 	15.551067282662387	25.915121191499516	2.15
C 	16.07380414747463	27.23540380146083	2.15
C 	17.478570860282073	27.442841702019457	2.15
C 	18.001307725094318	28.763124311980775	2.15
C 	19.40607443790176	28.9705622125394	2.15
C 	19.928811302714003	30.29084482250072	2.15
C 	21.333578015521447	30.498282723059337	2.15
C 	21.85631488033369	31.818565333020654	2.15
C 	23.26108159314113	32.02600323357928	2.15
C 	23.783818457953377	33.3462858435406	2.15
C 	25.18858517076082	33.55372374409922	2.15
C 	25.711322035573065	34.87400635406054	2.15
C 	27.116088748380506	35.08144425461916	2.15
C 	27.638825613192747	36.40172686458048	2.15
C 	29.04359232600019	36.609164765139106	2.15
C 	29.566329190812436	37.92944737510042	2.15
C 	30.97109590361988	38.13688527565905	2.15
C 	31.49383276843212	39.457167885620365	2.15
C 	32.898599481239565	39.66460578617898	2.15
C 	33.42133634605181	40.984888396140306	2.15
C 	34.82610305885925	41.19232629669893	2.15
C 	35.34883992367149	42.51260890666025	2.15
C 	36.753606636478935	42.720046807218864	2.15
C 	37.27634350129118	44.04032941718018	2.15
C 	38.681110214098624	44.24776731773881	2.15
C 	39.20384707891086	45.56804992770013	2.15
C 	40.608613791718305	45.775487828258754	2.15
C 	17.119277877099115	29.87596902138347	2.15
C 	17.642014741911357	31.196251631344786	2.15
C 	19.046781454718804	31.40368953190341	2.15
C 	19.569518319531042	32.72397214186472	2.15
C 	20.97428503233849	32.93141004242335	2.15
C 	21.49702189715073	34.25169265238467	2.15
C 	22.901788609958174	34.45913055294329	2.15
C 	23.42452547477042	35.77941316290461	2.15
C 	24.829292187577863	35.986851063463234	2.15
C 	25.3520290523901	37.307133673424545	2.15
C 	26.75679576519755	37.514571573983176	2.15
C 	27.27953263000979	38.83485418394449	2.15
C 	28.684299342817233	39.04229208450312	2.15
C 	29.20703620762948	40.362574694464435	2.15
C 	30.61180292043692	40.57001259502306	2.15
C 	31.13453978524916	41.89029520498437	2.15
C 	32.539306498056604	42.097733105543	2.15
C 	33.06204336286885	43.41801571550431	2.15
C 	34.46681007567629	43.62545361606294	2.15
C 	34.98954694048854	44.94573622602426	2.15
C 	36.394313653295974	45.153174126582876	2.15
C 	36.91705051810822	46.4734567365442	2.15
C 	38.32181723091566	46.680894637102824	2.15
C 	20.614992049155532	35.36453736178736	2.15
C 	21.137728913967777	36.68481997174868	2.15
C 	22.542495626775217	36.8922578723073	2.15
C 	23.06523249158746	38.212540482268615	2.15
C 	24.469999204394906	38.419978382827246	2.15
C 	24.992736069207147	39.740260992788556	2.15
C 	26.39750278201459	39.94769889334719	2.15
C 	26.920239646826833	41.267981503308505	2.15
C 	28.325006359634276	41.47541940386712	2.15
C 	28.847743224446518	42.79570201382844	2.15
C 	30.252509937253965	43.00313991438707	2.15
C 	30.775246802066206	44.32342252434839	2.15
C 	32.18001351487365	44.53086042490701	2.15
C 	32.70275037968589	45.85114303486832	2.15
C 	34.10751709249333	46.058580935426946	2.15
C 	24.110706221211945	40.85310570219125	2.15
C 	24.63344308602419	42.17338831215257	2.15
C 	26.03820979883163	42.38082621271119	2.15
C 	26.560946663643875	43.70110882267251	2.15
C 	27.96571337645132	43.90854672323113	2.15
C 	28.48845024126356	45.22882933319245	2.15
C 	29.893216954071004	45.436267233751074	2.15
H 	52.13025469618575	-1.9579186170024427	2.15
H 	54.61332825192283	-1.5912502153107884	2.15
H 	55.53732087916138	0.7424887642687297	2.15
H 	49.8434581353831	-1.05251180815838	2.15
H 	56.18153884635956	2.369597614573157	2.15
H 	58.10904242397926	3.897318125093112	2.15
H 	59.03303505121779	6.231057104672612	2.15
H 	45.62915799696077	-1.6748255098342515	2.15
H 	48.11223155269786	-1.308157108142594	2.15
H 	59.677253018415975	7.858165954977057	2.15
H 	60.601245645654515	10.191904934556572	2.15
H 	43.34236143615811	-0.7694187009901748	2.15
H 	61.24546361285271	11.819013784861008	2.15
H 	63.1729671904724	13.346734295380953	2.15
H 	64.09695981771094	15.680473274960464	2.15
H 	39.128061297735776	-1.39173240266605	2.15
H 	41.611134853472905	-1.0250640009743917	2.15
H 	64.74117778490913	17.307582125264897	2.15
H 	66.66868136252882	18.835302635784828	2.15
H 	67.59267398976736	21.16904161536435	2.15
H 	36.84126473693314	-0.48632559382197804	2.15
H 	68.23689195696551	22.796150465668767	2.15
H 	69.16088458420408	25.129889445248295	2.15
H 	32.62696459851081	-1.1086392954978486	2.15
H 	35.11003815424791	-0.7419708938062026	2.15
H 	69.80510255140227	26.75699829555275	2.15
H 	71.73260612902195	28.28471880607268	2.15
H 	72.6565987562605	30.61845778565221	2.15
H 	28.41266446008849	-1.7309529971737312	2.15
H 	30.895738015825586	-1.3642845954820704	2.15
H 	73.30081672345868	32.24556663595663	2.15
H 	75.22832030107837	33.77328714647657	2.15
H 	76.15231292831692	36.10702612605608	2.15
H 	26.12586789928585	-0.8255461883296626	2.15
H 	76.79653089551509	37.73413497636052	2.15
H 	78.72403447313481	39.26185548688048	2.15
H 	79.64802710037333	41.595594466459964	2.15
H 	21.911567760863498	-1.4478598900055313	2.15
H 	24.39464131660061	-1.0811914883138796	2.15
H 	79.28873411719037	44.02872178582398	2.15
H 	19.62477120006087	-0.5424530811614661	2.15
H 	77.7296531886918	45.99579236371184	2.15
H 	15.410471061638537	-1.1647667828373351	2.15
H 	17.893544617375635	-0.7980983811456839	2.15
H 	75.44285662788919	46.9011991725559	2.15
H 	11.196170923216208	-1.7870804845132109	2.15
H 	13.679244478953308	-1.4204120828215556	2.15
H 	70.67298651134942	47.43993757970833	2.15
H 	73.15606006708651	47.80660598139999	2.15
H 	8.909374362413562	-0.8816736756691415	2.15
H 	66.4586863729271	46.817623878032464	2.15
H 	68.94175992866421	47.1842922797241	2.15
H 	4.695074223991231	-1.5039873773450134	2.15
H 	7.178147779728333	-1.1373189756533613	2.15
H 	64.72745979024188	46.56197857804822	2.15
H 	2.408277663188587	-0.5985805685009453	2.15
H 	59.95758967370213	47.10071698520067	2.15
H 	62.44066322943923	47.467385386892296	2.15
H 	0.8491967346900287	1.3684900093869123	2.15
H 	1.7731893619285708	3.7022289889664237	2.15
H 	58.226363091016864	46.84507168521644	2.15
H 	2.4174073291267577	5.329337839270862	2.15
H 	3.341399956365299	7.6630768188503735	2.15
H 	5.268903533984987	9.190797329370316	2.15
H 	53.45649297447714	47.38381009236885	2.15
H 	55.93956653021423	47.7504784940605	2.15
H 	5.913121501183173	10.817906179674752	2.15
H 	6.837114128421715	13.151645159254267	2.15
H 	49.242192836054805	46.76149639069296	2.15
H 	51.72526639179191	47.12816479238462	2.15
H 	7.4813320956199	14.778754009558709	2.15
H 	8.405324722858436	17.11249298913821	2.15
H 	10.33282830047813	18.64021349965816	2.15
H 	47.51096625336958	46.50585109070876	2.15
H 	10.977046267676316	20.26732234996259	2.15
H 	11.901038894914866	22.601061329542116	2.15
H 	13.82854247253454	24.128781840062043	2.15
H 	42.741096136829825	47.04458949786115	2.15
H 	45.22416969256695	47.411257899552815	2.15
H 	14.47276043973273	25.75589069036649	2.15
H 	15.396753066971266	28.089629669945992	2.15
H 	41.0098695541446	46.78894419787695	2.15
H 	16.04097103416946	29.71673852025044	2.15
H 	16.964963661407996	32.05047749982995	2.15
H 	18.892467239027674	33.57819801034988	2.15
H 	36.239999437604865	47.327682605029366	2.15
H 	38.723072993341965	47.694351006721014	2.15
H 	19.536685206225876	35.20530686065434	2.15
H 	20.460677833464427	37.539045840233854	2.15
H 	22.388181411084098	39.06676635075378	2.15
H 	32.02569929918253	46.70536890335348	2.15
H 	34.508772854919634	47.072037305045136	2.15
H 	23.032399378282285	40.693875201058226	2.15
H 	23.956392005520836	43.027614180637734	2.15
H 	25.883895583140518	44.555334691157675	2.15
H 	27.8113991607602	46.08305520167762	2.15
H 	30.294472716497303	46.44972360336927	2.15
