2318

C 	0.0	0.0	0.0
C 	1.2297560733739028	0.7099999999999999	0.0
C 	2.4595121467478056	-2.3647750424515833e-16	0.0
C 	3.689268220121708	0.7099999999999995	0.0
C 	4.919024293495611	-4.729550084903167e-16	0.0
C 	6.148780366869514	0.7099999999999993	0.0
C 	7.378536440243416	-7.09432512735475e-16	0.0
C 	8.60829251361732	0.7099999999999991	0.0
C 	9.838048586991222	-9.459100169806333e-16	0.0
C 	11.067804660365125	0.7099999999999989	0.0
C 	12.297560733739026	-1.1823875212257916e-15	0.0
C 	13.527316807112928	0.7099999999999986	0.0
C 	14.757072880486833	-1.41886502547095e-15	0.0
C 	15.986828953860735	0.7099999999999984	0.0
C 	17.21658502723464	-7.671641100159832e-16	0.0
C 	18.44634110060854	0.7099999999999982	0.0
C 	19.676097173982445	-1.8918200339612667e-15	0.0
C 	20.905853247356347	0.7099999999999989	0.0
C 	22.135609320730246	-2.128297538206425e-15	0.0
C 	23.36536539410415	0.7099999999999967	0.0
C 	24.59512146747805	-2.364775042451583e-15	0.0
C 	25.824877540851954	0.7099999999999983	0.0
C 	27.05463361422586	-8.248957072964913e-16	0.0
C 	28.284389687599763	0.7099999999999999	0.0
C 	29.514145760973665	-2.8377300509419e-15	0.0
C 	30.743901834347565	0.7099999999999961	0.0
C 	31.97365790772147	-3.0742075551870582e-15	0.0
C 	33.20341398109537	0.7099999999999976	0.0
C 	34.43317005446928	-1.5343282200319664e-15	0.0
C 	35.66292612784318	0.7099999999999992	0.0
C 	36.892682201217085	-1.7708057242771246e-15	0.0
C 	38.122438274590984	0.7099999999999972	0.0
C 	39.35219434796489	-3.783640067922533e-15	0.0
C 	40.58195042133879	0.7099999999999969	0.0
C 	41.811706494712695	-4.67403893367191e-16	0.0
C 	43.0414625680866	0.7100000000000002	0.0
C 	44.27121864146049	-4.25659507641285e-15	0.0
C 	45.5009747148344	0.7099999999999964	0.0
C 	46.730730788208305	-9.403589018575075e-16	0.0
C 	47.96048686158221	0.7099999999999997	0.0
C 	49.1902429349561	-4.729550084903166e-15	0.0
C 	50.41999900833001	0.709999999999996	0.0
C 	51.64975508170391	-1.413313910347824e-15	0.0
C 	52.879511155077815	0.7099999999999993	0.0
C 	54.10926722845172	-1.6497914145929826e-15	0.0
C 	55.33902330182562	0.7099999999999991	0.0
C 	56.56877937519952	-5.438982597638641e-15	0.0
C 	57.798535448573425	0.7099999999999953	0.0
C 	59.02829152194733	-5.6754601018838e-15	0.0
C 	60.25804759532124	0.709999999999995	0.0
C 	1.2297560733739028	2.1299999999999994	0.0
C 	2.4595121467478056	2.8399999999999994	0.0
C 	3.689268220121708	2.1299999999999994	0.0
C 	4.919024293495611	2.8399999999999994	0.0
C 	6.148780366869514	2.129999999999999	0.0
C 	7.378536440243416	2.839999999999999	0.0
C 	8.60829251361732	2.1299999999999986	0.0
C 	9.838048586991222	2.8399999999999985	0.0
C 	11.067804660365123	2.129999999999998	0.0
C 	12.297560733739028	2.839999999999999	0.0
C 	13.527316807112928	2.1299999999999977	0.0
C 	14.757072880486833	2.839999999999998	0.0
C 	15.986828953860735	2.129999999999998	0.0
C 	17.216585027234636	2.839999999999997	0.0
C 	18.446341100608542	2.129999999999998	0.0
C 	19.676097173982445	2.8399999999999985	0.0
C 	20.905853247356344	2.1299999999999977	0.0
C 	22.13560932073025	2.8399999999999985	0.0
C 	23.36536539410415	2.129999999999997	0.0
C 	24.595121467478055	2.839999999999997	0.0
C 	25.824877540851954	2.1299999999999963	0.0
C 	27.05463361422586	2.839999999999997	0.0
C 	28.284389687599763	2.129999999999998	0.0
C 	29.514145760973665	2.8399999999999985	0.0
C 	30.743901834347568	2.129999999999996	0.0
C 	31.97365790772147	2.8399999999999967	0.0
C 	33.20341398109537	2.129999999999996	0.0
C 	34.43317005446928	2.8399999999999963	0.0
C 	35.66292612784318	2.1299999999999972	0.0
C 	36.89268220121708	2.8399999999999963	0.0
C 	38.122438274590984	2.129999999999997	0.0
C 	39.35219434796489	2.8399999999999976	0.0
C 	40.58195042133879	2.1299999999999986	0.0
C 	41.81170649471269	2.839999999999996	0.0
C 	43.0414625680866	2.129999999999998	0.0
C 	44.2712186414605	2.8399999999999954	0.0
C 	45.5009747148344	2.129999999999998	0.0
C 	46.7307307882083	2.8399999999999954	0.0
C 	47.96048686158221	2.1299999999999977	0.0
C 	49.19024293495611	2.839999999999995	0.0
C 	50.41999900833001	2.1299999999999977	0.0
C 	51.64975508170391	2.8399999999999945	0.0
C 	52.879511155077815	2.1299999999999972	0.0
C 	54.10926722845171	2.8399999999999945	0.0
C 	55.33902330182563	2.130000000000001	0.0
C 	56.56877937519952	2.8399999999999976	0.0
C 	57.798535448573425	2.129999999999997	0.0
C 	59.028291521947324	2.839999999999994	0.0
C 	60.25804759532124	2.129999999999997	0.0
C 	61.487803668695136	2.8399999999999936	0.0
C 	2.4595121467478056	4.259999999999999	0.0
C 	3.689268220121708	4.969999999999999	0.0
C 	4.919024293495611	4.259999999999999	0.0
C 	6.148780366869514	4.969999999999999	0.0
C 	7.378536440243416	4.259999999999999	0.0
C 	8.60829251361732	4.969999999999999	0.0
C 	9.83804858699122	4.259999999999998	0.0
C 	11.067804660365125	4.969999999999999	0.0
C 	12.297560733739028	4.259999999999998	0.0
C 	13.52731680711293	4.969999999999998	0.0
C 	14.757072880486831	4.259999999999998	0.0
C 	15.986828953860735	4.969999999999998	0.0
C 	17.21658502723464	4.259999999999997	0.0
C 	18.446341100608542	4.969999999999998	0.0
C 	19.676097173982445	4.259999999999999	0.0
C 	20.905853247356347	4.969999999999997	0.0
C 	22.135609320730246	4.259999999999996	0.0
C 	23.365365394104153	4.969999999999997	0.0
C 	24.595121467478055	4.259999999999998	0.0
C 	25.824877540851958	4.969999999999997	0.0
C 	27.054633614225857	4.259999999999995	0.0
C 	28.28438968759976	4.969999999999996	0.0
C 	29.514145760973665	4.259999999999997	0.0
C 	30.743901834347568	4.969999999999997	0.0
C 	31.97365790772147	4.259999999999996	0.0
C 	33.20341398109537	4.969999999999995	0.0
C 	34.43317005446927	4.2599999999999945	0.0
C 	35.66292612784318	4.969999999999995	0.0
C 	36.892682201217085	4.259999999999996	0.0
C 	38.122438274590984	4.969999999999997	0.0
C 	39.35219434796489	4.259999999999997	0.0
C 	40.58195042133879	4.969999999999994	0.0
C 	41.81170649471269	4.259999999999995	0.0
C 	43.041462568086594	4.969999999999996	0.0
C 	44.2712186414605	4.259999999999997	0.0
C 	45.500974714834406	4.969999999999998	0.0
C 	46.7307307882083	4.259999999999994	0.0
C 	47.960486861582204	4.9699999999999935	0.0
C 	49.19024293495611	4.259999999999996	0.0
C 	50.41999900833001	4.969999999999997	0.0
C 	51.64975508170391	4.259999999999993	0.0
C 	52.879511155077815	4.9699999999999935	0.0
C 	54.10926722845171	4.259999999999996	0.0
C 	55.33902330182562	4.969999999999997	0.0
C 	56.568779375199526	4.259999999999996	0.0
C 	57.798535448573425	4.969999999999996	0.0
C 	59.028291521947324	4.259999999999995	0.0
C 	60.25804759532123	4.969999999999996	0.0
C 	61.487803668695136	4.259999999999992	0.0
C 	62.717559742069035	4.969999999999993	0.0
C 	3.6892682201217086	6.389999999999999	0.0
C 	4.919024293495611	7.099999999999999	0.0
C 	6.148780366869514	6.389999999999999	0.0
C 	7.378536440243416	7.099999999999999	0.0
C 	8.608292513617318	6.389999999999998	0.0
C 	9.838048586991222	7.099999999999999	0.0
C 	11.067804660365125	6.389999999999998	0.0
C 	12.297560733739028	7.099999999999998	0.0
C 	13.52731680711293	6.389999999999999	0.0
C 	14.757072880486833	7.099999999999998	0.0
C 	15.986828953860735	6.389999999999998	0.0
C 	17.216585027234636	7.099999999999997	0.0
C 	18.44634110060854	6.389999999999997	0.0
C 	19.676097173982445	7.099999999999998	0.0
C 	20.905853247356347	6.389999999999998	0.0
C 	22.13560932073025	7.099999999999997	0.0
C 	23.365365394104153	6.389999999999998	0.0
C 	24.59512146747805	7.099999999999997	0.0
C 	25.824877540851958	6.389999999999998	0.0
C 	27.054633614225857	7.099999999999997	0.0
C 	28.28438968759976	6.389999999999999	0.0
C 	29.514145760973662	7.099999999999997	0.0
C 	30.743901834347568	6.389999999999999	0.0
C 	31.97365790772147	7.099999999999998	0.0
C 	33.20341398109537	6.389999999999995	0.0
C 	34.43317005446928	7.099999999999994	0.0
C 	35.66292612784318	6.389999999999995	0.0
C 	36.892682201217085	7.099999999999996	0.0
C 	38.122438274590984	6.389999999999996	0.0
C 	39.35219434796489	7.099999999999997	0.0
C 	40.58195042133879	6.389999999999994	0.0
C 	41.811706494712695	7.099999999999995	0.0
C 	43.041462568086594	6.389999999999996	0.0
C 	44.2712186414605	7.099999999999997	0.0
C 	45.500974714834406	6.389999999999998	0.0
C 	46.730730788208305	7.099999999999998	0.0
C 	47.960486861582204	6.389999999999995	0.0
C 	49.19024293495611	7.099999999999996	0.0
C 	50.41999900833001	6.389999999999995	0.0
C 	51.649755081703915	7.099999999999996	0.0
C 	52.879511155077815	6.389999999999995	0.0
C 	54.10926722845172	7.099999999999996	0.0
C 	55.33902330182562	6.389999999999995	0.0
C 	56.568779375199526	7.099999999999995	0.0
C 	57.79853544857343	6.389999999999998	0.0
C 	59.02829152194733	7.099999999999999	0.0
C 	60.25804759532123	6.389999999999994	0.0
C 	61.487803668695136	7.099999999999995	0.0
C 	62.71755974206904	6.389999999999994	0.0
C 	63.94731581544294	7.099999999999995	0.0
C 	4.919024293495611	8.519999999999998	0.0
C 	6.148780366869514	9.229999999999999	0.0
C 	7.378536440243416	8.519999999999998	0.0
C 	8.60829251361732	9.229999999999999	0.0
C 	9.838048586991222	8.519999999999998	0.0
C 	11.067804660365125	9.229999999999999	0.0
C 	12.297560733739028	8.519999999999998	0.0
C 	13.52731680711293	9.229999999999997	0.0
C 	14.757072880486833	8.519999999999998	0.0
C 	15.986828953860737	9.229999999999999	0.0
C 	17.216585027234636	8.519999999999998	0.0
C 	18.44634110060854	9.229999999999997	0.0
C 	19.67609717398244	8.519999999999996	0.0
C 	20.905853247356347	9.229999999999997	0.0
C 	22.13560932073025	8.519999999999998	0.0
C 	23.365365394104153	9.229999999999999	0.0
C 	24.595121467478055	8.519999999999996	0.0
C 	25.824877540851954	9.229999999999995	0.0
C 	27.05463361422586	8.519999999999996	0.0
C 	28.284389687599763	9.229999999999997	0.0
C 	29.514145760973662	8.519999999999996	0.0
C 	30.743901834347565	9.229999999999995	0.0
C 	31.97365790772147	8.52	0.0
C 	33.20341398109537	9.229999999999997	0.0
C 	34.43317005446928	8.519999999999994	0.0
C 	35.66292612784318	9.229999999999995	0.0
C 	36.89268220121708	8.519999999999992	0.0
C 	38.122438274590984	9.229999999999993	0.0
C 	39.35219434796489	8.519999999999998	0.0
C 	40.58195042133879	9.229999999999995	0.0
C 	41.811706494712695	8.519999999999994	0.0
C 	43.0414625680866	9.229999999999995	0.0
C 	44.27121864146049	8.519999999999992	0.0
C 	45.5009747148344	9.229999999999993	0.0
C 	46.730730788208305	8.519999999999998	0.0
C 	47.960486861582204	9.229999999999995	0.0
C 	49.19024293495611	8.519999999999996	0.0
C 	50.41999900833001	9.229999999999993	0.0
C 	51.64975508170391	8.519999999999994	0.0
C 	52.879511155077815	9.229999999999995	0.0
C 	54.10926722845171	8.51999999999999	0.0
C 	55.33902330182562	9.229999999999992	0.0
C 	56.568779375199526	8.519999999999998	0.0
C 	57.798535448573425	9.229999999999995	0.0
C 	59.02829152194733	8.519999999999994	0.0
C 	60.25804759532123	9.229999999999993	0.0
C 	61.48780366869513	8.519999999999992	0.0
C 	62.717559742069035	9.229999999999993	0.0
C 	63.94731581544294	8.519999999999992	0.0
C 	65.17707188881684	9.22999999999999	0.0
C 	6.148780366869514	10.649999999999997	0.0
C 	7.378536440243416	11.359999999999998	0.0
C 	8.608292513617318	10.649999999999997	0.0
C 	9.838048586991222	11.359999999999998	0.0
C 	11.067804660365125	10.649999999999997	0.0
C 	12.297560733739028	11.359999999999996	0.0
C 	13.52731680711293	10.649999999999997	0.0
C 	14.757072880486831	11.359999999999996	0.0
C 	15.986828953860735	10.649999999999997	0.0
C 	17.216585027234636	11.359999999999996	0.0
C 	18.44634110060854	10.649999999999997	0.0
C 	19.676097173982445	11.359999999999998	0.0
C 	20.905853247356347	10.649999999999997	0.0
C 	22.13560932073025	11.359999999999996	0.0
C 	23.365365394104153	10.649999999999997	0.0
C 	24.595121467478055	11.359999999999996	0.0
C 	25.824877540851958	10.649999999999997	0.0
C 	27.05463361422586	11.359999999999996	0.0
C 	28.284389687599763	10.649999999999995	0.0
C 	29.514145760973662	11.359999999999994	0.0
C 	30.743901834347565	10.649999999999995	0.0
C 	31.97365790772147	11.359999999999996	0.0
C 	33.20341398109537	10.649999999999997	0.0
C 	34.43317005446928	11.359999999999998	0.0
C 	35.66292612784318	10.649999999999991	0.0
C 	36.89268220121708	11.359999999999992	0.0
C 	38.122438274590984	10.649999999999993	0.0
C 	39.35219434796489	11.359999999999994	0.0
C 	40.58195042133879	10.649999999999993	0.0
C 	41.811706494712695	11.359999999999994	0.0
C 	43.041462568086594	10.649999999999991	0.0
C 	44.2712186414605	11.359999999999992	0.0
C 	45.5009747148344	10.649999999999993	0.0
C 	46.730730788208305	11.359999999999994	0.0
C 	47.960486861582204	10.649999999999995	0.0
C 	49.19024293495611	11.359999999999996	0.0
C 	50.41999900833001	10.649999999999993	0.0
C 	51.649755081703915	11.359999999999994	0.0
C 	52.879511155077815	10.649999999999995	0.0
C 	54.10926722845172	11.359999999999996	0.0
C 	55.33902330182562	10.649999999999993	0.0
C 	56.568779375199526	11.359999999999994	0.0
C 	57.798535448573425	10.649999999999993	0.0
C 	59.02829152194733	11.359999999999992	0.0
C 	60.25804759532124	10.649999999999995	0.0
C 	61.487803668695136	11.359999999999996	0.0
C 	62.717559742069035	10.649999999999991	0.0
C 	63.94731581544294	11.359999999999992	0.0
C 	65.17707188881684	10.649999999999991	0.0
C 	66.40682796219075	11.359999999999992	0.0
C 	7.378536440243417	12.779999999999998	0.0
C 	8.60829251361732	13.489999999999998	0.0
C 	9.838048586991222	12.78	0.0
C 	11.067804660365125	13.489999999999997	0.0
C 	12.297560733739028	12.779999999999998	0.0
C 	13.527316807112932	13.489999999999998	0.0
C 	14.757072880486833	12.779999999999998	0.0
C 	15.986828953860737	13.489999999999997	0.0
C 	17.216585027234636	12.779999999999996	0.0
C 	18.446341100608542	13.489999999999997	0.0
C 	19.676097173982445	12.779999999999998	0.0
C 	20.905853247356347	13.489999999999997	0.0
C 	22.13560932073025	12.779999999999996	0.0
C 	23.36536539410415	13.489999999999995	0.0
C 	24.595121467478055	12.779999999999996	0.0
C 	25.824877540851958	13.489999999999997	0.0
C 	27.05463361422586	12.779999999999998	0.0
C 	28.284389687599763	13.489999999999997	0.0
C 	29.514145760973662	12.779999999999996	0.0
C 	30.743901834347568	13.489999999999997	0.0
C 	31.97365790772147	12.779999999999996	0.0
C 	33.20341398109537	13.489999999999997	0.0
C 	34.43317005446928	12.779999999999998	0.0
C 	35.66292612784318	13.489999999999995	0.0
C 	36.89268220121708	12.779999999999994	0.0
C 	38.122438274590984	13.489999999999995	0.0
C 	39.35219434796489	12.779999999999996	0.0
C 	40.581950421338796	13.489999999999997	0.0
C 	41.811706494712695	12.779999999999996	0.0
C 	43.041462568086594	13.489999999999993	0.0
C 	44.2712186414605	12.779999999999994	0.0
C 	45.5009747148344	13.489999999999995	0.0
C 	46.730730788208305	12.779999999999996	0.0
C 	47.96048686158221	13.489999999999997	0.0
C 	49.19024293495611	12.779999999999998	0.0
C 	50.41999900833001	13.489999999999995	0.0
C 	51.649755081703915	12.779999999999996	0.0
C 	52.879511155077815	13.489999999999993	0.0
C 	54.10926722845172	12.779999999999998	0.0
C 	55.33902330182563	13.489999999999998	0.0
C 	56.56877937519952	12.779999999999998	0.0
C 	57.798535448573425	13.489999999999997	0.0
C 	59.02829152194733	12.779999999999994	0.0
C 	60.25804759532123	13.489999999999991	0.0
C 	61.487803668695136	12.779999999999998	0.0
C 	62.71755974206904	13.489999999999998	0.0
C 	63.94731581544294	12.779999999999994	0.0
C 	65.17707188881684	13.489999999999995	0.0
C 	66.40682796219075	12.77999999999999	0.0
C 	67.63658403556465	13.489999999999988	0.0
C 	8.60829251361732	14.909999999999998	0.0
C 	9.838048586991222	15.619999999999996	0.0
C 	11.067804660365125	14.909999999999997	0.0
C 	12.297560733739026	15.619999999999996	0.0
C 	13.527316807112934	14.909999999999998	0.0
C 	14.757072880486831	15.619999999999996	0.0
C 	15.986828953860737	14.909999999999998	0.0
C 	17.21658502723464	15.619999999999997	0.0
C 	18.446341100608542	14.909999999999997	0.0
C 	19.676097173982445	15.619999999999996	0.0
C 	20.905853247356347	14.909999999999997	0.0
C 	22.135609320730246	15.619999999999996	0.0
C 	23.365365394104153	14.909999999999995	0.0
C 	24.595121467478055	15.619999999999996	0.0
C 	25.824877540851958	14.909999999999997	0.0
C 	27.05463361422586	15.619999999999996	0.0
C 	28.284389687599763	14.909999999999997	0.0
C 	29.514145760973665	15.619999999999996	0.0
C 	30.743901834347568	14.909999999999997	0.0
C 	31.973657907721474	15.619999999999997	0.0
C 	33.203413981095366	14.909999999999993	0.0
C 	34.43317005446927	15.619999999999994	0.0
C 	35.662926127843185	14.909999999999998	0.0
C 	36.892682201217085	15.619999999999996	0.0
C 	38.122438274590984	14.909999999999995	0.0
C 	39.35219434796489	15.619999999999996	0.0
C 	40.58195042133879	14.909999999999993	0.0
C 	41.811706494712695	15.619999999999994	0.0
C 	43.0414625680866	14.909999999999998	0.0
C 	44.2712186414605	15.619999999999996	0.0
C 	45.5009747148344	14.909999999999995	0.0
C 	46.730730788208305	15.619999999999996	0.0
C 	47.960486861582204	14.909999999999993	0.0
C 	49.19024293495611	15.619999999999994	0.0
C 	50.41999900833002	14.909999999999998	0.0
C 	51.649755081703915	15.619999999999996	0.0
C 	52.87951115507782	14.909999999999997	0.0
C 	54.10926722845171	15.619999999999994	0.0
C 	55.33902330182562	14.909999999999995	0.0
C 	56.568779375199526	15.619999999999994	0.0
C 	57.798535448573425	14.909999999999991	0.0
C 	59.028291521947324	15.619999999999992	0.0
C 	60.25804759532124	14.909999999999998	0.0
C 	61.487803668695136	15.619999999999996	0.0
C 	62.717559742069035	14.909999999999993	0.0
C 	63.94731581544294	15.619999999999994	0.0
C 	65.17707188881684	14.909999999999993	0.0
C 	66.40682796219075	15.619999999999994	0.0
C 	67.63658403556465	14.909999999999997	0.0
C 	68.86634010893854	15.61999999999999	0.0
C 	9.838048586991222	17.039999999999996	0.0
C 	11.067804660365127	17.749999999999996	0.0
C 	12.297560733739028	17.039999999999996	0.0
C 	13.527316807112932	17.749999999999996	0.0
C 	14.757072880486833	17.039999999999996	0.0
C 	15.986828953860735	17.749999999999996	0.0
C 	17.21658502723464	17.039999999999996	0.0
C 	18.446341100608546	17.749999999999996	0.0
C 	19.676097173982445	17.039999999999996	0.0
C 	20.905853247356347	17.749999999999996	0.0
C 	22.13560932073025	17.039999999999996	0.0
C 	23.365365394104153	17.749999999999996	0.0
C 	24.595121467478055	17.039999999999996	0.0
C 	25.82487754085196	17.749999999999996	0.0
C 	27.05463361422586	17.039999999999996	0.0
C 	28.28438968759977	17.75	0.0
C 	29.514145760973665	17.039999999999996	0.0
C 	30.74390183434757	17.749999999999996	0.0
C 	31.973657907721467	17.039999999999992	0.0
C 	33.20341398109537	17.749999999999993	0.0
C 	34.43317005446927	17.039999999999996	0.0
C 	35.66292612784318	17.749999999999996	0.0
C 	36.892682201217085	17.039999999999996	0.0
C 	38.122438274590984	17.749999999999996	0.0
C 	39.35219434796488	17.039999999999992	0.0
C 	40.58195042133879	17.749999999999993	0.0
C 	41.811706494712695	17.039999999999992	0.0
C 	43.041462568086594	17.749999999999993	0.0
C 	44.2712186414605	17.039999999999996	0.0
C 	45.500974714834406	17.749999999999996	0.0
C 	46.7307307882083	17.039999999999992	0.0
C 	47.960486861582204	17.749999999999993	0.0
C 	49.19024293495611	17.039999999999992	0.0
C 	50.41999900833002	17.749999999999993	0.0
C 	51.649755081703915	17.039999999999996	0.0
C 	52.87951115507782	17.749999999999996	0.0
C 	54.10926722845172	17.039999999999992	0.0
C 	55.33902330182562	17.749999999999993	0.0
C 	56.568779375199526	17.039999999999996	0.0
C 	57.79853544857343	17.749999999999996	0.0
C 	59.028291521947324	17.039999999999992	0.0
C 	60.25804759532123	17.749999999999993	0.0
C 	61.487803668695136	17.039999999999996	0.0
C 	62.71755974206904	17.749999999999996	0.0
C 	63.94731581544294	17.04	0.0
C 	65.17707188881684	17.749999999999993	0.0
C 	66.40682796219075	17.039999999999996	0.0
C 	67.63658403556464	17.74999999999999	0.0
C 	68.86634010893856	17.03999999999999	0.0
C 	70.09609618231246	17.74999999999999	0.0
C 	11.067804660365125	19.169999999999995	0.0
C 	12.297560733739026	19.879999999999995	0.0
C 	13.52731680711293	19.169999999999995	0.0
C 	14.757072880486831	19.879999999999995	0.0
C 	15.986828953860737	19.169999999999998	0.0
C 	17.216585027234636	19.879999999999992	0.0
C 	18.446341100608542	19.169999999999995	0.0
C 	19.676097173982445	19.879999999999995	0.0
C 	20.905853247356347	19.169999999999995	0.0
C 	22.135609320730246	19.879999999999995	0.0
C 	23.365365394104153	19.169999999999995	0.0
C 	24.59512146747805	19.879999999999995	0.0
C 	25.824877540851958	19.169999999999995	0.0
C 	27.05463361422586	19.879999999999995	0.0
C 	28.284389687599763	19.169999999999995	0.0
C 	29.51414576097367	19.879999999999995	0.0
C 	30.743901834347565	19.16999999999999	0.0
C 	31.97365790772147	19.879999999999992	0.0
C 	33.20341398109537	19.169999999999995	0.0
C 	34.43317005446927	19.879999999999992	0.0
C 	35.66292612784318	19.169999999999995	0.0
C 	36.89268220121708	19.879999999999992	0.0
C 	38.122438274590984	19.169999999999995	0.0
C 	39.35219434796488	19.879999999999992	0.0
C 	40.58195042133879	19.16999999999999	0.0
C 	41.81170649471269	19.87999999999999	0.0
C 	43.0414625680866	19.169999999999995	0.0
C 	44.27121864146049	19.879999999999992	0.0
C 	45.5009747148344	19.16999999999999	0.0
C 	46.730730788208305	19.879999999999992	0.0
C 	47.960486861582204	19.169999999999995	0.0
C 	49.1902429349561	19.879999999999992	0.0
C 	50.41999900833002	19.169999999999995	0.0
C 	51.649755081703915	19.879999999999992	0.0
C 	52.879511155077815	19.16999999999999	0.0
C 	54.10926722845172	19.879999999999992	0.0
C 	55.33902330182562	19.16999999999999	0.0
C 	56.56877937519952	19.879999999999992	0.0
C 	57.79853544857343	19.169999999999995	0.0
C 	59.02829152194733	19.879999999999992	0.0
C 	60.25804759532123	19.169999999999995	0.0
C 	61.48780366869513	19.879999999999992	0.0
C 	62.717559742069035	19.16999999999999	0.0
C 	63.94731581544294	19.879999999999992	0.0
C 	65.17707188881684	19.169999999999995	0.0
C 	66.40682796219075	19.87999999999999	0.0
C 	67.63658403556465	19.169999999999995	0.0
C 	68.86634010893854	19.87999999999999	0.0
C 	70.09609618231245	19.16999999999999	0.0
C 	71.32585225568636	19.879999999999992	0.0
C 	12.297560733739028	21.299999999999994	0.0
C 	13.527316807112932	22.009999999999994	0.0
C 	14.757072880486831	21.299999999999994	0.0
C 	15.986828953860735	22.009999999999994	0.0
C 	17.216585027234636	21.299999999999994	0.0
C 	18.44634110060854	22.009999999999994	0.0
C 	19.676097173982445	21.299999999999994	0.0
C 	20.905853247356347	22.009999999999994	0.0
C 	22.13560932073025	21.299999999999994	0.0
C 	23.365365394104153	22.009999999999994	0.0
C 	24.595121467478055	21.299999999999994	0.0
C 	25.824877540851958	22.009999999999994	0.0
C 	27.05463361422586	21.299999999999994	0.0
C 	28.284389687599766	22.009999999999994	0.0
C 	29.514145760973662	21.29999999999999	0.0
C 	30.743901834347568	22.00999999999999	0.0
C 	31.97365790772147	21.299999999999994	0.0
C 	33.20341398109537	22.009999999999994	0.0
C 	34.43317005446928	21.299999999999994	0.0
C 	35.662926127843185	22.009999999999994	0.0
C 	36.89268220121708	21.299999999999994	0.0
C 	38.122438274590984	22.009999999999994	0.0
C 	39.35219434796489	21.299999999999994	0.0
C 	40.58195042133879	22.009999999999994	0.0
C 	41.811706494712695	21.299999999999994	0.0
C 	43.0414625680866	22.009999999999994	0.0
C 	44.2712186414605	21.29999999999999	0.0
C 	45.5009747148344	22.00999999999999	0.0
C 	46.730730788208305	21.299999999999994	0.0
C 	47.96048686158221	22.009999999999994	0.0
C 	49.19024293495611	21.299999999999994	0.0
C 	50.41999900833002	22.009999999999994	0.0
C 	51.649755081703915	21.299999999999994	0.0
C 	52.879511155077815	22.00999999999999	0.0
C 	54.10926722845172	21.299999999999994	0.0
C 	55.33902330182563	22.009999999999994	0.0
C 	56.568779375199526	21.29999999999999	0.0
C 	57.798535448573425	22.00999999999999	0.0
C 	59.02829152194733	21.299999999999994	0.0
C 	60.25804759532124	22.009999999999994	0.0
C 	61.48780366869513	21.29999999999999	0.0
C 	62.717559742069035	22.00999999999999	0.0
C 	63.94731581544294	21.299999999999994	0.0
C 	65.17707188881684	22.009999999999987	0.0
C 	66.40682796219075	21.299999999999994	0.0
C 	67.63658403556465	22.009999999999994	0.0
C 	68.86634010893854	21.29999999999999	0.0
C 	70.09609618231245	22.00999999999999	0.0
C 	71.32585225568636	21.299999999999983	0.0
C 	72.55560832906026	22.00999999999999	0.0
C 	13.527316807112932	23.429999999999996	0.0
C 	14.757072880486836	24.139999999999997	0.0
C 	15.986828953860737	23.429999999999996	0.0
C 	17.216585027234643	24.139999999999997	0.0
C 	18.446341100608542	23.429999999999996	0.0
C 	19.676097173982445	24.139999999999997	0.0
C 	20.90585324735635	23.429999999999996	0.0
C 	22.135609320730254	24.139999999999997	0.0
C 	23.365365394104156	23.429999999999993	0.0
C 	24.595121467478062	24.139999999999997	0.0
C 	25.824877540851958	23.429999999999993	0.0
C 	27.054633614225864	24.139999999999993	0.0
C 	28.284389687599766	23.429999999999996	0.0
C 	29.514145760973673	24.139999999999997	0.0
C 	30.743901834347575	23.429999999999996	0.0
C 	31.973657907721478	24.139999999999997	0.0
C 	33.20341398109537	23.429999999999993	0.0
C 	34.43317005446928	24.139999999999993	0.0
C 	35.66292612784318	23.429999999999993	0.0
C 	36.892682201217085	24.139999999999993	0.0
C 	38.122438274590984	23.429999999999993	0.0
C 	39.35219434796489	24.139999999999993	0.0
C 	40.58195042133879	23.429999999999996	0.0
C 	41.811706494712695	24.139999999999993	0.0
C 	43.041462568086594	23.42999999999999	0.0
C 	44.2712186414605	24.13999999999999	0.0
C 	45.5009747148344	23.429999999999993	0.0
C 	46.730730788208305	24.139999999999993	0.0
C 	47.96048686158221	23.429999999999993	0.0
C 	49.19024293495611	24.139999999999993	0.0
C 	50.41999900833001	23.429999999999993	0.0
C 	51.649755081703915	24.13999999999999	0.0
C 	52.87951115507782	23.429999999999993	0.0
C 	54.10926722845172	24.139999999999993	0.0
C 	55.33902330182563	23.429999999999993	0.0
C 	56.56877937519953	24.139999999999993	0.0
C 	57.798535448573425	23.429999999999993	0.0
C 	59.02829152194733	24.139999999999993	0.0
C 	60.25804759532124	23.429999999999993	0.0
C 	61.487803668695136	24.13999999999999	0.0
C 	62.71755974206904	23.429999999999993	0.0
C 	63.947315815442934	24.139999999999986	0.0
C 	65.17707188881684	23.429999999999993	0.0
C 	66.40682796219075	24.139999999999993	0.0
C 	67.63658403556464	23.42999999999999	0.0
C 	68.86634010893856	24.139999999999997	0.0
C 	70.09609618231245	23.42999999999999	0.0
C 	71.32585225568636	24.139999999999997	0.0
C 	72.55560832906026	23.42999999999999	0.0
C 	73.78536440243417	24.13999999999999	0.0
C 	14.757072880486835	25.559999999999995	0.0
C 	15.986828953860735	26.269999999999996	0.0
C 	17.21658502723464	25.559999999999995	0.0
C 	18.44634110060854	26.269999999999996	0.0
C 	19.676097173982445	25.56	0.0
C 	20.905853247356344	26.269999999999996	0.0
C 	22.13560932073025	25.56	0.0
C 	23.365365394104153	26.269999999999996	0.0
C 	24.595121467478055	25.559999999999995	0.0
C 	25.824877540851958	26.269999999999996	0.0
C 	27.054633614225857	25.559999999999995	0.0
C 	28.28438968759976	26.269999999999996	0.0
C 	29.514145760973665	25.559999999999995	0.0
C 	30.743901834347568	26.269999999999996	0.0
C 	31.973657907721474	25.559999999999995	0.0
C 	33.20341398109538	26.269999999999996	0.0
C 	34.43317005446927	25.55999999999999	0.0
C 	35.66292612784318	26.269999999999992	0.0
C 	36.892682201217085	25.559999999999995	0.0
C 	38.12243827459098	26.269999999999992	0.0
C 	39.35219434796489	25.559999999999995	0.0
C 	40.58195042133879	26.269999999999992	0.0
C 	41.81170649471269	25.55999999999999	0.0
C 	43.041462568086594	26.269999999999992	0.0
C 	44.2712186414605	25.55999999999999	0.0
C 	45.5009747148344	26.26999999999999	0.0
C 	46.730730788208305	25.559999999999995	0.0
C 	47.960486861582204	26.269999999999992	0.0
C 	49.19024293495611	25.55999999999999	0.0
C 	50.41999900833001	26.269999999999992	0.0
C 	51.649755081703915	25.559999999999995	0.0
C 	52.879511155077815	26.269999999999992	0.0
C 	54.10926722845172	25.559999999999995	0.0
C 	55.33902330182562	26.269999999999992	0.0
C 	56.568779375199526	25.55999999999999	0.0
C 	57.79853544857343	26.269999999999992	0.0
C 	59.028291521947324	25.55999999999999	0.0
C 	60.25804759532123	26.269999999999992	0.0
C 	61.487803668695136	25.559999999999995	0.0
C 	62.717559742069035	26.26999999999999	0.0
C 	63.94731581544294	25.55999999999999	0.0
C 	65.17707188881683	26.269999999999985	0.0
C 	66.40682796219075	25.55999999999999	0.0
C 	67.63658403556465	26.269999999999992	0.0
C 	68.86634010893856	25.559999999999995	0.0
C 	70.09609618231246	26.269999999999996	0.0
C 	71.32585225568636	25.559999999999995	0.0
C 	72.55560832906026	26.269999999999996	0.0
C 	73.78536440243415	25.559999999999988	0.0
C 	75.01512047580806	26.26999999999999	0.0
C 	15.986828953860735	27.689999999999994	0.0
C 	17.21658502723464	28.399999999999995	0.0
C 	18.446341100608542	27.689999999999994	0.0
C 	19.676097173982445	28.399999999999995	0.0
C 	20.905853247356344	27.689999999999994	0.0
C 	22.13560932073025	28.399999999999995	0.0
C 	23.365365394104153	27.689999999999994	0.0
C 	24.59512146747806	28.399999999999995	0.0
C 	25.824877540851954	27.689999999999994	0.0
C 	27.054633614225857	28.399999999999995	0.0
C 	28.284389687599763	27.689999999999994	0.0
C 	29.514145760973665	28.399999999999995	0.0
C 	30.74390183434757	27.689999999999994	0.0
C 	31.973657907721474	28.399999999999995	0.0
C 	33.20341398109537	27.68999999999999	0.0
C 	34.43317005446928	28.39999999999999	0.0
C 	35.66292612784318	27.689999999999994	0.0
C 	36.892682201217085	28.399999999999995	0.0
C 	38.122438274590984	27.689999999999994	0.0
C 	39.35219434796489	28.399999999999995	0.0
C 	40.58195042133879	27.689999999999994	0.0
C 	41.811706494712695	28.399999999999995	0.0
C 	43.041462568086594	27.689999999999994	0.0
C 	44.2712186414605	28.399999999999995	0.0
C 	45.500974714834406	27.689999999999994	0.0
C 	46.730730788208305	28.399999999999995	0.0
C 	47.960486861582204	27.68999999999999	0.0
C 	49.19024293495611	28.39999999999999	0.0
C 	50.41999900833002	27.689999999999994	0.0
C 	51.649755081703915	28.399999999999995	0.0
C 	52.87951115507782	27.689999999999994	0.0
C 	54.10926722845173	28.399999999999995	0.0
C 	55.33902330182562	27.68999999999999	0.0
C 	56.568779375199526	28.39999999999999	0.0
C 	57.79853544857343	27.689999999999994	0.0
C 	59.02829152194733	28.39999999999999	0.0
C 	60.25804759532124	27.689999999999994	0.0
C 	61.48780366869513	28.399999999999988	0.0
C 	62.717559742069035	27.689999999999994	0.0
C 	63.94731581544294	28.399999999999995	0.0
C 	65.17707188881684	27.68999999999999	0.0
C 	66.40682796219075	28.39999999999999	0.0
C 	67.63658403556464	27.689999999999987	0.0
C 	68.86634010893856	28.399999999999995	0.0
C 	70.09609618231245	27.689999999999994	0.0
C 	71.32585225568636	28.399999999999995	0.0
C 	72.55560832906026	27.68999999999999	0.0
C 	73.78536440243415	28.39999999999999	0.0
C 	75.01512047580808	27.689999999999994	0.0
C 	76.24487654918197	28.399999999999984	0.0
C 	17.21658502723464	29.819999999999997	0.0
C 	18.446341100608546	30.529999999999998	0.0
C 	19.676097173982445	29.819999999999997	0.0
C 	20.905853247356355	30.529999999999998	0.0
C 	22.13560932073025	29.819999999999993	0.0
C 	23.365365394104156	30.529999999999994	0.0
C 	24.59512146747806	29.819999999999997	0.0
C 	25.82487754085196	30.529999999999998	0.0
C 	27.054633614225867	29.819999999999997	0.0
C 	28.28438968759977	30.529999999999998	0.0
C 	29.514145760973665	29.819999999999997	0.0
C 	30.74390183434757	30.529999999999998	0.0
C 	31.973657907721474	29.819999999999997	0.0
C 	33.20341398109538	30.529999999999998	0.0
C 	34.43317005446928	29.819999999999997	0.0
C 	35.662926127843185	30.529999999999998	0.0
C 	36.892682201217085	29.819999999999993	0.0
C 	38.12243827459099	30.529999999999994	0.0
C 	39.35219434796488	29.819999999999993	0.0
C 	40.58195042133879	30.529999999999994	0.0
C 	41.811706494712695	29.819999999999993	0.0
C 	43.0414625680866	30.529999999999994	0.0
C 	44.2712186414605	29.819999999999993	0.0
C 	45.500974714834406	30.529999999999994	0.0
C 	46.730730788208305	29.81999999999999	0.0
C 	47.960486861582204	30.52999999999999	0.0
C 	49.19024293495611	29.819999999999993	0.0
C 	50.41999900833002	30.529999999999994	0.0
C 	51.649755081703915	29.819999999999993	0.0
C 	52.87951115507782	30.529999999999994	0.0
C 	54.10926722845172	29.819999999999993	0.0
C 	55.33902330182563	30.52999999999999	0.0
C 	56.568779375199526	29.819999999999993	0.0
C 	57.798535448573425	30.52999999999999	0.0
C 	59.02829152194734	29.819999999999993	0.0
C 	60.25804759532124	30.529999999999994	0.0
C 	61.487803668695136	29.819999999999993	0.0
C 	62.71755974206904	30.529999999999994	0.0
C 	63.947315815442934	29.81999999999999	0.0
C 	65.17707188881685	30.529999999999998	0.0
C 	66.40682796219073	29.819999999999986	0.0
C 	67.63658403556465	30.529999999999994	0.0
C 	68.86634010893856	29.819999999999993	0.0
C 	70.09609618231245	30.529999999999994	0.0
C 	71.32585225568637	29.819999999999997	0.0
C 	72.55560832906026	30.52999999999999	0.0
C 	73.78536440243417	29.819999999999997	0.0
C 	75.01512047580806	30.529999999999987	0.0
C 	76.24487654918197	29.81999999999999	0.0
C 	77.47463262255587	30.52999999999999	0.0
C 	18.446341100608542	31.949999999999996	0.0
C 	19.676097173982445	32.65999999999999	0.0
C 	20.905853247356347	31.949999999999992	0.0
C 	22.135609320730254	32.66	0.0
C 	23.365365394104156	31.949999999999996	0.0
C 	24.595121467478055	32.65999999999999	0.0
C 	25.824877540851958	31.949999999999992	0.0
C 	27.05463361422586	32.66	0.0
C 	28.284389687599766	31.949999999999996	0.0
C 	29.51414576097367	32.66	0.0
C 	30.743901834347568	31.949999999999992	0.0
C 	31.97365790772147	32.66	0.0
C 	33.20341398109537	31.949999999999992	0.0
C 	34.43317005446928	32.66	0.0
C 	35.66292612784318	31.949999999999996	0.0
C 	36.892682201217085	32.66	0.0
C 	38.122438274590984	31.949999999999992	0.0
C 	39.35219434796489	32.65999999999999	0.0
C 	40.58195042133879	31.949999999999992	0.0
C 	41.81170649471269	32.65999999999999	0.0
C 	43.0414625680866	31.949999999999996	0.0
C 	44.2712186414605	32.65999999999999	0.0
C 	45.5009747148344	31.949999999999992	0.0
C 	46.730730788208305	32.65999999999999	0.0
C 	47.96048686158221	31.949999999999992	0.0
C 	49.1902429349561	32.65999999999999	0.0
C 	50.41999900833002	31.949999999999992	0.0
C 	51.649755081703915	32.65999999999999	0.0
C 	52.879511155077815	31.949999999999992	0.0
C 	54.10926722845172	32.65999999999999	0.0
C 	55.33902330182563	31.949999999999992	0.0
C 	56.568779375199526	32.65999999999999	0.0
C 	57.79853544857343	31.949999999999992	0.0
C 	59.028291521947324	32.65999999999999	0.0
C 	60.25804759532124	31.949999999999992	0.0
C 	61.487803668695136	32.65999999999999	0.0
C 	62.717559742069035	31.94999999999999	0.0
C 	63.94731581544294	32.65999999999999	0.0
C 	65.17707188881685	31.949999999999992	0.0
C 	66.40682796219076	32.66	0.0
C 	67.63658403556465	31.949999999999992	0.0
C 	68.86634010893856	32.65999999999999	0.0
C 	70.09609618231245	31.94999999999999	0.0
C 	71.32585225568636	32.65999999999999	0.0
C 	72.55560832906026	31.949999999999996	0.0
C 	73.78536440243415	32.65999999999999	0.0
C 	75.01512047580806	31.949999999999992	0.0
C 	76.24487654918195	32.65999999999998	0.0
C 	77.47463262255587	31.949999999999985	0.0
C 	78.70438869592978	32.65999999999999	0.0
C 	19.676097173982445	34.07999999999999	0.0
C 	20.90585324735635	34.78999999999999	0.0
C 	22.135609320730254	34.07999999999999	0.0
C 	23.365365394104156	34.78999999999999	0.0
C 	24.595121467478055	34.07999999999999	0.0
C 	25.824877540851958	34.78999999999999	0.0
C 	27.054633614225864	34.07999999999999	0.0
C 	28.284389687599766	34.78999999999999	0.0
C 	29.514145760973665	34.07999999999999	0.0
C 	30.743901834347568	34.78999999999999	0.0
C 	31.97365790772147	34.07999999999999	0.0
C 	33.20341398109537	34.78999999999999	0.0
C 	34.43317005446928	34.07999999999999	0.0
C 	35.662926127843185	34.78999999999999	0.0
C 	36.89268220121708	34.07999999999999	0.0
C 	38.122438274590984	34.78999999999999	0.0
C 	39.35219434796489	34.07999999999999	0.0
C 	40.581950421338796	34.78999999999999	0.0
C 	41.811706494712695	34.07999999999999	0.0
C 	43.0414625680866	34.78999999999999	0.0
C 	44.2712186414605	34.07999999999999	0.0
C 	45.5009747148344	34.78999999999999	0.0
C 	46.730730788208305	34.07999999999999	0.0
C 	47.96048686158221	34.78999999999999	0.0
C 	49.19024293495611	34.07999999999999	0.0
C 	50.41999900833002	34.78999999999999	0.0
C 	51.649755081703915	34.07999999999999	0.0
C 	52.87951115507782	34.78999999999999	0.0
C 	54.10926722845172	34.07999999999999	0.0
C 	55.33902330182562	34.78999999999999	0.0
C 	56.56877937519953	34.07999999999999	0.0
C 	57.79853544857343	34.78999999999999	0.0
C 	59.02829152194733	34.07999999999999	0.0
C 	60.25804759532124	34.78999999999999	0.0
C 	61.487803668695136	34.07999999999999	0.0
C 	62.71755974206905	34.79	0.0
C 	63.947315815442934	34.079999999999984	0.0
C 	65.17707188881685	34.78999999999999	0.0
C 	66.40682796219075	34.07999999999999	0.0
C 	67.63658403556465	34.78999999999999	0.0
C 	68.86634010893854	34.07999999999999	0.0
C 	70.09609618231245	34.78999999999999	0.0
C 	71.32585225568636	34.07999999999999	0.0
C 	72.55560832906025	34.789999999999985	0.0
C 	73.78536440243417	34.07999999999999	0.0
C 	75.01512047580808	34.78999999999999	0.0
C 	76.24487654918197	34.07999999999999	0.0
C 	77.47463262255587	34.78999999999999	0.0
C 	78.70438869592977	34.079999999999984	0.0
C 	79.93414476930369	34.78999999999999	0.0
C 	20.90585324735635	36.209999999999994	0.0
C 	22.135609320730254	36.919999999999995	0.0
C 	23.36536539410416	36.209999999999994	0.0
C 	24.595121467478062	36.919999999999995	0.0
C 	25.82487754085196	36.209999999999994	0.0
C 	27.054633614225864	36.919999999999995	0.0
C 	28.284389687599766	36.209999999999994	0.0
C 	29.514145760973673	36.919999999999995	0.0
C 	30.743901834347575	36.209999999999994	0.0
C 	31.973657907721478	36.919999999999995	0.0
C 	33.20341398109537	36.209999999999994	0.0
C 	34.43317005446928	36.919999999999995	0.0
C 	35.662926127843185	36.209999999999994	0.0
C 	36.89268220121709	36.919999999999995	0.0
C 	38.12243827459099	36.209999999999994	0.0
C 	39.3521943479649	36.919999999999995	0.0
C 	40.581950421338796	36.209999999999994	0.0
C 	41.811706494712695	36.919999999999995	0.0
C 	43.041462568086594	36.209999999999994	0.0
C 	44.2712186414605	36.919999999999995	0.0
C 	45.500974714834406	36.209999999999994	0.0
C 	46.730730788208305	36.919999999999995	0.0
C 	47.96048686158221	36.209999999999994	0.0
C 	49.19024293495612	36.919999999999995	0.0
C 	50.41999900833002	36.20999999999999	0.0
C 	51.649755081703915	36.91999999999999	0.0
C 	52.87951115507782	36.209999999999994	0.0
C 	54.10926722845172	36.91999999999999	0.0
C 	55.33902330182563	36.209999999999994	0.0
C 	56.56877937519953	36.919999999999995	0.0
C 	57.79853544857343	36.20999999999999	0.0
C 	59.02829152194733	36.91999999999999	0.0
C 	60.25804759532123	36.20999999999999	0.0
C 	61.48780366869515	36.919999999999995	0.0
C 	62.71755974206904	36.209999999999994	0.0
C 	63.94731581544295	36.919999999999995	0.0
C 	65.17707188881684	36.209999999999994	0.0
C 	66.40682796219075	36.919999999999995	0.0
C 	67.63658403556467	36.209999999999994	0.0
C 	68.86634010893856	36.91999999999999	0.0
C 	70.09609618231246	36.209999999999994	0.0
C 	71.32585225568636	36.91999999999999	0.0
C 	72.55560832906026	36.209999999999994	0.0
C 	73.78536440243417	36.919999999999995	0.0
C 	75.01512047580806	36.20999999999999	0.0
C 	76.24487654918198	36.919999999999995	0.0
C 	77.47463262255586	36.20999999999999	0.0
C 	78.70438869592978	36.919999999999995	0.0
C 	79.93414476930369	36.20999999999999	0.0
C 	81.16390084267759	36.91999999999999	0.0
C 	22.13560932073025	38.33999999999999	0.0
C 	23.365365394104153	39.04999999999999	0.0
C 	24.59512146747806	38.33999999999999	0.0
C 	25.82487754085196	39.04999999999999	0.0
C 	27.05463361422586	38.33999999999999	0.0
C 	28.284389687599763	39.04999999999999	0.0
C 	29.514145760973665	38.33999999999999	0.0
C 	30.74390183434757	39.04999999999999	0.0
C 	31.973657907721474	38.339999999999996	0.0
C 	33.20341398109538	39.04999999999999	0.0
C 	34.43317005446927	38.33999999999999	0.0
C 	35.66292612784318	39.04999999999999	0.0
C 	36.892682201217085	38.33999999999999	0.0
C 	38.12243827459099	39.04999999999999	0.0
C 	39.35219434796489	38.33999999999999	0.0
C 	40.581950421338796	39.04999999999999	0.0
C 	41.811706494712695	38.33999999999999	0.0
C 	43.0414625680866	39.04999999999999	0.0
C 	44.27121864146049	38.33999999999999	0.0
C 	45.5009747148344	39.04999999999999	0.0
C 	46.730730788208305	38.33999999999999	0.0
C 	47.960486861582204	39.04999999999999	0.0
C 	49.19024293495611	38.33999999999999	0.0
C 	50.41999900833002	39.04999999999999	0.0
C 	51.649755081703915	38.33999999999999	0.0
C 	52.879511155077815	39.04999999999999	0.0
C 	54.10926722845173	38.33999999999999	0.0
C 	55.33902330182562	39.04999999999998	0.0
C 	56.568779375199526	38.33999999999999	0.0
C 	57.79853544857343	39.04999999999999	0.0
C 	59.02829152194733	38.33999999999999	0.0
C 	60.25804759532123	39.04999999999999	0.0
C 	61.48780366869513	38.33999999999998	0.0
C 	62.71755974206905	39.04999999999999	0.0
C 	63.94731581544294	38.33999999999999	0.0
C 	65.17707188881685	39.04999999999999	0.0
C 	66.40682796219075	38.33999999999999	0.0
C 	67.63658403556465	39.04999999999999	0.0
C 	68.86634010893856	38.33999999999999	0.0
C 	70.09609618231245	39.04999999999998	0.0
C 	71.32585225568636	38.33999999999999	0.0
C 	72.55560832906025	39.04999999999998	0.0
C 	73.78536440243415	38.33999999999999	0.0
C 	75.01512047580806	39.04999999999999	0.0
C 	76.24487654918197	38.33999999999999	0.0
C 	77.47463262255587	39.05	0.0
C 	78.70438869592977	38.33999999999998	0.0
C 	79.93414476930369	39.04999999999999	0.0
C 	81.16390084267758	38.33999999999998	0.0
C 	82.39365691605148	39.04999999999998	0.0
C 	23.365365394104156	40.46999999999999	0.0
C 	24.59512146747806	41.17999999999999	0.0
C 	25.82487754085196	40.46999999999999	0.0
C 	27.054633614225867	41.17999999999999	0.0
C 	28.284389687599763	40.46999999999999	0.0
C 	29.51414576097367	41.17999999999999	0.0
C 	30.74390183434757	40.46999999999999	0.0
C 	31.973657907721474	41.17999999999999	0.0
C 	33.20341398109537	40.46999999999999	0.0
C 	34.43317005446928	41.17999999999999	0.0
C 	35.66292612784318	40.46999999999999	0.0
C 	36.892682201217085	41.17999999999999	0.0
C 	38.12243827459099	40.46999999999999	0.0
C 	39.3521943479649	41.17999999999999	0.0
C 	40.58195042133879	40.46999999999999	0.0
C 	41.811706494712695	41.17999999999999	0.0
C 	43.0414625680866	40.46999999999999	0.0
C 	44.2712186414605	41.17999999999999	0.0
C 	45.500974714834406	40.46999999999999	0.0
C 	46.73073078820831	41.17999999999999	0.0
C 	47.960486861582204	40.46999999999999	0.0
C 	49.19024293495611	41.17999999999999	0.0
C 	50.41999900833002	40.46999999999999	0.0
C 	51.649755081703915	41.179999999999986	0.0
C 	52.87951115507782	40.46999999999999	0.0
C 	54.10926722845173	41.17999999999999	0.0
C 	55.33902330182563	40.46999999999999	0.0
C 	56.568779375199526	41.17999999999999	0.0
C 	57.798535448573425	40.469999999999985	0.0
C 	59.028291521947345	41.17999999999999	0.0
C 	60.25804759532124	40.46999999999999	0.0
C 	61.48780366869514	41.17999999999999	0.0
C 	62.71755974206904	40.46999999999999	0.0
C 	63.94731581544295	41.17999999999999	0.0
C 	65.17707188881685	40.46999999999999	0.0
C 	66.40682796219075	41.179999999999986	0.0
C 	67.63658403556465	40.46999999999999	0.0
C 	68.86634010893854	41.179999999999986	0.0
C 	70.09609618231246	40.46999999999999	0.0
C 	71.32585225568636	41.17999999999999	0.0
C 	72.55560832906026	40.469999999999985	0.0
C 	73.78536440243417	41.179999999999986	0.0
C 	75.01512047580806	40.469999999999985	0.0
C 	76.24487654918198	41.17999999999999	0.0
C 	77.47463262255587	40.46999999999999	0.0
C 	78.70438869592978	41.17999999999999	0.0
C 	79.93414476930367	40.469999999999985	0.0
C 	81.16390084267758	41.179999999999986	0.0
C 	82.3936569160515	40.46999999999999	0.0
C 	83.62341298942539	41.179999999999986	0.0
C 	24.595121467478055	42.59999999999999	0.0
C 	25.82487754085196	43.30999999999999	0.0
C 	27.05463361422586	42.59999999999999	0.0
C 	28.284389687599766	43.30999999999999	0.0
C 	29.514145760973662	42.59999999999999	0.0
C 	30.743901834347568	43.30999999999999	0.0
C 	31.97365790772147	42.59999999999999	0.0
C 	33.20341398109537	43.30999999999999	0.0
C 	34.43317005446927	42.59999999999999	0.0
C 	35.66292612784318	43.30999999999999	0.0
C 	36.89268220121708	42.59999999999999	0.0
C 	38.122438274590984	43.30999999999999	0.0
C 	39.35219434796489	42.59999999999999	0.0
C 	40.581950421338796	43.30999999999999	0.0
C 	41.81170649471269	42.59999999999999	0.0
C 	43.041462568086594	43.30999999999999	0.0
C 	44.2712186414605	42.59999999999999	0.0
C 	45.5009747148344	43.30999999999999	0.0
C 	46.730730788208305	42.59999999999999	0.0
C 	47.96048686158221	43.30999999999999	0.0
C 	49.19024293495611	42.59999999999999	0.0
C 	50.41999900833001	43.30999999999999	0.0
C 	51.64975508170392	42.599999999999994	0.0
C 	52.879511155077815	43.30999999999999	0.0
C 	54.10926722845172	42.59999999999999	0.0
C 	55.33902330182563	43.30999999999999	0.0
C 	56.568779375199526	42.59999999999999	0.0
C 	57.798535448573425	43.30999999999999	0.0
C 	59.028291521947324	42.59999999999998	0.0
C 	60.258047595321244	43.30999999999999	0.0
C 	61.487803668695136	42.59999999999999	0.0
C 	62.71755974206904	43.30999999999999	0.0
C 	63.94731581544294	42.59999999999999	0.0
C 	65.17707188881684	43.30999999999999	0.0
C 	66.40682796219076	42.599999999999994	0.0
C 	67.63658403556465	43.30999999999999	0.0
C 	68.86634010893856	42.59999999999999	0.0
C 	70.09609618231245	43.30999999999998	0.0
C 	71.32585225568636	42.59999999999999	0.0
C 	72.55560832906026	43.30999999999999	0.0
C 	73.78536440243415	42.59999999999999	0.0
C 	75.01512047580806	43.30999999999999	0.0
C 	76.24487654918197	42.59999999999998	0.0
C 	77.47463262255587	43.30999999999999	0.0
C 	78.70438869592978	42.59999999999999	0.0
C 	79.93414476930367	43.30999999999999	0.0
C 	81.16390084267758	42.59999999999999	0.0
C 	82.39365691605148	43.30999999999999	0.0
C 	83.62341298942539	42.59999999999999	0.0
C 	84.85316906279928	43.30999999999998	0.0
C 	25.82487754085196	44.72999999999999	0.0
C 	27.054633614225864	45.43999999999999	0.0
C 	28.284389687599766	44.72999999999999	0.0
C 	29.514145760973673	45.43999999999999	0.0
C 	30.743901834347568	44.72999999999999	0.0
C 	31.97365790772147	45.43999999999999	0.0
C 	33.20341398109537	44.72999999999999	0.0
C 	34.43317005446928	45.43999999999999	0.0
C 	35.662926127843185	44.72999999999999	0.0
C 	36.892682201217085	45.43999999999999	0.0
C 	38.122438274590984	44.72999999999999	0.0
C 	39.35219434796489	45.43999999999999	0.0
C 	40.581950421338796	44.72999999999999	0.0
C 	41.811706494712695	45.43999999999999	0.0
C 	43.0414625680866	44.72999999999999	0.0
C 	44.27121864146051	45.43999999999999	0.0
C 	45.500974714834406	44.72999999999999	0.0
C 	46.730730788208305	45.43999999999999	0.0
C 	47.960486861582204	44.72999999999999	0.0
C 	49.19024293495611	45.43999999999998	0.0
C 	50.41999900833002	44.72999999999999	0.0
C 	51.64975508170391	45.43999999999998	0.0
C 	52.87951115507782	44.72999999999999	0.0
C 	54.10926722845172	45.43999999999999	0.0
C 	55.33902330182562	44.72999999999998	0.0
C 	56.568779375199526	45.43999999999998	0.0
C 	57.798535448573425	44.72999999999998	0.0
C 	59.02829152194734	45.43999999999999	0.0
C 	60.25804759532124	44.72999999999999	0.0
C 	61.48780366869514	45.43999999999999	0.0
C 	62.717559742069035	44.72999999999998	0.0
C 	63.94731581544294	45.43999999999998	0.0
C 	65.17707188881685	44.72999999999999	0.0
C 	66.40682796219075	45.43999999999998	0.0
C 	67.63658403556465	44.72999999999999	0.0
C 	68.86634010893856	45.43999999999999	0.0
C 	70.09609618231245	44.72999999999999	0.0
C 	71.32585225568636	45.43999999999998	0.0
C 	72.55560832906026	44.72999999999998	0.0
C 	73.78536440243417	45.43999999999999	0.0
C 	75.01512047580806	44.72999999999998	0.0
C 	76.24487654918198	45.43999999999999	0.0
C 	77.47463262255587	44.72999999999999	0.0
C 	78.70438869592978	45.43999999999999	0.0
C 	79.93414476930369	44.72999999999999	0.0
C 	81.16390084267758	45.43999999999998	0.0
C 	82.39365691605148	44.72999999999999	0.0
C 	83.62341298942538	45.43999999999998	0.0
C 	84.8531690627993	44.72999999999998	0.0
C 	86.08292513617319	45.43999999999998	0.0
C 	27.054633614225864	46.85999999999999	0.0
C 	28.28438968759977	47.56999999999999	0.0
C 	29.514145760973673	46.85999999999999	0.0
C 	30.74390183434758	47.56999999999999	0.0
C 	31.973657907721474	46.85999999999999	0.0
C 	33.20341398109538	47.56999999999999	0.0
C 	34.43317005446928	46.85999999999999	0.0
C 	35.662926127843185	47.56999999999999	0.0
C 	36.892682201217085	46.85999999999999	0.0
C 	38.122438274590984	47.56999999999999	0.0
C 	39.35219434796489	46.85999999999999	0.0
C 	40.581950421338796	47.56999999999999	0.0
C 	41.8117064947127	46.85999999999999	0.0
C 	43.0414625680866	47.56999999999999	0.0
C 	44.2712186414605	46.85999999999999	0.0
C 	45.500974714834406	47.56999999999999	0.0
C 	46.73073078820831	46.859999999999985	0.0
C 	47.960486861582204	47.569999999999986	0.0
C 	49.19024293495612	46.85999999999999	0.0
C 	50.41999900833002	47.56999999999999	0.0
C 	51.649755081703915	46.859999999999985	0.0
C 	52.87951115507782	47.569999999999986	0.0
C 	54.10926722845172	46.859999999999985	0.0
C 	55.339023301825634	47.56999999999999	0.0
C 	56.56877937519953	46.85999999999999	0.0
C 	57.79853544857344	47.56999999999999	0.0
C 	59.02829152194733	46.859999999999985	0.0
C 	60.25804759532124	47.569999999999986	0.0
C 	61.48780366869515	46.85999999999999	0.0
C 	62.71755974206904	47.569999999999986	0.0
C 	63.94731581544295	46.85999999999999	0.0
C 	65.17707188881685	47.56999999999999	0.0
C 	66.40682796219075	46.859999999999985	0.0
C 	67.63658403556465	47.569999999999986	0.0
C 	68.86634010893856	46.859999999999985	0.0
C 	70.09609618231246	47.56999999999999	0.0
C 	71.32585225568636	46.859999999999985	0.0
C 	72.55560832906028	47.56999999999999	0.0
C 	73.78536440243417	46.859999999999985	0.0
C 	75.01512047580808	47.569999999999986	0.0
C 	76.24487654918197	46.859999999999985	0.0
C 	77.47463262255587	47.569999999999986	0.0
C 	78.70438869592978	46.85999999999999	0.0
C 	79.93414476930367	47.569999999999986	0.0
C 	81.16390084267758	46.85999999999999	0.0
C 	82.39365691605148	47.56999999999999	0.0
C 	83.62341298942539	46.859999999999985	0.0
C 	84.8531690627993	47.569999999999986	0.0
C 	86.08292513617319	46.85999999999998	0.0
C 	87.31268120954711	47.569999999999986	0.0
C 	28.284389687599763	48.98999999999999	0.0
C 	29.51414576097367	49.69999999999999	0.0
C 	30.74390183434757	48.98999999999999	0.0
C 	31.973657907721478	49.69999999999999	0.0
C 	33.20341398109537	48.98999999999999	0.0
C 	34.43317005446928	49.69999999999999	0.0
C 	35.66292612784318	48.98999999999999	0.0
C 	36.892682201217085	49.69999999999999	0.0
C 	38.122438274590984	48.98999999999999	0.0
C 	39.35219434796488	49.69999999999999	0.0
C 	40.58195042133879	48.98999999999999	0.0
C 	41.811706494712695	49.69999999999999	0.0
C 	43.041462568086594	48.98999999999999	0.0
C 	44.2712186414605	49.69999999999999	0.0
C 	45.5009747148344	48.98999999999999	0.0
C 	46.730730788208305	49.69999999999998	0.0
C 	47.96048686158221	48.98999999999999	0.0
C 	49.1902429349561	49.69999999999998	0.0
C 	50.41999900833002	48.98999999999999	0.0
C 	51.64975508170392	49.69999999999999	0.0
C 	52.879511155077815	48.98999999999999	0.0
C 	54.10926722845172	49.69999999999999	0.0
C 	55.33902330182562	48.98999999999998	0.0
C 	56.56877937519953	49.69999999999999	0.0
C 	57.79853544857343	48.98999999999999	0.0
C 	59.02829152194734	49.69999999999999	0.0
C 	60.25804759532124	48.98999999999999	0.0
C 	61.487803668695136	49.69999999999999	0.0
C 	62.71755974206905	48.98999999999999	0.0
C 	63.94731581544294	49.69999999999998	0.0
C 	65.17707188881685	48.98999999999999	0.0
C 	66.40682796219075	49.69999999999999	0.0
C 	67.63658403556465	48.98999999999999	0.0
C 	68.86634010893856	49.69999999999999	0.0
C 	70.09609618231245	48.98999999999998	0.0
C 	71.32585225568637	49.69999999999999	0.0
C 	72.55560832906025	48.98999999999998	0.0
C 	73.78536440243417	49.69999999999999	0.0
C 	75.01512047580806	48.98999999999999	0.0
C 	76.24487654918197	49.69999999999999	0.0
C 	77.47463262255587	48.98999999999998	0.0
C 	78.70438869592978	49.69999999999998	0.0
C 	79.93414476930369	48.98999999999999	0.0
C 	81.16390084267758	49.69999999999998	0.0
C 	82.39365691605148	48.98999999999999	0.0
C 	83.62341298942539	49.69999999999999	0.0
C 	84.85316906279928	48.98999999999998	0.0
C 	86.08292513617319	49.69999999999998	0.0
C 	87.3126812095471	48.98999999999998	0.0
C 	88.542437282921	49.69999999999999	0.0
C 	29.51414576097367	51.11999999999999	0.0
C 	30.74390183434757	51.82999999999999	0.0
C 	31.973657907721474	51.11999999999999	0.0
C 	33.20341398109538	51.82999999999999	0.0
C 	34.43317005446928	51.11999999999999	0.0
C 	35.66292612784318	51.82999999999999	0.0
C 	36.892682201217085	51.11999999999999	0.0
C 	38.12243827459099	51.82999999999999	0.0
C 	39.35219434796489	51.12	0.0
C 	40.581950421338796	51.83	0.0
C 	41.811706494712695	51.11999999999999	0.0
C 	43.041462568086594	51.82999999999999	0.0
C 	44.2712186414605	51.12	0.0
C 	45.5009747148344	51.82999999999999	0.0
C 	46.73073078820831	51.11999999999999	0.0
C 	47.96048686158221	51.82999999999999	0.0
C 	49.19024293495611	51.11999999999999	0.0
C 	50.41999900833002	51.82999999999999	0.0
C 	51.649755081703915	51.11999999999998	0.0
C 	52.879511155077815	51.829999999999984	0.0
C 	54.10926722845171	51.11999999999999	0.0
C 	55.33902330182563	51.83	0.0
C 	56.568779375199526	51.11999999999999	0.0
C 	57.79853544857343	51.82999999999999	0.0
C 	59.02829152194733	51.11999999999999	0.0
C 	60.25804759532124	51.82999999999999	0.0
C 	61.48780366869514	51.11999999999999	0.0
C 	62.717559742069035	51.829999999999984	0.0
C 	63.94731581544295	51.11999999999999	0.0
C 	65.17707188881685	51.82999999999999	0.0
C 	66.40682796219075	51.11999999999999	0.0
C 	67.63658403556465	51.82999999999999	0.0
C 	68.86634010893854	51.11999999999998	0.0
C 	70.09609618231246	51.82999999999999	0.0
C 	71.32585225568636	51.11999999999999	0.0
C 	72.55560832906026	51.82999999999999	0.0
C 	73.78536440243417	51.11999999999999	0.0
C 	75.01512047580806	51.82999999999999	0.0
C 	76.24487654918198	51.11999999999999	0.0
C 	77.47463262255587	51.829999999999984	0.0
C 	78.70438869592978	51.11999999999999	0.0
C 	79.93414476930367	51.829999999999984	0.0
C 	81.16390084267758	51.11999999999999	0.0
C 	82.39365691605148	51.82999999999999	0.0
C 	83.62341298942538	51.11999999999998	0.0
C 	84.8531690627993	51.82999999999999	0.0
C 	86.08292513617319	51.11999999999998	0.0
C 	87.3126812095471	51.82999999999999	0.0
C 	88.542437282921	51.11999999999998	0.0
C 	89.7721933562949	51.829999999999984	0.0
C 	51.83871109282055	0.7805333017131055	2.15
C 	53.19373235931367	1.20517122671675	2.15
C 	53.50349576209676	2.590973028669773	2.15
C 	54.85851702858988	3.015610953673416	2.15
C 	55.16828043137297	4.401412755626439	2.15
C 	56.52330169786609	4.826050680630075	2.15
C 	56.83306510064918	6.211852482583098	2.15
C 	58.18808636714228	6.636490407586745	2.15
C 	58.497849769925374	8.022292209539769	2.15
C 	47.77364729334122	-0.4933804732978266	2.15
C 	49.12866855983434	-0.06874254829418376	2.15
C 	49.43843196261743	1.3170592536588395	2.15
C 	50.79345322911054	1.741697178662477	2.15
C 	51.10321663189363	3.1274989806155005	2.15
C 	52.45823789838674	3.552136905619145	2.15
C 	52.76800130116983	4.937938707572168	2.15
C 	54.12302256766294	5.362576632575813	2.15
C 	54.432785970446034	6.748378434528836	2.15
C 	55.78780723693915	7.173016359532472	2.15
C 	56.09757063972224	8.558818161485496	2.15
C 	57.45259190621535	8.98345608648914	2.15
C 	57.762355308998444	10.369257888442164	2.15
C 	59.11737657549156	10.793895813445806	2.15
C 	59.42713997827465	12.17969761539883	2.15
C 	60.78216124476776	12.604335540402467	2.15
C 	61.09192464755085	13.99013734235549	2.15
C 	62.446945914043965	14.414775267359133	2.15
C 	62.756709316827056	15.800577069312157	2.15
C 	64.11173058332017	16.2252149943158	2.15
C 	64.42149398610326	17.611016796268824	2.15
C 	45.37336816313808	0.0431454786479091	2.15
C 	46.72838942963119	0.46778340365155374	2.15
C 	47.03815283241428	1.853585205604577	2.15
C 	48.3931740989074	2.27822313060822	2.15
C 	48.70293750169049	3.664024932561243	2.15
C 	50.05795876818361	4.088662857564879	2.15
C 	50.3677221709667	5.474464659517902	2.15
C 	51.72274343745982	5.899102584521547	2.15
C 	52.03250684024291	7.28490438647457	2.15
C 	53.38752810673601	7.709542311478215	2.15
C 	53.697291509519104	9.095344113431238	2.15
C 	55.052312776012215	9.519982038434875	2.15
C 	55.362076178795306	10.9057838403879	2.15
C 	56.717097445288424	11.330421765391542	2.15
C 	57.026860848071514	12.716223567344565	2.15
C 	58.38188211456463	13.140861492348208	2.15
C 	58.69164551734772	14.52666329430123	2.15
C 	60.04666678384083	14.95130121930487	2.15
C 	60.35643018662392	16.337103021257892	2.15
C 	61.71145145311703	16.761740946261536	2.15
C 	62.02121485590012	18.14754274821456	2.15
C 	63.37623612239324	18.572180673218202	2.15
C 	63.68599952517633	19.957982475171224	2.15
C 	65.04102079166944	20.38262040017486	2.15
C 	65.35078419445253	21.768422202127883	2.15
C 	66.70580546094565	22.19306012713152	2.15
C 	67.01556886372875	23.578861929084542	2.15
C 	68.37059013022184	24.003499854088197	2.15
C 	68.68035353300495	25.38930165604122	2.15
C 	42.97308903293495	0.5796714305936448	2.15
C 	44.32811029942806	1.0043093555972842	2.15
C 	44.63787370221115	2.390111157550304	2.15
C 	45.99289496870426	2.814749082553952	2.15
C 	46.302658371487354	4.2005508845069714	2.15
C 	47.657679637980465	4.62518880951062	2.15
C 	47.967443040763555	6.010990611463639	2.15
C 	49.32246430725667	6.435628536467279	2.15
C 	49.632227710039764	7.821430338420298	2.15
C 	50.98724897653288	8.246068263423945	2.15
C 	51.29701237931597	9.631870065376965	2.15
C 	52.65203364580909	10.056507990380613	2.15
C 	52.96179704859218	11.442309792333633	2.15
C 	54.316818315085285	11.866947717337274	2.15
C 	54.626581717868376	13.252749519290294	2.15
C 	55.98160298436149	13.677387444293942	2.15
C 	56.29136638714458	15.063189246246962	2.15
C 	57.646387653637696	15.487827171250608	2.15
C 	57.95615105642079	16.873628973203626	2.15
C 	59.3111723229139	17.298266898207267	2.15
C 	59.62093572569699	18.68406870016029	2.15
C 	60.975956992190106	19.108706625163933	2.15
C 	61.2857203949732	20.494508427116955	2.15
C 	62.6407416614663	20.9191463521206	2.15
C 	62.95050506424939	22.30494815407362	2.15
C 	64.30552633074251	22.729586079077258	2.15
C 	64.6152897335256	24.11538788103028	2.15
C 	65.97031100001871	24.540025806033917	2.15
C 	66.2800744028018	25.92582760798694	2.15
C 	67.63509566929491	26.35046553299059	2.15
C 	67.944859072078	27.736267334943616	2.15
C 	69.29988033857113	28.16090525994725	2.15
C 	69.60964374135422	29.546707061900275	2.15
C 	70.96466500784733	29.97134498690391	2.15
C 	71.27442841063042	31.357146788856934	2.15
C 	72.62944967712353	31.781784713860585	2.15
C 	72.93921307990662	33.16758651581361	2.15
C 	74.29423434639972	33.59222444081725	2.15
C 	74.60399774918281	34.97802624277027	2.15
C 	38.90802523345561	-0.6942423444172804	2.15
C 	40.26304649994872	-0.26960441941364266	2.15
C 	40.57280990273181	1.1161973825393805	2.15
C 	41.92783116922492	1.5408353075430252	2.15
C 	42.237594572008014	2.926637109496048	2.15
C 	43.59261583850113	3.3512750344996842	2.15
C 	43.90237924128422	4.737076836452707	2.15
C 	45.257400507777334	5.16171476145635	2.15
C 	45.567163910560424	6.547516563409373	2.15
C 	46.922185177053535	6.972154488413018	2.15
C 	47.231948579836626	8.357956290366042	2.15
C 	48.58696984632974	8.782594215369679	2.15
C 	48.89673324911283	10.168396017322703	2.15
C 	50.251754515605946	10.593033942326345	2.15
C 	50.561517918389036	11.978835744279369	2.15
C 	51.916539184882154	12.403473669283011	2.15
C 	52.226302587665245	13.789275471236035	2.15
C 	53.58132385415836	14.213913396239672	2.15
C 	53.891087256941454	15.599715198192696	2.15
C 	55.24610852343455	16.024353123196338	2.15
C 	55.55587192621764	17.410154925149364	2.15
C 	56.91089319271076	17.834792850153008	2.15
C 	57.22065659549385	19.22059465210603	2.15
C 	58.57567786198697	19.645232577109667	2.15
C 	58.88544126477006	21.03103437906269	2.15
C 	60.24046253126318	21.455672304066333	2.15
C 	60.55022593404627	22.841474106019355	2.15
C 	61.90524720053937	23.266112031023003	2.15
C 	62.21501060332246	24.651913832976025	2.15
C 	63.57003186981557	25.07655175797966	2.15
C 	63.87979527259866	26.462353559932684	2.15
C 	65.23481653909178	26.88699148493632	2.15
C 	65.54457994187487	28.272793286889343	2.15
C 	66.89960120836798	28.697431211892994	2.15
C 	67.20936461115107	30.083233013846016	2.15
C 	68.5643858776442	30.507870938849653	2.15
C 	68.87414928042729	31.893672740802675	2.15
C 	70.22917054692039	32.318310665806315	2.15
C 	70.53893394970348	33.70411246775934	2.15
C 	71.8939552161966	34.12875039276299	2.15
C 	72.20371861897969	35.51455219471601	2.15
C 	73.5587398854728	35.93919011971965	2.15
C 	73.8685032882559	37.32499192167267	2.15
C 	75.223524554749	37.74962984667631	2.15
C 	75.5332879575321	39.13543164862933	2.15
C 	36.50774610325247	-0.15771639247154373	2.15
C 	37.86276736974558	0.2669215325321	2.15
C 	38.172530772528674	1.652723334485123	2.15
C 	39.52755203902179	2.077361259488759	2.15
C 	39.83731544180488	3.463163061441782	2.15
C 	41.192336708297994	3.887800986445427	2.15
C 	41.502100111081084	5.27360278839845	2.15
C 	42.857121377574195	5.698240713402088	2.15
C 	43.166884780357286	7.084042515355111	2.15
C 	44.521906046850404	7.508680440358754	2.15
C 	44.831669449633495	8.894482242311778	2.15
C 	46.186690716126606	9.31912016731542	2.15
C 	46.496454118909696	10.704921969268444	2.15
C 	47.85147538540281	11.12955989427208	2.15
C 	48.1612387881859	12.515361696225105	2.15
C 	49.516260054679016	12.939999621228747	2.15
C 	49.82602345746211	14.32580142318177	2.15
C 	51.18104472395522	14.750439348185415	2.15
C 	51.49080812673831	16.13624115013844	2.15
C 	52.845829393231426	16.560879075142072	2.15
C 	53.15559279601452	17.946680877095098	2.15
C 	54.51061406250763	18.37131880209874	2.15
C 	54.82037746529072	19.757120604051764	2.15
C 	56.17539873178383	20.181758529055408	2.15
C 	56.48516213456692	21.567560331008433	2.15
C 	57.84018340106003	21.99219825601207	2.15
C 	58.14994680384312	23.378000057965092	2.15
C 	59.50496807033624	23.802637982968736	2.15
C 	59.81473147311933	25.18843978492176	2.15
C 	61.16975273961244	25.613077709925403	2.15
C 	61.47951614239553	26.998879511878428	2.15
C 	62.83453740888865	27.42351743688206	2.15
C 	63.14430081167174	28.809319238835087	2.15
C 	64.49932207816485	29.23395716383872	2.15
C 	64.80908548094794	30.619758965791746	2.15
C 	66.16410674744105	31.044396890795397	2.15
C 	66.47387015022414	32.43019869274842	2.15
C 	67.82889141671725	32.854836617752056	2.15
C 	68.13865481950035	34.24063841970508	2.15
C 	69.49367608599346	34.665276344708715	2.15
C 	69.80343948877655	36.05107814666174	2.15
C 	71.15846075526967	36.47571607166539	2.15
C 	71.46822415805276	37.86151787361841	2.15
C 	72.82324542454587	38.28615579862205	2.15
C 	73.13300882732896	39.67195760057508	2.15
C 	74.48803009382208	40.096595525578714	2.15
C 	74.79779349660517	41.482397327531736	2.15
C 	34.10746697304934	0.3788095594741867	2.15
C 	35.46248823954245	0.8034474844778313	2.15
C 	35.77225164232554	2.1892492864308513	2.15
C 	37.127272908818654	2.6138872114344993	2.15
C 	37.437036311601744	3.9996890133875187	2.15
C 	38.792057578094855	4.424326938391159	2.15
C 	39.101820980877946	5.810128740344179	2.15
C 	40.456842247371064	6.234766665347825	2.15
C 	40.766605650154155	7.620568467300845	2.15
C 	42.121626916647266	8.045206392304486	2.15
C 	42.431390319430356	9.431008194257506	2.15
C 	43.78641158592347	9.855646119261154	2.15
C 	44.09617498870656	11.241447921214174	2.15
C 	45.451196255199676	11.66608584621782	2.15
C 	45.76095965798277	13.05188764817084	2.15
C 	47.11598092447588	13.476525573174479	2.15
C 	47.42574432725897	14.8623273751275	2.15
C 	48.780765593752086	15.286965300131145	2.15
C 	49.09052899653518	16.672767102084165	2.15
C 	50.44555026302829	17.097405027087813	2.15
C 	50.75531366581138	18.48320682904083	2.15
C 	52.11033493230449	18.907844754044472	2.15
C 	52.42009833508758	20.293646555997494	2.15
C 	53.7751196015807	20.718284481001138	2.15
C 	54.08488300436379	22.10408628295416	2.15
C 	55.43990427085691	22.528724207957804	2.15
C 	55.74966767364	23.914526009910826	2.15
C 	57.104688940133094	24.339163934914463	2.15
C 	57.414452342916185	25.72496573686749	2.15
C 	58.7694736094093	26.14960366187114	2.15
C 	59.079237012192394	27.535405463824155	2.15
C 	60.43425827868551	27.9600433888278	2.15
C 	60.7440216814686	29.34584519078082	2.15
C 	62.09904294796172	29.770483115784458	2.15
C 	62.40880635074481	31.15628491773748	2.15
C 	63.76382761723793	31.580922842741117	2.15
C 	64.07359102002101	32.96672464469414	2.15
C 	65.42861228651411	33.39136256969779	2.15
C 	65.7383756892972	34.77716437165082	2.15
C 	67.09339695579033	35.20180229665445	2.15
C 	67.40316035857342	36.58760409860748	2.15
C 	68.75818162506653	37.01224202361111	2.15
C 	69.06794502784962	38.39804382556414	2.15
C 	70.42296629434274	38.82268175056778	2.15
C 	70.73272969712583	40.20848355252081	2.15
C 	72.08775096361893	40.63312147752445	2.15
C 	72.39751436640202	42.01892327947747	2.15
C 	73.75253563289515	42.44356120448111	2.15
C 	74.06229903567824	43.82936300643413	2.15
C 	30.042403173569998	-0.895104215536741	2.15
C 	31.39742444006311	-0.47046629053309635	2.15
C 	31.7071878428462	0.9153355114199268	2.15
C 	33.062209109339314	1.3399734364235671	2.15
C 	33.371972512122404	2.72577523837659	2.15
C 	34.726993778615515	3.1504131633802315	2.15
C 	35.036757181398606	4.536214965333254	2.15
C 	36.391778447891724	4.960852890336898	2.15
C 	36.701541850674815	6.3466546922899205	2.15
C 	38.056563117167926	6.771292617293558	2.15
C 	38.366326519951016	8.157094419246581	2.15
C 	39.72134778644413	8.581732344250225	2.15
C 	40.03111118922722	9.96753414620325	2.15
C 	41.38613245572033	10.392172071206886	2.15
C 	41.69589585850342	11.77797387315991	2.15
C 	43.05091712499654	12.202611798163552	2.15
C 	43.36068052777963	13.588413600116576	2.15
C 	44.71570179427274	14.01305152512022	2.15
C 	45.02546519705583	15.398853327073244	2.15
C 	46.38048646354895	15.82349125207688	2.15
C 	46.69024986633204	17.209293054029903	2.15
C 	48.04527113282515	17.633930979033543	2.15
C 	48.35503453560824	19.01973278098657	2.15
C 	49.71005580210135	19.444370705990213	2.15
C 	50.01981920488444	20.830172507943235	2.15
C 	51.37484047137756	21.254810432946872	2.15
C 	51.68460387416065	22.640612234899894	2.15
C 	53.03962514065376	23.065250159903538	2.15
C 	53.34938854343685	24.451051961856564	2.15
C 	54.70440980992997	24.875689886860204	2.15
C 	55.01417321271306	26.26149168881323	2.15
C 	56.36919447920617	26.686129613816867	2.15
C 	56.67895788198926	28.07193141576989	2.15
C 	58.03397914848237	28.496569340773533	2.15
C 	58.343742551265464	29.88237114272656	2.15
C 	59.698763817758575	30.307009067730203	2.15
C 	60.008527220541666	31.692810869683225	2.15
C 	61.363548487034784	32.11744879468686	2.15
C 	61.673311889817874	33.50325059663989	2.15
C 	63.02833315631099	33.92788852164352	2.15
C 	63.33809655909408	35.313690323596546	2.15
C 	64.6931178255872	35.7383282486002	2.15
C 	65.00288122837028	37.12413005055322	2.15
C 	66.3579024948634	37.548767975556856	2.15
C 	66.66766589764649	38.93456977750988	2.15
C 	68.0226871641396	39.359207702513515	2.15
C 	68.33245056692269	40.74500950446654	2.15
C 	69.6874718334158	41.16964742947019	2.15
C 	69.99723523619889	42.55544923142321	2.15
C 	71.352256502692	42.98008715642685	2.15
C 	71.66201990547509	44.36588895837987	2.15
C 	73.01704117196822	44.79052688338351	2.15
C 	27.642124043366863	-0.3585782635910018	2.15
C 	28.99714530985997	0.06605966141263933	2.15
C 	29.30690871264306	1.4518614633656626	2.15
C 	30.66192997913618	1.8764993883693053	2.15
C 	30.97169338191927	3.2623011903223285	2.15
C 	32.326714648412384	3.68693911532597	2.15
C 	32.636478051195475	5.072740917278993	2.15
C 	33.991499317688586	5.497378842282633	2.15
C 	34.30126272047168	6.883180644235656	2.15
C 	35.65628398696479	7.307818569239301	2.15
C 	35.96604738974788	8.693620371192324	2.15
C 	37.321068656240996	9.11825829619596	2.15
C 	37.63083205902409	10.504060098148983	2.15
C 	38.9858533255172	10.928698023152627	2.15
C 	39.29561672830029	12.314499825105651	2.15
C 	40.6506379947934	12.739137750109288	2.15
C 	40.96040139757649	14.124939552062312	2.15
C 	42.3154226640696	14.549577477065956	2.15
C 	42.62518606685269	15.93537927901898	2.15
C 	43.98020733334581	16.360017204022622	2.15
C 	44.2899707361289	17.745819005975644	2.15
C 	45.64499200262201	18.17045693097928	2.15
C 	45.9547554054051	19.556258732932307	2.15
C 	47.30977667189822	19.980896657935947	2.15
C 	47.61954007468131	21.366698459888973	2.15
C 	48.97456134117442	21.791336384892613	2.15
C 	49.28432474395751	23.17713818684564	2.15
C 	50.63934601045062	23.601776111849276	2.15
C 	50.949109413233714	24.987577913802298	2.15
C 	52.304130679726825	25.412215838805942	2.15
C 	52.613894082509916	26.798017640758967	2.15
C 	53.968915349003034	27.222655565762608	2.15
C 	54.278678751786124	28.608457367715634	2.15
C 	55.633700018279235	29.03309529271927	2.15
C 	55.943463421062326	30.418897094672293	2.15
C 	57.298484687555444	30.843535019675937	2.15
C 	57.608248090338535	32.22933682162896	2.15
C 	58.96326935683164	32.653974746632606	2.15
C 	59.27303275961473	34.03977654858563	2.15
C 	60.62805402610785	34.464414473589265	2.15
C 	60.93781742889094	35.85021627554229	2.15
C 	62.292838695384056	36.274854200545924	2.15
C 	62.60260209816715	37.660656002498946	2.15
C 	63.95762336466026	38.0852939275026	2.15
C 	64.26738676744336	39.47109572945562	2.15
C 	65.62240803393647	39.89573365445926	2.15
C 	65.93217143671956	41.28153545641228	2.15
C 	67.28719270321265	41.706173381415915	2.15
C 	67.59695610599574	43.091975183368945	2.15
C 	68.95197737248887	43.51661310837259	2.15
C 	69.26174077527196	44.90241491032562	2.15
C 	70.61676204176507	45.327052835329255	2.15
C 	25.241844913163725	0.17794768835473043	2.15
C 	26.596866179656836	0.602585613358375	2.15
C 	26.906629582439926	1.9883874153113947	2.15
C 	28.261650848933044	2.4130253403150377	2.15
C 	28.571414251716135	3.7988271422680575	2.15
C 	29.926435518209242	4.223465067271706	2.15
C 	30.236198920992333	5.609266869224725	2.15
C 	31.59122018748545	6.033904794228368	2.15
C 	31.90098359026854	7.4197065961813875	2.15
C 	33.25600485676165	7.8443445211850324	2.15
C 	33.56576825954474	9.230146323138053	2.15
C 	34.92078952603786	9.654784248141699	2.15
C 	35.23055292882095	11.040586050094719	2.15
C 	36.58557419531406	11.46522397509836	2.15
C 	36.89533759809715	12.85102577705138	2.15
C 	38.25035886459027	13.275663702055025	2.15
C 	38.56012226737336	14.661465504008046	2.15
C 	39.91514353386647	15.086103429011686	2.15
C 	40.22490693664956	16.47190523096471	2.15
C 	41.57992820314267	16.896543155968352	2.15
C 	41.88969160592576	18.282344957921374	2.15
C 	43.24471287241887	18.706982882925022	2.15
C 	43.554476275201964	20.09278468487804	2.15
C 	44.90949754169508	20.51742260988168	2.15
C 	45.21926094447817	21.9032244118347	2.15
C 	46.57428221097129	22.327862336838347	2.15
C 	46.88404561375438	23.713664138791366	2.15
C 	48.23906688024749	24.13830206379501	2.15
C 	48.54883028303058	25.524103865748035	2.15
C 	49.903851549523694	25.94874179075167	2.15
C 	50.213614952306784	27.334543592704694	2.15
C 	51.568636218799895	27.759181517708345	2.15
C 	51.878399621582986	29.14498331966136	2.15
C 	53.233420888076104	29.569621244665004	2.15
C 	53.543184290859195	30.955423046618026	2.15
C 	54.898205557352306	31.380060971621663	2.15
C 	55.207968960135396	32.76586277357469	2.15
C 	56.562990226628514	33.19050069857834	2.15
C 	56.872753629411605	34.576302500531355	2.15
C 	58.227774895904716	35.000940425535	2.15
C 	58.53753829868781	36.38674222748802	2.15
C 	59.89255956518092	36.81138015249166	2.15
C 	60.20232296796401	38.19718195444468	2.15
C 	61.557344234457126	38.62181987944832	2.15
C 	61.86710763724022	40.00762168140134	2.15
C 	63.22212890373333	40.43225960640499	2.15
C 	63.53189230651642	41.81806140835802	2.15
C 	64.88691357300954	42.24269933336165	2.15
C 	65.19667697579263	43.62850113531468	2.15
C 	66.55169824228574	44.053139060318316	2.15
C 	66.86146164506883	45.43894086227134	2.15
C 	68.21648291156194	45.86357878727499	2.15
C 	22.841565782960586	0.7144736403004645	2.15
C 	24.1965870494537	1.13911156530411	2.15
C 	24.50635045223679	2.524913367257131	2.15
C 	25.86137171872991	2.9495512922607734	2.15
C 	26.171135121513	4.3353530942137946	2.15
C 	27.526156388006108	4.759991019217438	2.15
C 	27.835919790789198	6.145792821170459	2.15
C 	29.190941057282316	6.570430746174104	2.15
C 	29.500704460065407	7.956232548127125	2.15
C 	30.855725726558514	8.380870473130768	2.15
C 	31.165489129341605	9.766672275083788	2.15
C 	32.52051039583472	10.19131020008743	2.15
C 	32.83027379861781	11.577112002040455	2.15
C 	34.18529506511092	12.001749927044099	2.15
C 	34.49505846789402	13.387551728997122	2.15
C 	35.85007973438713	13.812189654000758	2.15
C 	36.15984313717022	15.197991455953781	2.15
C 	37.51486440366333	15.622629380957425	2.15
C 	37.82462780644642	17.00843118291045	2.15
C 	39.17964907293954	17.433069107914086	2.15
C 	39.48941247572263	18.81887090986711	2.15
C 	40.84443374221574	19.243508834870752	2.15
C 	41.15419714499883	20.629310636823778	2.15
C 	42.50921841149194	21.05394856182742	2.15
C 	42.818981814275034	22.439750363780444	2.15
C 	44.174003080768145	22.86438828878408	2.15
C 	44.483766483551236	24.250190090737103	2.15
C 	45.838787750044354	24.674828015740747	2.15
C 	46.148551152827444	26.06062981769377	2.15
C 	47.50357241932056	26.485267742697413	2.15
C 	47.81333582210365	27.871069544650435	2.15
C 	49.168357088596764	28.295707469654072	2.15
C 	49.478120491379855	29.681509271607098	2.15
C 	50.83314175787296	30.106147196610742	2.15
C 	51.14290516065605	31.491948998563764	2.15
C 	52.49792642714917	31.916586923567408	2.15
C 	52.80768982993226	33.30238872552043	2.15
C 	54.16271109642537	33.72702665052407	2.15
C 	54.47247449920846	35.11282845247709	2.15
C 	55.82749576570158	35.53746637748073	2.15
C 	56.13725916848467	36.923268179433755	2.15
C 	57.49228043497778	37.3479061044374	2.15
C 	57.80204383776087	38.73370790639043	2.15
C 	59.15706510425399	39.15834583139406	2.15
C 	59.46682850703708	40.54414763334709	2.15
C 	60.82184977353019	40.968785558350724	2.15
C 	61.13161317631328	42.354587360303746	2.15
C 	62.48663444280639	42.7792252853074	2.15
C 	62.79639784558948	44.16502708726042	2.15
C 	64.15141911208259	44.58966501226406	2.15
C 	64.46118251486568	45.97546681421708	2.15
C 	65.8162037813588	46.400104739220716	2.15
C 	18.776501983481246	-0.5594401347104633	2.15
C 	20.13152324997436	-0.13480220970682133	2.15
C 	20.44128665275745	1.2509995922462	2.15
C 	21.796307919250566	1.6756375172498421	2.15
C 	22.106071322033657	3.0614393192028637	2.15
C 	23.461092588526768	3.486077244206509	2.15
C 	23.77085599130986	4.87187904615953	2.15
C 	25.125877257802973	5.2965169711631725	2.15
C 	25.435640660586063	6.682318773116194	2.15
C 	26.79066192707918	7.106956698119836	2.15
C 	27.100425329862272	8.492758500072858	2.15
C 	28.45544659635538	8.917396425076504	2.15
C 	28.76520999913847	10.303198227029524	2.15
C 	30.12023126563159	10.727836152033166	2.15
C 	30.42999466841468	12.11363795398619	2.15
C 	31.785015934907786	12.53827587898983	2.15
C 	32.09477933769087	13.924077680942851	2.15
C 	33.44980060418399	14.348715605946497	2.15
C 	33.75956400696708	15.734517407899517	2.15
C 	35.11458527346019	16.159155332903158	2.15
C 	35.424348676243284	17.544957134856176	2.15
C 	36.7793699427364	17.969595059859824	2.15
C 	37.08913334551949	19.355396861812846	2.15
C 	38.4441546120126	19.780034786816486	2.15
C 	38.753918014795694	21.165836588769505	2.15
C 	40.10893928128881	21.590474513773152	2.15
C 	40.4187026840719	22.97627631572617	2.15
C 	41.773723950565014	23.40091424072982	2.15
C 	42.083487353348104	24.78671604268284	2.15
C 	43.438508619841215	25.21135396768648	2.15
C 	43.748272022624306	26.5971557696395	2.15
C 	45.103293289117424	27.02179369464314	2.15
C 	45.413056691900515	28.407595496596166	2.15
C 	46.768077958393626	28.832233421599817	2.15
C 	47.077841361176716	30.218035223552832	2.15
C 	48.432862627669834	30.642673148556476	2.15
C 	48.742626030452925	32.02847495050949	2.15
C 	50.097647296946036	32.453112875513135	2.15
C 	50.40741069972913	33.83891467746616	2.15
C 	51.76243196622224	34.26355260246981	2.15
C 	52.07219536900533	35.64935440442282	2.15
C 	53.42721663549844	36.07399232942647	2.15
C 	53.73698003828153	37.45979413137949	2.15
C 	55.09200130477465	37.884432056383126	2.15
C 	55.40176470755774	39.270233858336155	2.15
C 	56.75678597405085	39.694871783339806	2.15
C 	57.06654937683394	41.08067358529282	2.15
C 	58.42157064332706	41.505311510296465	2.15
C 	58.73133404611015	42.89111331224948	2.15
C 	60.08635531260327	43.315751237253124	2.15
C 	60.39611871538636	44.70155303920614	2.15
C 	61.75113998187946	45.1261909642098	2.15
C 	16.37622285327811	-0.022914182764726322	2.15
C 	17.731244119771226	0.40172374223891566	2.15
C 	18.041007522554317	1.787525544191937	2.15
C 	19.396028789047428	2.2121634691955796	2.15
C 	19.70579219183052	3.597965271148601	2.15
C 	21.060813458323633	4.022603196152243	2.15
C 	21.370576861106723	5.408404998105264	2.15
C 	22.725598127599838	5.83304292310891	2.15
C 	23.03536153038293	7.218844725061931	2.15
C 	24.390382796876043	7.643482650065573	2.15
C 	24.700146199659134	9.029284452018594	2.15
C 	26.055167466152245	9.453922377022236	2.15
C 	26.364930868935335	10.839724178975258	2.15
C 	27.719952135428453	11.264362103978902	2.15
C 	28.029715538211544	12.650163905931926	2.15
C 	29.38473680470465	13.07480183093557	2.15
C 	29.694500207487742	14.46060363288859	2.15
C 	31.04952147398086	14.885241557892229	2.15
C 	31.35928487676395	16.27104335984525	2.15
C 	32.714306143257055	16.695681284848895	2.15
C 	33.024069546040145	18.08148308680192	2.15
C 	34.37909081253326	18.506121011805554	2.15
C 	34.688854215316354	19.89192281375858	2.15
C 	36.043875481809465	20.316560738762224	2.15
C 	36.353638884592556	21.702362540715246	2.15
C 	37.708660151085674	22.127000465718883	2.15
C 	38.018423553868764	23.51280226767191	2.15
C 	39.373444820361875	23.937440192675552	2.15
C 	39.683208223144966	25.323241994628575	2.15
C 	41.038229489638084	25.74787991963222	2.15
C 	41.347992892421175	27.13368172158524	2.15
C 	42.703014158914286	27.558319646588878	2.15
C 	43.012777561697376	28.944121448541903	2.15
C 	44.36779882819049	29.368759373545544	2.15
C 	44.67756223097358	30.75456117549857	2.15
C 	46.032583497466696	31.17919910050221	2.15
C 	46.34234690024979	32.56500090245523	2.15
C 	47.6973681667429	32.98963882745887	2.15
C 	48.00713156952599	34.3754406294119	2.15
C 	49.3621528360191	34.80007855441554	2.15
C 	49.67191623880219	36.185880356368564	2.15
C 	51.02693750529531	36.61051828137221	2.15
C 	51.3367009080784	37.99632008332523	2.15
C 	52.6917221745715	38.42095800832887	2.15
C 	53.00148557735459	39.80675981028189	2.15
C 	54.35650684384771	40.23139773528553	2.15
C 	54.6662702466308	41.617199537238555	2.15
C 	56.02129151312391	42.0418374622422	2.15
C 	56.331054915907	43.42763926419522	2.15
C 	57.68607618240012	43.85227718919886	2.15
C 	57.99583958518321	45.23807899115188	2.15
C 	59.35086085167633	45.66271691615552	2.15
C 	13.975943723074977	0.5136117691810089	2.15
C 	15.33096498956809	0.9382496941846526	2.15
C 	15.64072839235118	2.324051496137674	2.15
C 	16.995749658844293	2.7486894211413166	2.15
C 	17.305513061627384	4.134491223094338	2.15
C 	18.660534328120498	4.55912914809798	2.15
C 	18.97029773090359	5.944930950051002	2.15
C 	20.3253189973967	6.369568875054644	2.15
C 	20.63508240017979	7.755370677007665	2.15
C 	21.990103666672905	8.180008602011311	2.15
C 	22.299867069455996	9.565810403964333	2.15
C 	23.65488833594911	9.990448328967974	2.15
C 	23.9646517387322	11.376250130920994	2.15
C 	25.31967300522531	11.800888055924638	2.15
C 	25.629436408008402	13.186689857877662	2.15
C 	26.984457674501517	13.611327782881304	2.15
C 	27.294221077284607	14.997129584834328	2.15
C 	28.649242343777722	15.421767509837968	2.15
C 	28.959005746560813	16.80756931179099	2.15
C 	30.314027013053924	17.232207236794633	2.15
C 	30.623790415837014	18.618009038747655	2.15
C 	31.97881168233013	19.0426469637513	2.15
C 	32.28857508511322	20.42844876570432	2.15
C 	33.64359635160633	20.853086690707958	2.15
C 	33.95335975438942	22.238888492660983	2.15
C 	35.308381020882535	22.663526417664627	2.15
C 	35.618144423665626	24.04932821961765	2.15
C 	36.97316569015874	24.473966144621286	2.15
C 	37.28292909294183	25.85976794657431	2.15
C 	38.63795035943494	26.284405871577952	2.15
C 	38.94771376221803	27.670207673530975	2.15
C 	40.30273502871115	28.094845598534622	2.15
C 	40.61249843149424	29.480647400487644	2.15
C 	41.967519697987356	29.90528532549128	2.15
C 	42.27728310077045	31.291087127444303	2.15
C 	43.632304367263565	31.715725052447947	2.15
C 	43.942067770046656	33.101526854400966	2.15
C 	45.29708903653976	33.52616477940462	2.15
C 	45.60685243932285	34.91196658135764	2.15
C 	46.96187370581597	35.336604506361276	2.15
C 	47.27163710859906	36.7224063083143	2.15
C 	48.62665837509217	37.14704423331794	2.15
C 	48.93642177787526	38.532846035270964	2.15
C 	50.29144304436838	38.95748396027461	2.15
C 	50.60120644715147	40.34328576222763	2.15
C 	51.95622771364458	40.76792368723127	2.15
C 	52.26599111642767	42.15372548918429	2.15
C 	53.62101238292078	42.57836341418793	2.15
C 	53.93077578570387	43.964165216140955	2.15
C 	55.28579705219698	44.3888031411446	2.15
C 	55.595560454980074	45.77460494309763	2.15
C 	56.95058172147319	46.19924286810126	2.15
C 	9.910879923595635	-0.7603020058299205	2.15
C 	11.265901190088748	-0.3356640808262785	2.15
C 	11.575664592871838	1.0501377211267429	2.15
C 	12.930685859364955	1.4747756461303867	2.15
C 	13.240449262148045	2.8605774480834083	2.15
C 	14.595470528641158	3.285215373087052	2.15
C 	14.905233931424249	4.671017175040073	2.15
C 	16.26025519791736	5.095655100043715	2.15
C 	16.57001860070045	6.4814569019967365	2.15
C 	17.925039867193565	6.906094827000379	2.15
C 	18.234803269976656	8.2918966289534	2.15
C 	19.58982453646977	8.716534553957043	2.15
C 	19.89958793925286	10.102336355910063	2.15
C 	21.25460920574597	10.52697428091371	2.15
C 	21.564372608529062	11.91277608286673	2.15
C 	22.919393875022177	12.337414007870374	2.15
C 	23.229157277805268	13.723215809823397	2.15
C 	24.584178544298382	14.147853734827036	2.15
C 	24.893941947081473	15.533655536780056	2.15
C 	26.248963213574584	15.958293461783704	2.15
C 	26.558726616357674	17.344095263736723	2.15
C 	27.91374788285079	17.768733188740367	2.15
C 	28.22351128563388	19.154534990693392	2.15
C 	29.578532552126994	19.57917291569703	2.15
C 	29.888295954910085	20.96497471765005	2.15
C 	31.243317221403196	21.3896126426537	2.15
C 	31.553080624186286	22.775414444606717	2.15
C 	32.9081018906794	23.200052369610358	2.15
C 	33.21786529346249	24.58585417156338	2.15
C 	34.5728865599556	25.010492096567024	2.15
C 	34.88264996273869	26.396293898520046	2.15
C 	36.23767122923181	26.82093182352369	2.15
C 	36.5474346320149	28.206733625476705	2.15
C 	37.90245589850801	28.63137155048035	2.15
C 	38.2122193012911	30.01717335243337	2.15
C 	39.56724056778421	30.441811277437022	2.15
C 	39.8770039705673	31.827613079390037	2.15
C 	41.23202523706042	32.252251004393685	2.15
C 	41.54178863984351	33.6380528063467	2.15
C 	42.89680990633663	34.062690731350344	2.15
C 	43.20657330911972	35.448492533303366	2.15
C 	44.56159457561284	35.87313045830702	2.15
C 	44.87135797839593	37.25893226026003	2.15
C 	46.22637924488903	37.683570185263676	2.15
C 	46.53614264767212	39.06937198721669	2.15
C 	47.89116391416523	39.494009912220335	2.15
C 	48.200927316948324	40.879811714173364	2.15
C 	49.55594858344144	41.30444963917701	2.15
C 	49.86571198622453	42.69025144113003	2.15
C 	51.22073325271764	43.114889366133674	2.15
C 	51.530496655500734	44.50069116808669	2.15
C 	52.88551792199385	44.92532909309033	2.15
C 	53.19528132477694	46.311130895043355	2.15
C 	54.55030259127005	46.73576882004701	2.15
C 	7.510600793392499	-0.22377605388418526	2.15
C 	8.865622059885613	0.20086187111945783	2.15
C 	9.175385462668704	1.5866636730724792	2.15
C 	10.530406729161816	2.0113015980761215	2.15
C 	10.840170131944907	3.397103400029143	2.15
C 	12.195191398438022	3.8217413250327863	2.15
C 	12.504954801221112	5.207543126985808	2.15
C 	13.859976067714227	5.632181051989451	2.15
C 	14.169739470497317	7.017982853942474	2.15
C 	15.52476073699043	7.4426207789461145	2.15
C 	15.83452413977352	8.828422580899138	2.15
C 	17.18954540626663	9.253060505902777	2.15
C 	17.499308809049722	10.638862307855801	2.15
C 	18.854330075542837	11.063500232859441	2.15
C 	19.164093478325928	12.449302034812465	2.15
C 	20.519114744819042	12.87393995981611	2.15
C 	20.828878147602133	14.259741761769131	2.15
C 	22.183899414095244	14.684379686772772	2.15
C 	22.493662816878334	16.070181488725797	2.15
C 	23.84868408337145	16.494819413729434	2.15
C 	24.15844748615454	17.88062121568246	2.15
C 	25.513468752647654	18.305259140686104	2.15
C 	25.823232155430745	19.691060942639126	2.15
C 	27.178253421923856	20.115698867642767	2.15
C 	27.488016824706946	21.50150066959579	2.15
C 	28.84303809120006	21.92613859459943	2.15
C 	29.15280149398315	23.311940396552455	2.15
C 	30.507822760476266	23.736578321556095	2.15
C 	30.817586163259357	25.12238012350912	2.15
C 	32.17260742975247	25.547018048512758	2.15
C 	32.48237083253556	26.93281985046578	2.15
C 	33.83739209902867	27.357457775469424	2.15
C 	34.14715550181176	28.743259577422446	2.15
C 	35.50217676830487	29.167897502426083	2.15
C 	35.81194017108796	30.55369930437911	2.15
C 	37.16696143758108	30.978337229382753	2.15
C 	37.47672484036417	32.364139031335775	2.15
C 	38.83174610685728	32.78877695633942	2.15
C 	39.14150950964037	34.17457875829244	2.15
C 	40.49653077613348	34.59921668329608	2.15
C 	40.80629417891657	35.9850184852491	2.15
C 	42.1613154454097	36.409656410252744	2.15
C 	42.47107884819279	37.795458212205766	2.15
C 	43.8261001146859	38.22009613720941	2.15
C 	44.13586351746899	39.60589793916243	2.15
C 	45.49088478396211	40.03053586416607	2.15
C 	45.8006481867452	41.41633766611909	2.15
C 	47.1556694532383	41.84097559112274	2.15
C 	47.465432856021394	43.226777393075764	2.15
C 	48.82045412251451	43.65141531807941	2.15
C 	49.1302175252976	45.03721712003243	2.15
C 	50.485238791790714	45.46185504503607	2.15
C 	5.110321663189363	0.31274989806155046	2.15
C 	6.465342929682477	0.7373878230651933	2.15
C 	6.775106332465568	2.123189625018215	2.15
C 	8.13012759895868	2.5478275500218577	2.15
C 	8.43989100174177	3.9336293519748793	2.15
C 	9.794912268234885	4.358267276978522	2.15
C 	10.104675671017976	5.744069078931543	2.15
C 	11.459696937511088	6.168707003935187	2.15
C 	11.769460340294179	7.554508805888208	2.15
C 	13.124481606787292	7.979146730891852	2.15
C 	13.434245009570382	9.364948532844874	2.15
C 	14.789266276063497	9.789586457848515	2.15
C 	15.099029678846588	11.175388259801537	2.15
C 	16.4540509453397	11.600026184805179	2.15
C 	16.76381434812279	12.985827986758201	2.15
C 	18.118835614615904	13.410465911761845	2.15
C 	18.428599017398994	14.796267713714863	2.15
C 	19.783620283892105	15.220905638718511	2.15
C 	20.093383686675196	16.60670744067153	2.15
C 	21.448404953168314	17.031345365675172	2.15
C 	21.758168355951405	18.417147167628194	2.15
C 	23.113189622444516	18.841785092631838	2.15
C 	23.422953025227606	20.22758689458486	2.15
C 	24.77797429172072	20.652224819588504	2.15
C 	25.08773769450381	22.038026621541526	2.15
C 	26.442758960996926	22.462664546545167	2.15
C 	26.752522363780017	23.84846634849819	2.15
C 	28.107543630273128	24.273104273501833	2.15
C 	28.41730703305622	25.65890607545485	2.15
C 	29.772328299549333	26.0835440004585	2.15
C 	30.082091702332423	27.46934580241152	2.15
C 	31.437112968825538	27.893983727415158	2.15
C 	31.74687637160863	29.279785529368183	2.15
C 	33.10189763810174	29.704423454371828	2.15
C 	33.41166104088483	31.090225256324842	2.15
C 	34.76668230737794	31.514863181328487	2.15
C 	35.07644571016103	32.9006649832815	2.15
C 	36.43146697665414	33.32530290828515	2.15
C 	36.74123037943723	34.711104710238175	2.15
C 	38.09625164593035	35.13574263524182	2.15
C 	38.40601504871344	36.521544437194834	2.15
C 	39.76103631520655	36.94618236219848	2.15
C 	40.070799717989644	38.3319841641515	2.15
C 	41.42582098448276	38.75662208915515	2.15
C 	41.73558438726585	40.14242389110817	2.15
C 	43.09060565375897	40.56706181611182	2.15
C 	43.40036905654206	41.95286361806483	2.15
C 	44.75539032303517	42.377501543068476	2.15
C 	45.06515372581826	43.76330334502149	2.15
C 	46.420174992311374	44.18794127002514	2.15
C 	46.729938395094464	45.573743071978164	2.15
C 	48.084959661587575	45.99838099698181	2.15
C 	2.400279130203136	-0.5365259519457355	2.15
C 	2.7100425329862268	0.849275850007286	2.15
C 	4.06506379947934	1.2739137750109288	2.15
C 	4.374827202262431	2.6597155769639502	2.15
C 	5.729848468755544	3.0843535019675934	2.15
C 	6.039611871538635	4.470155303920615	2.15
C 	7.3946331380317485	4.894793228924257	2.15
C 	7.704396540814839	6.280595030877279	2.15
C 	9.059417807307952	6.7052329558809225	2.15
C 	9.369181210091043	8.091034757833942	2.15
C 	10.724202476584157	8.515672682837586	2.15
C 	11.033965879367248	9.901474484790608	2.15
C 	12.38898714586036	10.326112409794252	2.15
C 	12.698750548643451	11.711914211747272	2.15
C 	14.053771815136564	12.136552136750916	2.15
C 	14.363535217919654	13.522353938703937	2.15
C 	15.718556484412769	13.946991863707579	2.15
C 	16.02831988719586	15.3327936656606	2.15
C 	17.38334115368897	15.757431590664243	2.15
C 	17.69310455647206	17.14323339261726	2.15
C 	19.048125822965176	17.56787131762091	2.15
C 	19.357889225748266	18.95367311957393	2.15
C 	20.71291049224138	19.378311044577575	2.15
C 	21.02267389502447	20.764112846530594	2.15
C 	22.377695161517586	21.188750771534238	2.15
C 	22.687458564300677	22.574552573487257	2.15
C 	24.042479830793788	22.999190498490904	2.15
C 	24.35224323357688	24.384992300443926	2.15
C 	25.707264500069993	24.809630225447567	2.15
C 	26.017027902853084	26.19543202740059	2.15
C 	27.372049169346198	26.620069952404233	2.15
C 	27.68181257212929	28.00587175435725	2.15
C 	29.0368338386224	28.430509679360895	2.15
C 	29.34659724140549	29.816311481313917	2.15
C 	30.7016185078986	30.240949406317554	2.15
C 	31.011381910681692	31.62675120827058	2.15
C 	32.36640317717481	32.05138913327422	2.15
C 	32.6761665799579	33.43719093522724	2.15
C 	34.03118784645101	33.86182886023088	2.15
C 	34.3409512492341	35.24763066218391	2.15
C 	35.69597251572721	35.67226858718755	2.15
C 	36.005735918510304	37.058070389140575	2.15
C 	37.360757185003415	37.48270831414422	2.15
C 	37.670520587786505	38.86851011609724	2.15
C 	39.02554185427962	39.29314804110088	2.15
C 	39.335305257062714	40.6789498430539	2.15
C 	40.69032652355583	41.103587768057544	2.15
C 	41.00008992633892	42.489389570010566	2.15
C 	42.355111192832034	42.91402749501421	2.15
C 	42.664874595615125	44.29982929696723	2.15
C 	44.01989586210824	44.72446722197087	2.15
C 	44.32965926489133	46.11026902392389	2.15
C 	45.684680531384444	46.534906948927535	2.15
C 	1.664784669276204	1.8104397269566643	2.15
C 	1.9745480720592945	3.196241528909686	2.15
C 	3.329569338552408	3.6208794539133287	2.15
C 	3.6393327413354988	5.006681255866351	2.15
C 	4.994354007828612	5.431319180869993	2.15
C 	5.304117410611703	6.817120982823015	2.15
C 	6.659138677104816	7.241758907826657	2.15
C 	6.968902079887907	8.62756070977968	2.15
C 	8.32392334638102	9.052198634783322	2.15
C 	8.633686749164111	10.438000436736342	2.15
C 	9.988708015657224	10.862638361739986	2.15
C 	10.298471418440315	12.248440163693008	2.15
C 	11.653492684933429	12.673078088696652	2.15
C 	11.96325608771652	14.05887989064967	2.15
C 	13.318277354209632	14.483517815653315	2.15
C 	13.628040756992723	15.869319617606338	2.15
C 	14.983062023485836	16.293957542609977	2.15
C 	15.292825426268925	17.679759344563	2.15
C 	16.64784669276204	18.104397269566643	2.15
C 	16.95761009554513	19.490199071519665	2.15
C 	18.312631362038243	19.91483699652331	2.15
C 	18.622394764821333	21.30063879847633	2.15
C 	19.977416031314448	21.725276723479972	2.15
C 	20.28717943409754	23.111078525432994	2.15
C 	21.642200700590653	23.535716450436638	2.15
C 	21.951964103373744	24.92151825238966	2.15
C 	23.306985369866858	25.346156177393304	2.15
C 	23.61674877264995	26.731957979346326	2.15
C 	24.97177003914306	27.156595904349967	2.15
C 	25.28153344192615	28.54239770630299	2.15
C 	26.636554708419265	28.96703563130663	2.15
C 	26.946318111202356	30.352837433259655	2.15
C 	28.30133937769547	30.7774753582633	2.15
C 	28.61110278047856	32.16327716021632	2.15
C 	29.96612404697167	32.587915085219954	2.15
C 	30.275887449754762	33.97371688717298	2.15
C 	31.630908716247877	34.39835481217663	2.15
C 	31.940672119030967	35.78415661412965	2.15
C 	33.29569338552408	36.20879453913329	2.15
C 	33.60545678830717	37.59459634108631	2.15
C 	34.960478054800284	38.01923426608995	2.15
C 	35.270241457583374	39.405036068042975	2.15
C 	36.625262724076485	39.82967399304662	2.15
C 	36.935026126859576	41.21547579499964	2.15
C 	38.29004739335269	41.64011372000328	2.15
C 	38.59981079613578	43.0259155219563	2.15
C 	39.954832062628896	43.450553446959944	2.15
C 	40.264595465411986	44.836355248912966	2.15
C 	41.619616731905104	45.26099317391661	2.15
C 	5.923644216177884	9.588724586729057	2.15
C 	6.233407618960975	10.97452638868208	2.15
C 	7.588428885454087	11.39916431368572	2.15
C 	7.898192288237178	12.784966115638744	2.15
C 	9.253213554730293	13.209604040642388	2.15
C 	9.562976957513383	14.595405842595406	2.15
C 	10.917998224006496	15.02004376759905	2.15
C 	11.227761626789587	16.405845569552074	2.15
C 	12.582782893282701	16.830483494555715	2.15
C 	12.892546296065792	18.216285296508737	2.15
C 	14.247567562558903	18.640923221512377	2.15
C 	14.557330965341995	20.026725023465403	2.15
C 	15.912352231835106	20.45136294846904	2.15
C 	16.2221156346182	21.837164750422065	2.15
C 	17.577136901111313	22.26180267542571	2.15
C 	17.886900303894404	23.64760447737873	2.15
C 	19.241921570387518	24.072242402382372	2.15
C 	19.55168497317061	25.458044204335394	2.15
C 	20.90670623966372	25.882682129339035	2.15
C 	21.21646964244681	27.26848393129206	2.15
C 	22.571490908939925	27.693121856295704	2.15
C 	22.881254311723016	29.078923658248723	2.15
C 	24.23627557821613	29.503561583252367	2.15
C 	24.54603898099922	30.88936338520539	2.15
C 	25.90106024749233	31.314001310209033	2.15
C 	26.21082365027542	32.69980311216205	2.15
C 	27.565844916768537	33.1244410371657	2.15
C 	27.875608319551628	34.51024283911872	2.15
C 	29.230629586044742	34.93488076412236	2.15
C 	29.54039298882783	36.32068256607538	2.15
C 	30.895414255320944	36.74532049107903	2.15
C 	31.20517765810403	38.13112229303204	2.15
C 	32.560198924597145	38.55576021803569	2.15
C 	32.869962327380236	39.9415620199887	2.15
C 	34.224983593873354	40.36619994499235	2.15
C 	34.534746996656445	41.75200174694537	2.15
C 	35.889768263149556	42.17663967194902	2.15
C 	36.199531665932646	43.56244147390204	2.15
C 	37.55455293242576	43.987079398905685	2.15
C 	37.86431633520885	45.3728812008587	2.15
C 	39.219337601701966	45.79751912586235	2.15
C 	10.182503763079565	17.367009446501452	2.15
C 	10.492267165862655	18.752811248454474	2.15
C 	11.847288432355768	19.177449173458115	2.15
C 	12.157051835138859	20.563250975411137	2.15
C 	13.512073101631973	20.98788890041478	2.15
C 	13.821836504415062	22.3736907023678	2.15
C 	15.176857770908175	22.79832862737144	2.15
C 	15.486621173691265	24.184130429324465	2.15
C 	16.84164244018438	24.608768354328106	2.15
C 	17.15140584296747	25.99457015628113	2.15
C 	18.506427109460585	26.419208081284776	2.15
C 	18.816190512243676	27.805009883237794	2.15
C 	20.17121177873679	28.229647808241435	2.15
C 	20.48097518151988	29.615449610194457	2.15
C 	21.835996448012992	30.0400875351981	2.15
C 	22.145759850796082	31.425889337151123	2.15
C 	23.500781117289197	31.85052726215477	2.15
C 	23.810544520072284	33.236329064107785	2.15
C 	25.165565786565402	33.66096698911143	2.15
C 	25.475329189348493	35.04676879106445	2.15
C 	26.830350455841604	35.471406716068095	2.15
C 	27.140113858624694	36.85720851802112	2.15
C 	28.495135125117805	37.281846443024754	2.15
C 	28.804898527900896	38.66764824497778	2.15
C 	30.159919794394014	39.09228616998142	2.15
C 	30.469683197177105	40.47808797193444	2.15
C 	31.824704463670212	40.90272589693808	2.15
C 	32.134467866453306	42.28852769889111	2.15
C 	33.48948913294642	42.71316562389475	2.15
C 	33.79925253572951	44.098967425847775	2.15
C 	35.154273802222626	44.52360535085142	2.15
C 	35.46403720500572	45.90940715280444	2.15
C 	36.81905847149883	46.33404507780808	2.15
C 	16.106147979257447	26.95573403323051	2.15
C 	16.415911382040537	28.34153583518353	2.15
C 	17.770932648533652	28.766173760187172	2.15
C 	18.080696051316743	30.151975562140194	2.15
C 	19.435717317809857	30.576613487143838	2.15
C 	19.745480720592948	31.96241528909686	2.15
C 	21.100501987086062	32.387053214100504	2.15
C 	21.410265389869153	33.772855016053526	2.15
C 	22.765286656362264	34.19749294105716	2.15
C 	23.075050059145354	35.583294743010185	2.15
C 	24.43007132563847	36.00793266801383	2.15
C 	24.73983472842156	37.39373446996685	2.15
C 	26.094855994914674	37.818372394970496	2.15
C 	26.404619397697765	39.204174196923525	2.15
C 	27.759640664190876	39.62881212192716	2.15
C 	28.069404066973966	41.014613923880184	2.15
C 	29.42442533346708	41.43925184888383	2.15
C 	29.73418873625017	42.82505365083685	2.15
C 	31.089210002743283	43.24969157584049	2.15
C 	31.398973405526373	44.63549337779351	2.15
C 	32.75399467201949	45.06013130279715	2.15
C 	33.06375807480258	46.445933104750175	2.15
C 	34.41877934129569	46.87057102975382	2.15
C 	20.36500752615913	34.734018893002904	2.15
C 	20.67477092894222	36.11982069495592	2.15
C 	22.029792195435334	36.54445861995956	2.15
C 	22.339555598218425	37.93026042191259	2.15
C 	23.694576864711536	38.35489834691623	2.15
C 	24.004340267494626	39.74070014886925	2.15
C 	25.35936153398774	40.1653380738729	2.15
C 	25.66912493677083	41.55113987582592	2.15
C 	27.024146203263946	41.97577780082956	2.15
C 	27.333909606047033	43.36157960278258	2.15
C 	28.688930872540144	43.78621752778622	2.15
C 	28.998694275323235	45.17201932973924	2.15
C 	30.35371554181635	45.59665725474288	2.15
C 	24.623867073060808	42.512303752775296	2.15
C 	24.9336304758439	43.89810555472832	2.15
C 	26.28865174233701	44.322743479731955	2.15
C 	26.5984151451201	45.70854528168498	2.15
C 	27.953436411613218	46.13318320668862	2.15
H 	51.60093495969831	-0.28321596880012656	2.15
H 	53.99607818427418	0.46737641976264876	2.15
H 	55.66086285355039	2.2778161467193194	2.15
H 	57.32564752282659	4.088255873675971	2.15
H 	58.99043219210279	5.898695600632639	2.15
H 	59.53797172800812	8.348246673098911	2.15
H 	47.53587116021899	-1.5571297438110614	2.15
H 	49.93101438479485	-0.8065373552482858	2.15
H 	59.91972240045207	10.056101006491703	2.15
H 	61.58450706972826	11.866540733448357	2.15
H 	63.24929173900448	13.67698046040503	2.15
H 	64.91407640828068	15.487420187361694	2.15
H 	65.461615944186	17.93697125982796	2.15
H 	45.13559203001585	-1.0206037918653257	2.15
H 	65.84336661662995	19.64482559322076	2.15
H 	67.50815128590617	21.455265320177418	2.15
H 	69.17293595518234	23.265705047134087	2.15
H 	69.72047549108768	25.715256119600355	2.15
H 	42.73531289981272	-0.48407783991958997	2.15
H 	70.10222616353164	27.423110452993143	2.15
H 	71.76701083280784	29.23355017994981	2.15
H 	73.43179550208404	31.043989906906482	2.15
H 	75.09658017136022	32.854429633863134	2.15
H 	75.64411970726555	35.30398070632941	2.15
H 	38.670249100333386	-1.7579916149305173	2.15
H 	41.065392324909226	-1.0073992263677467	2.15
H 	76.02587037970952	37.0118350397222	2.15
H 	76.57340991561483	39.46138611218846	2.15
H 	36.26996997013024	-1.2214656629847782	2.15
H 	75.8379154546879	41.80835179109088	2.15
H 	33.86969083992711	-0.684939711039048	2.15
H 	75.10242099376097	44.15531746999326	2.15
H 	29.804627040447773	-1.9588534860499769	2.15
H 	32.199770265023616	-1.2082610974871977	2.15
H 	73.25481730509044	45.85427615389674	2.15
H 	27.404347910244642	-1.4223275341042387	2.15
H 	70.8545381748873	46.39080210584249	2.15
H 	25.004068780041493	-0.8858015821585044	2.15
H 	68.45425904468416	46.92732805778822	2.15
H 	22.603789649838355	-0.3492756302127703	2.15
H 	63.65883668990518	46.713261621171185	2.15
H 	66.05397991448103	47.46385400973395	2.15
H 	18.538725850359015	-1.6231894052236977	2.15
H 	20.933869074934872	-0.8725970166609203	2.15
H 	61.98891611500169	46.18994023472303	2.15
H 	16.13844672015588	-1.0866634532779609	2.15
H 	59.58863698479856	46.72646618666875	2.15
H 	13.738167589952745	-0.5501375013322258	2.15
H 	57.18835785459544	47.26299213861449	2.15
H 	9.673103790473403	-1.8240512763431553	2.15
H 	12.068247015049257	-1.0734588877803803	2.15
H 	52.39293549981643	47.048925701997454	2.15
H 	54.788078724392264	47.79951809056024	2.15
H 	7.272824660270267	-1.2875253243974196	2.15
H 	50.723014924912945	46.5256043155493	2.15
H 	4.87254553006713	-0.7509993724516839	2.15
H 	48.32273579470981	47.06213026749504	2.15
H 	43.52731343993082	46.84806383087799	2.15
H 	45.922456664506676	47.59865621944077	2.15
H 	0.6246627111934622	1.4844852633975298	2.15
H 	1.172202247098784	3.9340363358637864	2.15
H 	2.836986916374989	5.744476062820452	2.15
H 	4.501771585651192	7.554915789777115	2.15
H 	41.85739286502734	46.324742444429845	2.15
H 	4.883522258095143	9.262770123169922	2.15
H 	5.431061794000466	11.712321195636182	2.15
H 	7.0958464632766685	13.522760922592845	2.15
H 	8.76063113255287	15.333200649549504	2.15
H 	39.4571137348242	46.861268396375586	2.15
H 	9.142381804996823	17.041054982942317	2.15
H 	9.689921340902144	19.490606055408573	2.15
H 	11.354706010178347	21.301045782365236	2.15
H 	13.01949067945455	23.1114855093219	2.15
H 	14.684275348730756	24.921925236278568	2.15
H 	37.05683460462106	47.39779434832131	2.15
H 	15.066026021174705	26.629779569671374	2.15
H 	15.613565557080026	29.07933064213763	2.15
H 	17.27835022635623	30.889770369094297	2.15
H 	18.943134895632436	32.70021009605096	2.15
H 	32.261412249842074	47.18372791170428	2.15
H 	34.65655547441792	47.93432030026705	2.15
H 	19.324885568076386	34.408064429443776	2.15
H 	19.872425103981705	36.85761550191001	2.15
H 	21.537209773257924	38.668055228866706	2.15
H 	23.201994442534115	40.47849495582335	2.15
H 	30.591491674938585	46.660406525256114	2.15
H 	23.58374511497807	42.18634928921615	2.15
H 	24.13128465088339	44.635900361682424	2.15
H 	25.796069320159585	46.44634008863907	2.15
H 	28.19121254473546	47.196932477201855	2.15
