2302

C 	0.0	0.0	0.0
C 	1.2297560733739028	0.7099999999999999	0.0
C 	2.4595121467478056	-2.3647750424515833e-16	0.0
C 	3.689268220121708	0.7099999999999995	0.0
C 	4.919024293495611	-4.729550084903167e-16	0.0
C 	6.148780366869514	0.7099999999999993	0.0
C 	7.378536440243416	-7.09432512735475e-16	0.0
C 	8.60829251361732	0.7099999999999991	0.0
C 	9.838048586991222	-9.459100169806333e-16	0.0
C 	11.067804660365125	0.7099999999999989	0.0
C 	12.297560733739026	-1.1823875212257916e-15	0.0
C 	13.527316807112928	0.7099999999999986	0.0
C 	14.757072880486833	-1.41886502547095e-15	0.0
C 	15.986828953860735	0.7099999999999984	0.0
C 	17.21658502723464	-7.671641100159832e-16	0.0
C 	18.44634110060854	0.7099999999999982	0.0
C 	19.676097173982445	-1.8918200339612667e-15	0.0
C 	20.905853247356347	0.7099999999999989	0.0
C 	22.135609320730246	-2.128297538206425e-15	0.0
C 	23.36536539410415	0.7099999999999967	0.0
C 	24.59512146747805	-2.364775042451583e-15	0.0
C 	25.824877540851954	0.7099999999999983	0.0
C 	27.05463361422586	-8.248957072964913e-16	0.0
C 	28.284389687599763	0.7099999999999999	0.0
C 	29.514145760973665	-2.8377300509419e-15	0.0
C 	30.743901834347565	0.7099999999999961	0.0
C 	31.97365790772147	-3.0742075551870582e-15	0.0
C 	33.20341398109537	0.7099999999999976	0.0
C 	34.43317005446928	-1.5343282200319664e-15	0.0
C 	35.66292612784318	0.7099999999999992	0.0
C 	36.892682201217085	-1.7708057242771246e-15	0.0
C 	38.122438274590984	0.7099999999999972	0.0
C 	39.35219434796489	-3.783640067922533e-15	0.0
C 	40.58195042133879	0.7099999999999969	0.0
C 	41.811706494712695	-4.67403893367191e-16	0.0
C 	43.0414625680866	0.7100000000000002	0.0
C 	44.27121864146049	-4.25659507641285e-15	0.0
C 	45.5009747148344	0.7099999999999964	0.0
C 	46.730730788208305	-9.403589018575075e-16	0.0
C 	47.96048686158221	0.7099999999999997	0.0
C 	49.1902429349561	-4.729550084903166e-15	0.0
C 	50.41999900833001	0.709999999999996	0.0
C 	51.64975508170391	-1.413313910347824e-15	0.0
C 	52.879511155077815	0.7099999999999993	0.0
C 	54.10926722845172	-1.6497914145929826e-15	0.0
C 	55.33902330182562	0.7099999999999991	0.0
C 	56.56877937519952	-5.438982597638641e-15	0.0
C 	57.798535448573425	0.7099999999999953	0.0
C 	59.02829152194733	-5.6754601018838e-15	0.0
C 	60.25804759532124	0.709999999999995	0.0
C 	1.2297560733739028	2.1299999999999994	0.0
C 	2.4595121467478056	2.8399999999999994	0.0
C 	3.689268220121708	2.1299999999999994	0.0
C 	4.919024293495611	2.8399999999999994	0.0
C 	6.148780366869514	2.129999999999999	0.0
C 	7.378536440243416	2.839999999999999	0.0
C 	8.60829251361732	2.1299999999999986	0.0
C 	9.838048586991222	2.8399999999999985	0.0
C 	11.067804660365123	2.129999999999998	0.0
C 	12.297560733739028	2.839999999999999	0.0
C 	13.527316807112928	2.1299999999999977	0.0
C 	14.757072880486833	2.839999999999998	0.0
C 	15.986828953860735	2.129999999999998	0.0
C 	17.216585027234636	2.839999999999997	0.0
C 	18.446341100608542	2.129999999999998	0.0
C 	19.676097173982445	2.8399999999999985	0.0
C 	20.905853247356344	2.1299999999999977	0.0
C 	22.13560932073025	2.8399999999999985	0.0
C 	23.36536539410415	2.129999999999997	0.0
C 	24.595121467478055	2.839999999999997	0.0
C 	25.824877540851954	2.1299999999999963	0.0
C 	27.05463361422586	2.839999999999997	0.0
C 	28.284389687599763	2.129999999999998	0.0
C 	29.514145760973665	2.8399999999999985	0.0
C 	30.743901834347568	2.129999999999996	0.0
C 	31.97365790772147	2.8399999999999967	0.0
C 	33.20341398109537	2.129999999999996	0.0
C 	34.43317005446928	2.8399999999999963	0.0
C 	35.66292612784318	2.1299999999999972	0.0
C 	36.89268220121708	2.8399999999999963	0.0
C 	38.122438274590984	2.129999999999997	0.0
C 	39.35219434796489	2.8399999999999976	0.0
C 	40.58195042133879	2.1299999999999986	0.0
C 	41.81170649471269	2.839999999999996	0.0
C 	43.0414625680866	2.129999999999998	0.0
C 	44.2712186414605	2.8399999999999954	0.0
C 	45.5009747148344	2.129999999999998	0.0
C 	46.7307307882083	2.8399999999999954	0.0
C 	47.96048686158221	2.1299999999999977	0.0
C 	49.19024293495611	2.839999999999995	0.0
C 	50.41999900833001	2.1299999999999977	0.0
C 	51.64975508170391	2.8399999999999945	0.0
C 	52.879511155077815	2.1299999999999972	0.0
C 	54.10926722845171	2.8399999999999945	0.0
C 	55.33902330182563	2.130000000000001	0.0
C 	56.56877937519952	2.8399999999999976	0.0
C 	57.798535448573425	2.129999999999997	0.0
C 	59.028291521947324	2.839999999999994	0.0
C 	60.25804759532124	2.129999999999997	0.0
C 	61.487803668695136	2.8399999999999936	0.0
C 	2.4595121467478056	4.259999999999999	0.0
C 	3.689268220121708	4.969999999999999	0.0
C 	4.919024293495611	4.259999999999999	0.0
C 	6.148780366869514	4.969999999999999	0.0
C 	7.378536440243416	4.259999999999999	0.0
C 	8.60829251361732	4.969999999999999	0.0
C 	9.83804858699122	4.259999999999998	0.0
C 	11.067804660365125	4.969999999999999	0.0
C 	12.297560733739028	4.259999999999998	0.0
C 	13.52731680711293	4.969999999999998	0.0
C 	14.757072880486831	4.259999999999998	0.0
C 	15.986828953860735	4.969999999999998	0.0
C 	17.21658502723464	4.259999999999997	0.0
C 	18.446341100608542	4.969999999999998	0.0
C 	19.676097173982445	4.259999999999999	0.0
C 	20.905853247356347	4.969999999999997	0.0
C 	22.135609320730246	4.259999999999996	0.0
C 	23.365365394104153	4.969999999999997	0.0
C 	24.595121467478055	4.259999999999998	0.0
C 	25.824877540851958	4.969999999999997	0.0
C 	27.054633614225857	4.259999999999995	0.0
C 	28.28438968759976	4.969999999999996	0.0
C 	29.514145760973665	4.259999999999997	0.0
C 	30.743901834347568	4.969999999999997	0.0
C 	31.97365790772147	4.259999999999996	0.0
C 	33.20341398109537	4.969999999999995	0.0
C 	34.43317005446927	4.2599999999999945	0.0
C 	35.66292612784318	4.969999999999995	0.0
C 	36.892682201217085	4.259999999999996	0.0
C 	38.122438274590984	4.969999999999997	0.0
C 	39.35219434796489	4.259999999999997	0.0
C 	40.58195042133879	4.969999999999994	0.0
C 	41.81170649471269	4.259999999999995	0.0
C 	43.041462568086594	4.969999999999996	0.0
C 	44.2712186414605	4.259999999999997	0.0
C 	45.500974714834406	4.969999999999998	0.0
C 	46.7307307882083	4.259999999999994	0.0
C 	47.960486861582204	4.9699999999999935	0.0
C 	49.19024293495611	4.259999999999996	0.0
C 	50.41999900833001	4.969999999999997	0.0
C 	51.64975508170391	4.259999999999993	0.0
C 	52.879511155077815	4.9699999999999935	0.0
C 	54.10926722845171	4.259999999999996	0.0
C 	55.33902330182562	4.969999999999997	0.0
C 	56.568779375199526	4.259999999999996	0.0
C 	57.798535448573425	4.969999999999996	0.0
C 	59.028291521947324	4.259999999999995	0.0
C 	60.25804759532123	4.969999999999996	0.0
C 	61.487803668695136	4.259999999999992	0.0
C 	62.717559742069035	4.969999999999993	0.0
C 	3.6892682201217086	6.389999999999999	0.0
C 	4.919024293495611	7.099999999999999	0.0
C 	6.148780366869514	6.389999999999999	0.0
C 	7.378536440243416	7.099999999999999	0.0
C 	8.608292513617318	6.389999999999998	0.0
C 	9.838048586991222	7.099999999999999	0.0
C 	11.067804660365125	6.389999999999998	0.0
C 	12.297560733739028	7.099999999999998	0.0
C 	13.52731680711293	6.389999999999999	0.0
C 	14.757072880486833	7.099999999999998	0.0
C 	15.986828953860735	6.389999999999998	0.0
C 	17.216585027234636	7.099999999999997	0.0
C 	18.44634110060854	6.389999999999997	0.0
C 	19.676097173982445	7.099999999999998	0.0
C 	20.905853247356347	6.389999999999998	0.0
C 	22.13560932073025	7.099999999999997	0.0
C 	23.365365394104153	6.389999999999998	0.0
C 	24.59512146747805	7.099999999999997	0.0
C 	25.824877540851958	6.389999999999998	0.0
C 	27.054633614225857	7.099999999999997	0.0
C 	28.28438968759976	6.389999999999999	0.0
C 	29.514145760973662	7.099999999999997	0.0
C 	30.743901834347568	6.389999999999999	0.0
C 	31.97365790772147	7.099999999999998	0.0
C 	33.20341398109537	6.389999999999995	0.0
C 	34.43317005446928	7.099999999999994	0.0
C 	35.66292612784318	6.389999999999995	0.0
C 	36.892682201217085	7.099999999999996	0.0
C 	38.122438274590984	6.389999999999996	0.0
C 	39.35219434796489	7.099999999999997	0.0
C 	40.58195042133879	6.389999999999994	0.0
C 	41.811706494712695	7.099999999999995	0.0
C 	43.041462568086594	6.389999999999996	0.0
C 	44.2712186414605	7.099999999999997	0.0
C 	45.500974714834406	6.389999999999998	0.0
C 	46.730730788208305	7.099999999999998	0.0
C 	47.960486861582204	6.389999999999995	0.0
C 	49.19024293495611	7.099999999999996	0.0
C 	50.41999900833001	6.389999999999995	0.0
C 	51.649755081703915	7.099999999999996	0.0
C 	52.879511155077815	6.389999999999995	0.0
C 	54.10926722845172	7.099999999999996	0.0
C 	55.33902330182562	6.389999999999995	0.0
C 	56.568779375199526	7.099999999999995	0.0
C 	57.79853544857343	6.389999999999998	0.0
C 	59.02829152194733	7.099999999999999	0.0
C 	60.25804759532123	6.389999999999994	0.0
C 	61.487803668695136	7.099999999999995	0.0
C 	62.71755974206904	6.389999999999994	0.0
C 	63.94731581544294	7.099999999999995	0.0
C 	4.919024293495611	8.519999999999998	0.0
C 	6.148780366869514	9.229999999999999	0.0
C 	7.378536440243416	8.519999999999998	0.0
C 	8.60829251361732	9.229999999999999	0.0
C 	9.838048586991222	8.519999999999998	0.0
C 	11.067804660365125	9.229999999999999	0.0
C 	12.297560733739028	8.519999999999998	0.0
C 	13.52731680711293	9.229999999999997	0.0
C 	14.757072880486833	8.519999999999998	0.0
C 	15.986828953860737	9.229999999999999	0.0
C 	17.216585027234636	8.519999999999998	0.0
C 	18.44634110060854	9.229999999999997	0.0
C 	19.67609717398244	8.519999999999996	0.0
C 	20.905853247356347	9.229999999999997	0.0
C 	22.13560932073025	8.519999999999998	0.0
C 	23.365365394104153	9.229999999999999	0.0
C 	24.595121467478055	8.519999999999996	0.0
C 	25.824877540851954	9.229999999999995	0.0
C 	27.05463361422586	8.519999999999996	0.0
C 	28.284389687599763	9.229999999999997	0.0
C 	29.514145760973662	8.519999999999996	0.0
C 	30.743901834347565	9.229999999999995	0.0
C 	31.97365790772147	8.52	0.0
C 	33.20341398109537	9.229999999999997	0.0
C 	34.43317005446928	8.519999999999994	0.0
C 	35.66292612784318	9.229999999999995	0.0
C 	36.89268220121708	8.519999999999992	0.0
C 	38.122438274590984	9.229999999999993	0.0
C 	39.35219434796489	8.519999999999998	0.0
C 	40.58195042133879	9.229999999999995	0.0
C 	41.811706494712695	8.519999999999994	0.0
C 	43.0414625680866	9.229999999999995	0.0
C 	44.27121864146049	8.519999999999992	0.0
C 	45.5009747148344	9.229999999999993	0.0
C 	46.730730788208305	8.519999999999998	0.0
C 	47.960486861582204	9.229999999999995	0.0
C 	49.19024293495611	8.519999999999996	0.0
C 	50.41999900833001	9.229999999999993	0.0
C 	51.64975508170391	8.519999999999994	0.0
C 	52.879511155077815	9.229999999999995	0.0
C 	54.10926722845171	8.51999999999999	0.0
C 	55.33902330182562	9.229999999999992	0.0
C 	56.568779375199526	8.519999999999998	0.0
C 	57.798535448573425	9.229999999999995	0.0
C 	59.02829152194733	8.519999999999994	0.0
C 	60.25804759532123	9.229999999999993	0.0
C 	61.48780366869513	8.519999999999992	0.0
C 	62.717559742069035	9.229999999999993	0.0
C 	63.94731581544294	8.519999999999992	0.0
C 	65.17707188881684	9.22999999999999	0.0
C 	6.148780366869514	10.649999999999997	0.0
C 	7.378536440243416	11.359999999999998	0.0
C 	8.608292513617318	10.649999999999997	0.0
C 	9.838048586991222	11.359999999999998	0.0
C 	11.067804660365125	10.649999999999997	0.0
C 	12.297560733739028	11.359999999999996	0.0
C 	13.52731680711293	10.649999999999997	0.0
C 	14.757072880486831	11.359999999999996	0.0
C 	15.986828953860735	10.649999999999997	0.0
C 	17.216585027234636	11.359999999999996	0.0
C 	18.44634110060854	10.649999999999997	0.0
C 	19.676097173982445	11.359999999999998	0.0
C 	20.905853247356347	10.649999999999997	0.0
C 	22.13560932073025	11.359999999999996	0.0
C 	23.365365394104153	10.649999999999997	0.0
C 	24.595121467478055	11.359999999999996	0.0
C 	25.824877540851958	10.649999999999997	0.0
C 	27.05463361422586	11.359999999999996	0.0
C 	28.284389687599763	10.649999999999995	0.0
C 	29.514145760973662	11.359999999999994	0.0
C 	30.743901834347565	10.649999999999995	0.0
C 	31.97365790772147	11.359999999999996	0.0
C 	33.20341398109537	10.649999999999997	0.0
C 	34.43317005446928	11.359999999999998	0.0
C 	35.66292612784318	10.649999999999991	0.0
C 	36.89268220121708	11.359999999999992	0.0
C 	38.122438274590984	10.649999999999993	0.0
C 	39.35219434796489	11.359999999999994	0.0
C 	40.58195042133879	10.649999999999993	0.0
C 	41.811706494712695	11.359999999999994	0.0
C 	43.041462568086594	10.649999999999991	0.0
C 	44.2712186414605	11.359999999999992	0.0
C 	45.5009747148344	10.649999999999993	0.0
C 	46.730730788208305	11.359999999999994	0.0
C 	47.960486861582204	10.649999999999995	0.0
C 	49.19024293495611	11.359999999999996	0.0
C 	50.41999900833001	10.649999999999993	0.0
C 	51.649755081703915	11.359999999999994	0.0
C 	52.879511155077815	10.649999999999995	0.0
C 	54.10926722845172	11.359999999999996	0.0
C 	55.33902330182562	10.649999999999993	0.0
C 	56.568779375199526	11.359999999999994	0.0
C 	57.798535448573425	10.649999999999993	0.0
C 	59.02829152194733	11.359999999999992	0.0
C 	60.25804759532124	10.649999999999995	0.0
C 	61.487803668695136	11.359999999999996	0.0
C 	62.717559742069035	10.649999999999991	0.0
C 	63.94731581544294	11.359999999999992	0.0
C 	65.17707188881684	10.649999999999991	0.0
C 	66.40682796219075	11.359999999999992	0.0
C 	7.378536440243417	12.779999999999998	0.0
C 	8.60829251361732	13.489999999999998	0.0
C 	9.838048586991222	12.78	0.0
C 	11.067804660365125	13.489999999999997	0.0
C 	12.297560733739028	12.779999999999998	0.0
C 	13.527316807112932	13.489999999999998	0.0
C 	14.757072880486833	12.779999999999998	0.0
C 	15.986828953860737	13.489999999999997	0.0
C 	17.216585027234636	12.779999999999996	0.0
C 	18.446341100608542	13.489999999999997	0.0
C 	19.676097173982445	12.779999999999998	0.0
C 	20.905853247356347	13.489999999999997	0.0
C 	22.13560932073025	12.779999999999996	0.0
C 	23.36536539410415	13.489999999999995	0.0
C 	24.595121467478055	12.779999999999996	0.0
C 	25.824877540851958	13.489999999999997	0.0
C 	27.05463361422586	12.779999999999998	0.0
C 	28.284389687599763	13.489999999999997	0.0
C 	29.514145760973662	12.779999999999996	0.0
C 	30.743901834347568	13.489999999999997	0.0
C 	31.97365790772147	12.779999999999996	0.0
C 	33.20341398109537	13.489999999999997	0.0
C 	34.43317005446928	12.779999999999998	0.0
C 	35.66292612784318	13.489999999999995	0.0
C 	36.89268220121708	12.779999999999994	0.0
C 	38.122438274590984	13.489999999999995	0.0
C 	39.35219434796489	12.779999999999996	0.0
C 	40.581950421338796	13.489999999999997	0.0
C 	41.811706494712695	12.779999999999996	0.0
C 	43.041462568086594	13.489999999999993	0.0
C 	44.2712186414605	12.779999999999994	0.0
C 	45.5009747148344	13.489999999999995	0.0
C 	46.730730788208305	12.779999999999996	0.0
C 	47.96048686158221	13.489999999999997	0.0
C 	49.19024293495611	12.779999999999998	0.0
C 	50.41999900833001	13.489999999999995	0.0
C 	51.649755081703915	12.779999999999996	0.0
C 	52.879511155077815	13.489999999999993	0.0
C 	54.10926722845172	12.779999999999998	0.0
C 	55.33902330182563	13.489999999999998	0.0
C 	56.56877937519952	12.779999999999998	0.0
C 	57.798535448573425	13.489999999999997	0.0
C 	59.02829152194733	12.779999999999994	0.0
C 	60.25804759532123	13.489999999999991	0.0
C 	61.487803668695136	12.779999999999998	0.0
C 	62.71755974206904	13.489999999999998	0.0
C 	63.94731581544294	12.779999999999994	0.0
C 	65.17707188881684	13.489999999999995	0.0
C 	66.40682796219075	12.77999999999999	0.0
C 	67.63658403556465	13.489999999999988	0.0
C 	8.60829251361732	14.909999999999998	0.0
C 	9.838048586991222	15.619999999999996	0.0
C 	11.067804660365125	14.909999999999997	0.0
C 	12.297560733739026	15.619999999999996	0.0
C 	13.527316807112934	14.909999999999998	0.0
C 	14.757072880486831	15.619999999999996	0.0
C 	15.986828953860737	14.909999999999998	0.0
C 	17.21658502723464	15.619999999999997	0.0
C 	18.446341100608542	14.909999999999997	0.0
C 	19.676097173982445	15.619999999999996	0.0
C 	20.905853247356347	14.909999999999997	0.0
C 	22.135609320730246	15.619999999999996	0.0
C 	23.365365394104153	14.909999999999995	0.0
C 	24.595121467478055	15.619999999999996	0.0
C 	25.824877540851958	14.909999999999997	0.0
C 	27.05463361422586	15.619999999999996	0.0
C 	28.284389687599763	14.909999999999997	0.0
C 	29.514145760973665	15.619999999999996	0.0
C 	30.743901834347568	14.909999999999997	0.0
C 	31.973657907721474	15.619999999999997	0.0
C 	33.203413981095366	14.909999999999993	0.0
C 	34.43317005446927	15.619999999999994	0.0
C 	35.662926127843185	14.909999999999998	0.0
C 	36.892682201217085	15.619999999999996	0.0
C 	38.122438274590984	14.909999999999995	0.0
C 	39.35219434796489	15.619999999999996	0.0
C 	40.58195042133879	14.909999999999993	0.0
C 	41.811706494712695	15.619999999999994	0.0
C 	43.0414625680866	14.909999999999998	0.0
C 	44.2712186414605	15.619999999999996	0.0
C 	45.5009747148344	14.909999999999995	0.0
C 	46.730730788208305	15.619999999999996	0.0
C 	47.960486861582204	14.909999999999993	0.0
C 	49.19024293495611	15.619999999999994	0.0
C 	50.41999900833002	14.909999999999998	0.0
C 	51.649755081703915	15.619999999999996	0.0
C 	52.87951115507782	14.909999999999997	0.0
C 	54.10926722845171	15.619999999999994	0.0
C 	55.33902330182562	14.909999999999995	0.0
C 	56.568779375199526	15.619999999999994	0.0
C 	57.798535448573425	14.909999999999991	0.0
C 	59.028291521947324	15.619999999999992	0.0
C 	60.25804759532124	14.909999999999998	0.0
C 	61.487803668695136	15.619999999999996	0.0
C 	62.717559742069035	14.909999999999993	0.0
C 	63.94731581544294	15.619999999999994	0.0
C 	65.17707188881684	14.909999999999993	0.0
C 	66.40682796219075	15.619999999999994	0.0
C 	67.63658403556465	14.909999999999997	0.0
C 	68.86634010893854	15.61999999999999	0.0
C 	9.838048586991222	17.039999999999996	0.0
C 	11.067804660365127	17.749999999999996	0.0
C 	12.297560733739028	17.039999999999996	0.0
C 	13.527316807112932	17.749999999999996	0.0
C 	14.757072880486833	17.039999999999996	0.0
C 	15.986828953860735	17.749999999999996	0.0
C 	17.21658502723464	17.039999999999996	0.0
C 	18.446341100608546	17.749999999999996	0.0
C 	19.676097173982445	17.039999999999996	0.0
C 	20.905853247356347	17.749999999999996	0.0
C 	22.13560932073025	17.039999999999996	0.0
C 	23.365365394104153	17.749999999999996	0.0
C 	24.595121467478055	17.039999999999996	0.0
C 	25.82487754085196	17.749999999999996	0.0
C 	27.05463361422586	17.039999999999996	0.0
C 	28.28438968759977	17.75	0.0
C 	29.514145760973665	17.039999999999996	0.0
C 	30.74390183434757	17.749999999999996	0.0
C 	31.973657907721467	17.039999999999992	0.0
C 	33.20341398109537	17.749999999999993	0.0
C 	34.43317005446927	17.039999999999996	0.0
C 	35.66292612784318	17.749999999999996	0.0
C 	36.892682201217085	17.039999999999996	0.0
C 	38.122438274590984	17.749999999999996	0.0
C 	39.35219434796488	17.039999999999992	0.0
C 	40.58195042133879	17.749999999999993	0.0
C 	41.811706494712695	17.039999999999992	0.0
C 	43.041462568086594	17.749999999999993	0.0
C 	44.2712186414605	17.039999999999996	0.0
C 	45.500974714834406	17.749999999999996	0.0
C 	46.7307307882083	17.039999999999992	0.0
C 	47.960486861582204	17.749999999999993	0.0
C 	49.19024293495611	17.039999999999992	0.0
C 	50.41999900833002	17.749999999999993	0.0
C 	51.649755081703915	17.039999999999996	0.0
C 	52.87951115507782	17.749999999999996	0.0
C 	54.10926722845172	17.039999999999992	0.0
C 	55.33902330182562	17.749999999999993	0.0
C 	56.568779375199526	17.039999999999996	0.0
C 	57.79853544857343	17.749999999999996	0.0
C 	59.028291521947324	17.039999999999992	0.0
C 	60.25804759532123	17.749999999999993	0.0
C 	61.487803668695136	17.039999999999996	0.0
C 	62.71755974206904	17.749999999999996	0.0
C 	63.94731581544294	17.04	0.0
C 	65.17707188881684	17.749999999999993	0.0
C 	66.40682796219075	17.039999999999996	0.0
C 	67.63658403556464	17.74999999999999	0.0
C 	68.86634010893856	17.03999999999999	0.0
C 	70.09609618231246	17.74999999999999	0.0
C 	11.067804660365125	19.169999999999995	0.0
C 	12.297560733739026	19.879999999999995	0.0
C 	13.52731680711293	19.169999999999995	0.0
C 	14.757072880486831	19.879999999999995	0.0
C 	15.986828953860737	19.169999999999998	0.0
C 	17.216585027234636	19.879999999999992	0.0
C 	18.446341100608542	19.169999999999995	0.0
C 	19.676097173982445	19.879999999999995	0.0
C 	20.905853247356347	19.169999999999995	0.0
C 	22.135609320730246	19.879999999999995	0.0
C 	23.365365394104153	19.169999999999995	0.0
C 	24.59512146747805	19.879999999999995	0.0
C 	25.824877540851958	19.169999999999995	0.0
C 	27.05463361422586	19.879999999999995	0.0
C 	28.284389687599763	19.169999999999995	0.0
C 	29.51414576097367	19.879999999999995	0.0
C 	30.743901834347565	19.16999999999999	0.0
C 	31.97365790772147	19.879999999999992	0.0
C 	33.20341398109537	19.169999999999995	0.0
C 	34.43317005446927	19.879999999999992	0.0
C 	35.66292612784318	19.169999999999995	0.0
C 	36.89268220121708	19.879999999999992	0.0
C 	38.122438274590984	19.169999999999995	0.0
C 	39.35219434796488	19.879999999999992	0.0
C 	40.58195042133879	19.16999999999999	0.0
C 	41.81170649471269	19.87999999999999	0.0
C 	43.0414625680866	19.169999999999995	0.0
C 	44.27121864146049	19.879999999999992	0.0
C 	45.5009747148344	19.16999999999999	0.0
C 	46.730730788208305	19.879999999999992	0.0
C 	47.960486861582204	19.169999999999995	0.0
C 	49.1902429349561	19.879999999999992	0.0
C 	50.41999900833002	19.169999999999995	0.0
C 	51.649755081703915	19.879999999999992	0.0
C 	52.879511155077815	19.16999999999999	0.0
C 	54.10926722845172	19.879999999999992	0.0
C 	55.33902330182562	19.16999999999999	0.0
C 	56.56877937519952	19.879999999999992	0.0
C 	57.79853544857343	19.169999999999995	0.0
C 	59.02829152194733	19.879999999999992	0.0
C 	60.25804759532123	19.169999999999995	0.0
C 	61.48780366869513	19.879999999999992	0.0
C 	62.717559742069035	19.16999999999999	0.0
C 	63.94731581544294	19.879999999999992	0.0
C 	65.17707188881684	19.169999999999995	0.0
C 	66.40682796219075	19.87999999999999	0.0
C 	67.63658403556465	19.169999999999995	0.0
C 	68.86634010893854	19.87999999999999	0.0
C 	70.09609618231245	19.16999999999999	0.0
C 	71.32585225568636	19.879999999999992	0.0
C 	12.297560733739028	21.299999999999994	0.0
C 	13.527316807112932	22.009999999999994	0.0
C 	14.757072880486831	21.299999999999994	0.0
C 	15.986828953860735	22.009999999999994	0.0
C 	17.216585027234636	21.299999999999994	0.0
C 	18.44634110060854	22.009999999999994	0.0
C 	19.676097173982445	21.299999999999994	0.0
C 	20.905853247356347	22.009999999999994	0.0
C 	22.13560932073025	21.299999999999994	0.0
C 	23.365365394104153	22.009999999999994	0.0
C 	24.595121467478055	21.299999999999994	0.0
C 	25.824877540851958	22.009999999999994	0.0
C 	27.05463361422586	21.299999999999994	0.0
C 	28.284389687599766	22.009999999999994	0.0
C 	29.514145760973662	21.29999999999999	0.0
C 	30.743901834347568	22.00999999999999	0.0
C 	31.97365790772147	21.299999999999994	0.0
C 	33.20341398109537	22.009999999999994	0.0
C 	34.43317005446928	21.299999999999994	0.0
C 	35.662926127843185	22.009999999999994	0.0
C 	36.89268220121708	21.299999999999994	0.0
C 	38.122438274590984	22.009999999999994	0.0
C 	39.35219434796489	21.299999999999994	0.0
C 	40.58195042133879	22.009999999999994	0.0
C 	41.811706494712695	21.299999999999994	0.0
C 	43.0414625680866	22.009999999999994	0.0
C 	44.2712186414605	21.29999999999999	0.0
C 	45.5009747148344	22.00999999999999	0.0
C 	46.730730788208305	21.299999999999994	0.0
C 	47.96048686158221	22.009999999999994	0.0
C 	49.19024293495611	21.299999999999994	0.0
C 	50.41999900833002	22.009999999999994	0.0
C 	51.649755081703915	21.299999999999994	0.0
C 	52.879511155077815	22.00999999999999	0.0
C 	54.10926722845172	21.299999999999994	0.0
C 	55.33902330182563	22.009999999999994	0.0
C 	56.568779375199526	21.29999999999999	0.0
C 	57.798535448573425	22.00999999999999	0.0
C 	59.02829152194733	21.299999999999994	0.0
C 	60.25804759532124	22.009999999999994	0.0
C 	61.48780366869513	21.29999999999999	0.0
C 	62.717559742069035	22.00999999999999	0.0
C 	63.94731581544294	21.299999999999994	0.0
C 	65.17707188881684	22.009999999999987	0.0
C 	66.40682796219075	21.299999999999994	0.0
C 	67.63658403556465	22.009999999999994	0.0
C 	68.86634010893854	21.29999999999999	0.0
C 	70.09609618231245	22.00999999999999	0.0
C 	71.32585225568636	21.299999999999983	0.0
C 	72.55560832906026	22.00999999999999	0.0
C 	13.527316807112932	23.429999999999996	0.0
C 	14.757072880486836	24.139999999999997	0.0
C 	15.986828953860737	23.429999999999996	0.0
C 	17.216585027234643	24.139999999999997	0.0
C 	18.446341100608542	23.429999999999996	0.0
C 	19.676097173982445	24.139999999999997	0.0
C 	20.90585324735635	23.429999999999996	0.0
C 	22.135609320730254	24.139999999999997	0.0
C 	23.365365394104156	23.429999999999993	0.0
C 	24.595121467478062	24.139999999999997	0.0
C 	25.824877540851958	23.429999999999993	0.0
C 	27.054633614225864	24.139999999999993	0.0
C 	28.284389687599766	23.429999999999996	0.0
C 	29.514145760973673	24.139999999999997	0.0
C 	30.743901834347575	23.429999999999996	0.0
C 	31.973657907721478	24.139999999999997	0.0
C 	33.20341398109537	23.429999999999993	0.0
C 	34.43317005446928	24.139999999999993	0.0
C 	35.66292612784318	23.429999999999993	0.0
C 	36.892682201217085	24.139999999999993	0.0
C 	38.122438274590984	23.429999999999993	0.0
C 	39.35219434796489	24.139999999999993	0.0
C 	40.58195042133879	23.429999999999996	0.0
C 	41.811706494712695	24.139999999999993	0.0
C 	43.041462568086594	23.42999999999999	0.0
C 	44.2712186414605	24.13999999999999	0.0
C 	45.5009747148344	23.429999999999993	0.0
C 	46.730730788208305	24.139999999999993	0.0
C 	47.96048686158221	23.429999999999993	0.0
C 	49.19024293495611	24.139999999999993	0.0
C 	50.41999900833001	23.429999999999993	0.0
C 	51.649755081703915	24.13999999999999	0.0
C 	52.87951115507782	23.429999999999993	0.0
C 	54.10926722845172	24.139999999999993	0.0
C 	55.33902330182563	23.429999999999993	0.0
C 	56.56877937519953	24.139999999999993	0.0
C 	57.798535448573425	23.429999999999993	0.0
C 	59.02829152194733	24.139999999999993	0.0
C 	60.25804759532124	23.429999999999993	0.0
C 	61.487803668695136	24.13999999999999	0.0
C 	62.71755974206904	23.429999999999993	0.0
C 	63.947315815442934	24.139999999999986	0.0
C 	65.17707188881684	23.429999999999993	0.0
C 	66.40682796219075	24.139999999999993	0.0
C 	67.63658403556464	23.42999999999999	0.0
C 	68.86634010893856	24.139999999999997	0.0
C 	70.09609618231245	23.42999999999999	0.0
C 	71.32585225568636	24.139999999999997	0.0
C 	72.55560832906026	23.42999999999999	0.0
C 	73.78536440243417	24.13999999999999	0.0
C 	14.757072880486835	25.559999999999995	0.0
C 	15.986828953860735	26.269999999999996	0.0
C 	17.21658502723464	25.559999999999995	0.0
C 	18.44634110060854	26.269999999999996	0.0
C 	19.676097173982445	25.56	0.0
C 	20.905853247356344	26.269999999999996	0.0
C 	22.13560932073025	25.56	0.0
C 	23.365365394104153	26.269999999999996	0.0
C 	24.595121467478055	25.559999999999995	0.0
C 	25.824877540851958	26.269999999999996	0.0
C 	27.054633614225857	25.559999999999995	0.0
C 	28.28438968759976	26.269999999999996	0.0
C 	29.514145760973665	25.559999999999995	0.0
C 	30.743901834347568	26.269999999999996	0.0
C 	31.973657907721474	25.559999999999995	0.0
C 	33.20341398109538	26.269999999999996	0.0
C 	34.43317005446927	25.55999999999999	0.0
C 	35.66292612784318	26.269999999999992	0.0
C 	36.892682201217085	25.559999999999995	0.0
C 	38.12243827459098	26.269999999999992	0.0
C 	39.35219434796489	25.559999999999995	0.0
C 	40.58195042133879	26.269999999999992	0.0
C 	41.81170649471269	25.55999999999999	0.0
C 	43.041462568086594	26.269999999999992	0.0
C 	44.2712186414605	25.55999999999999	0.0
C 	45.5009747148344	26.26999999999999	0.0
C 	46.730730788208305	25.559999999999995	0.0
C 	47.960486861582204	26.269999999999992	0.0
C 	49.19024293495611	25.55999999999999	0.0
C 	50.41999900833001	26.269999999999992	0.0
C 	51.649755081703915	25.559999999999995	0.0
C 	52.879511155077815	26.269999999999992	0.0
C 	54.10926722845172	25.559999999999995	0.0
C 	55.33902330182562	26.269999999999992	0.0
C 	56.568779375199526	25.55999999999999	0.0
C 	57.79853544857343	26.269999999999992	0.0
C 	59.028291521947324	25.55999999999999	0.0
C 	60.25804759532123	26.269999999999992	0.0
C 	61.487803668695136	25.559999999999995	0.0
C 	62.717559742069035	26.26999999999999	0.0
C 	63.94731581544294	25.55999999999999	0.0
C 	65.17707188881683	26.269999999999985	0.0
C 	66.40682796219075	25.55999999999999	0.0
C 	67.63658403556465	26.269999999999992	0.0
C 	68.86634010893856	25.559999999999995	0.0
C 	70.09609618231246	26.269999999999996	0.0
C 	71.32585225568636	25.559999999999995	0.0
C 	72.55560832906026	26.269999999999996	0.0
C 	73.78536440243415	25.559999999999988	0.0
C 	75.01512047580806	26.26999999999999	0.0
C 	15.986828953860735	27.689999999999994	0.0
C 	17.21658502723464	28.399999999999995	0.0
C 	18.446341100608542	27.689999999999994	0.0
C 	19.676097173982445	28.399999999999995	0.0
C 	20.905853247356344	27.689999999999994	0.0
C 	22.13560932073025	28.399999999999995	0.0
C 	23.365365394104153	27.689999999999994	0.0
C 	24.59512146747806	28.399999999999995	0.0
C 	25.824877540851954	27.689999999999994	0.0
C 	27.054633614225857	28.399999999999995	0.0
C 	28.284389687599763	27.689999999999994	0.0
C 	29.514145760973665	28.399999999999995	0.0
C 	30.74390183434757	27.689999999999994	0.0
C 	31.973657907721474	28.399999999999995	0.0
C 	33.20341398109537	27.68999999999999	0.0
C 	34.43317005446928	28.39999999999999	0.0
C 	35.66292612784318	27.689999999999994	0.0
C 	36.892682201217085	28.399999999999995	0.0
C 	38.122438274590984	27.689999999999994	0.0
C 	39.35219434796489	28.399999999999995	0.0
C 	40.58195042133879	27.689999999999994	0.0
C 	41.811706494712695	28.399999999999995	0.0
C 	43.041462568086594	27.689999999999994	0.0
C 	44.2712186414605	28.399999999999995	0.0
C 	45.500974714834406	27.689999999999994	0.0
C 	46.730730788208305	28.399999999999995	0.0
C 	47.960486861582204	27.68999999999999	0.0
C 	49.19024293495611	28.39999999999999	0.0
C 	50.41999900833002	27.689999999999994	0.0
C 	51.649755081703915	28.399999999999995	0.0
C 	52.87951115507782	27.689999999999994	0.0
C 	54.10926722845173	28.399999999999995	0.0
C 	55.33902330182562	27.68999999999999	0.0
C 	56.568779375199526	28.39999999999999	0.0
C 	57.79853544857343	27.689999999999994	0.0
C 	59.02829152194733	28.39999999999999	0.0
C 	60.25804759532124	27.689999999999994	0.0
C 	61.48780366869513	28.399999999999988	0.0
C 	62.717559742069035	27.689999999999994	0.0
C 	63.94731581544294	28.399999999999995	0.0
C 	65.17707188881684	27.68999999999999	0.0
C 	66.40682796219075	28.39999999999999	0.0
C 	67.63658403556464	27.689999999999987	0.0
C 	68.86634010893856	28.399999999999995	0.0
C 	70.09609618231245	27.689999999999994	0.0
C 	71.32585225568636	28.399999999999995	0.0
C 	72.55560832906026	27.68999999999999	0.0
C 	73.78536440243415	28.39999999999999	0.0
C 	75.01512047580808	27.689999999999994	0.0
C 	76.24487654918197	28.399999999999984	0.0
C 	17.21658502723464	29.819999999999997	0.0
C 	18.446341100608546	30.529999999999998	0.0
C 	19.676097173982445	29.819999999999997	0.0
C 	20.905853247356355	30.529999999999998	0.0
C 	22.13560932073025	29.819999999999993	0.0
C 	23.365365394104156	30.529999999999994	0.0
C 	24.59512146747806	29.819999999999997	0.0
C 	25.82487754085196	30.529999999999998	0.0
C 	27.054633614225867	29.819999999999997	0.0
C 	28.28438968759977	30.529999999999998	0.0
C 	29.514145760973665	29.819999999999997	0.0
C 	30.74390183434757	30.529999999999998	0.0
C 	31.973657907721474	29.819999999999997	0.0
C 	33.20341398109538	30.529999999999998	0.0
C 	34.43317005446928	29.819999999999997	0.0
C 	35.662926127843185	30.529999999999998	0.0
C 	36.892682201217085	29.819999999999993	0.0
C 	38.12243827459099	30.529999999999994	0.0
C 	39.35219434796488	29.819999999999993	0.0
C 	40.58195042133879	30.529999999999994	0.0
C 	41.811706494712695	29.819999999999993	0.0
C 	43.0414625680866	30.529999999999994	0.0
C 	44.2712186414605	29.819999999999993	0.0
C 	45.500974714834406	30.529999999999994	0.0
C 	46.730730788208305	29.81999999999999	0.0
C 	47.960486861582204	30.52999999999999	0.0
C 	49.19024293495611	29.819999999999993	0.0
C 	50.41999900833002	30.529999999999994	0.0
C 	51.649755081703915	29.819999999999993	0.0
C 	52.87951115507782	30.529999999999994	0.0
C 	54.10926722845172	29.819999999999993	0.0
C 	55.33902330182563	30.52999999999999	0.0
C 	56.568779375199526	29.819999999999993	0.0
C 	57.798535448573425	30.52999999999999	0.0
C 	59.02829152194734	29.819999999999993	0.0
C 	60.25804759532124	30.529999999999994	0.0
C 	61.487803668695136	29.819999999999993	0.0
C 	62.71755974206904	30.529999999999994	0.0
C 	63.947315815442934	29.81999999999999	0.0
C 	65.17707188881685	30.529999999999998	0.0
C 	66.40682796219073	29.819999999999986	0.0
C 	67.63658403556465	30.529999999999994	0.0
C 	68.86634010893856	29.819999999999993	0.0
C 	70.09609618231245	30.529999999999994	0.0
C 	71.32585225568637	29.819999999999997	0.0
C 	72.55560832906026	30.52999999999999	0.0
C 	73.78536440243417	29.819999999999997	0.0
C 	75.01512047580806	30.529999999999987	0.0
C 	76.24487654918197	29.81999999999999	0.0
C 	77.47463262255587	30.52999999999999	0.0
C 	18.446341100608542	31.949999999999996	0.0
C 	19.676097173982445	32.65999999999999	0.0
C 	20.905853247356347	31.949999999999992	0.0
C 	22.135609320730254	32.66	0.0
C 	23.365365394104156	31.949999999999996	0.0
C 	24.595121467478055	32.65999999999999	0.0
C 	25.824877540851958	31.949999999999992	0.0
C 	27.05463361422586	32.66	0.0
C 	28.284389687599766	31.949999999999996	0.0
C 	29.51414576097367	32.66	0.0
C 	30.743901834347568	31.949999999999992	0.0
C 	31.97365790772147	32.66	0.0
C 	33.20341398109537	31.949999999999992	0.0
C 	34.43317005446928	32.66	0.0
C 	35.66292612784318	31.949999999999996	0.0
C 	36.892682201217085	32.66	0.0
C 	38.122438274590984	31.949999999999992	0.0
C 	39.35219434796489	32.65999999999999	0.0
C 	40.58195042133879	31.949999999999992	0.0
C 	41.81170649471269	32.65999999999999	0.0
C 	43.0414625680866	31.949999999999996	0.0
C 	44.2712186414605	32.65999999999999	0.0
C 	45.5009747148344	31.949999999999992	0.0
C 	46.730730788208305	32.65999999999999	0.0
C 	47.96048686158221	31.949999999999992	0.0
C 	49.1902429349561	32.65999999999999	0.0
C 	50.41999900833002	31.949999999999992	0.0
C 	51.649755081703915	32.65999999999999	0.0
C 	52.879511155077815	31.949999999999992	0.0
C 	54.10926722845172	32.65999999999999	0.0
C 	55.33902330182563	31.949999999999992	0.0
C 	56.568779375199526	32.65999999999999	0.0
C 	57.79853544857343	31.949999999999992	0.0
C 	59.028291521947324	32.65999999999999	0.0
C 	60.25804759532124	31.949999999999992	0.0
C 	61.487803668695136	32.65999999999999	0.0
C 	62.717559742069035	31.94999999999999	0.0
C 	63.94731581544294	32.65999999999999	0.0
C 	65.17707188881685	31.949999999999992	0.0
C 	66.40682796219076	32.66	0.0
C 	67.63658403556465	31.949999999999992	0.0
C 	68.86634010893856	32.65999999999999	0.0
C 	70.09609618231245	31.94999999999999	0.0
C 	71.32585225568636	32.65999999999999	0.0
C 	72.55560832906026	31.949999999999996	0.0
C 	73.78536440243415	32.65999999999999	0.0
C 	75.01512047580806	31.949999999999992	0.0
C 	76.24487654918195	32.65999999999998	0.0
C 	77.47463262255587	31.949999999999985	0.0
C 	78.70438869592978	32.65999999999999	0.0
C 	19.676097173982445	34.07999999999999	0.0
C 	20.90585324735635	34.78999999999999	0.0
C 	22.135609320730254	34.07999999999999	0.0
C 	23.365365394104156	34.78999999999999	0.0
C 	24.595121467478055	34.07999999999999	0.0
C 	25.824877540851958	34.78999999999999	0.0
C 	27.054633614225864	34.07999999999999	0.0
C 	28.284389687599766	34.78999999999999	0.0
C 	29.514145760973665	34.07999999999999	0.0
C 	30.743901834347568	34.78999999999999	0.0
C 	31.97365790772147	34.07999999999999	0.0
C 	33.20341398109537	34.78999999999999	0.0
C 	34.43317005446928	34.07999999999999	0.0
C 	35.662926127843185	34.78999999999999	0.0
C 	36.89268220121708	34.07999999999999	0.0
C 	38.122438274590984	34.78999999999999	0.0
C 	39.35219434796489	34.07999999999999	0.0
C 	40.581950421338796	34.78999999999999	0.0
C 	41.811706494712695	34.07999999999999	0.0
C 	43.0414625680866	34.78999999999999	0.0
C 	44.2712186414605	34.07999999999999	0.0
C 	45.5009747148344	34.78999999999999	0.0
C 	46.730730788208305	34.07999999999999	0.0
C 	47.96048686158221	34.78999999999999	0.0
C 	49.19024293495611	34.07999999999999	0.0
C 	50.41999900833002	34.78999999999999	0.0
C 	51.649755081703915	34.07999999999999	0.0
C 	52.87951115507782	34.78999999999999	0.0
C 	54.10926722845172	34.07999999999999	0.0
C 	55.33902330182562	34.78999999999999	0.0
C 	56.56877937519953	34.07999999999999	0.0
C 	57.79853544857343	34.78999999999999	0.0
C 	59.02829152194733	34.07999999999999	0.0
C 	60.25804759532124	34.78999999999999	0.0
C 	61.487803668695136	34.07999999999999	0.0
C 	62.71755974206905	34.79	0.0
C 	63.947315815442934	34.079999999999984	0.0
C 	65.17707188881685	34.78999999999999	0.0
C 	66.40682796219075	34.07999999999999	0.0
C 	67.63658403556465	34.78999999999999	0.0
C 	68.86634010893854	34.07999999999999	0.0
C 	70.09609618231245	34.78999999999999	0.0
C 	71.32585225568636	34.07999999999999	0.0
C 	72.55560832906025	34.789999999999985	0.0
C 	73.78536440243417	34.07999999999999	0.0
C 	75.01512047580808	34.78999999999999	0.0
C 	76.24487654918197	34.07999999999999	0.0
C 	77.47463262255587	34.78999999999999	0.0
C 	78.70438869592977	34.079999999999984	0.0
C 	79.93414476930369	34.78999999999999	0.0
C 	20.90585324735635	36.209999999999994	0.0
C 	22.135609320730254	36.919999999999995	0.0
C 	23.36536539410416	36.209999999999994	0.0
C 	24.595121467478062	36.919999999999995	0.0
C 	25.82487754085196	36.209999999999994	0.0
C 	27.054633614225864	36.919999999999995	0.0
C 	28.284389687599766	36.209999999999994	0.0
C 	29.514145760973673	36.919999999999995	0.0
C 	30.743901834347575	36.209999999999994	0.0
C 	31.973657907721478	36.919999999999995	0.0
C 	33.20341398109537	36.209999999999994	0.0
C 	34.43317005446928	36.919999999999995	0.0
C 	35.662926127843185	36.209999999999994	0.0
C 	36.89268220121709	36.919999999999995	0.0
C 	38.12243827459099	36.209999999999994	0.0
C 	39.3521943479649	36.919999999999995	0.0
C 	40.581950421338796	36.209999999999994	0.0
C 	41.811706494712695	36.919999999999995	0.0
C 	43.041462568086594	36.209999999999994	0.0
C 	44.2712186414605	36.919999999999995	0.0
C 	45.500974714834406	36.209999999999994	0.0
C 	46.730730788208305	36.919999999999995	0.0
C 	47.96048686158221	36.209999999999994	0.0
C 	49.19024293495612	36.919999999999995	0.0
C 	50.41999900833002	36.20999999999999	0.0
C 	51.649755081703915	36.91999999999999	0.0
C 	52.87951115507782	36.209999999999994	0.0
C 	54.10926722845172	36.91999999999999	0.0
C 	55.33902330182563	36.209999999999994	0.0
C 	56.56877937519953	36.919999999999995	0.0
C 	57.79853544857343	36.20999999999999	0.0
C 	59.02829152194733	36.91999999999999	0.0
C 	60.25804759532123	36.20999999999999	0.0
C 	61.48780366869515	36.919999999999995	0.0
C 	62.71755974206904	36.209999999999994	0.0
C 	63.94731581544295	36.919999999999995	0.0
C 	65.17707188881684	36.209999999999994	0.0
C 	66.40682796219075	36.919999999999995	0.0
C 	67.63658403556467	36.209999999999994	0.0
C 	68.86634010893856	36.91999999999999	0.0
C 	70.09609618231246	36.209999999999994	0.0
C 	71.32585225568636	36.91999999999999	0.0
C 	72.55560832906026	36.209999999999994	0.0
C 	73.78536440243417	36.919999999999995	0.0
C 	75.01512047580806	36.20999999999999	0.0
C 	76.24487654918198	36.919999999999995	0.0
C 	77.47463262255586	36.20999999999999	0.0
C 	78.70438869592978	36.919999999999995	0.0
C 	79.93414476930369	36.20999999999999	0.0
C 	81.16390084267759	36.91999999999999	0.0
C 	22.13560932073025	38.33999999999999	0.0
C 	23.365365394104153	39.04999999999999	0.0
C 	24.59512146747806	38.33999999999999	0.0
C 	25.82487754085196	39.04999999999999	0.0
C 	27.05463361422586	38.33999999999999	0.0
C 	28.284389687599763	39.04999999999999	0.0
C 	29.514145760973665	38.33999999999999	0.0
C 	30.74390183434757	39.04999999999999	0.0
C 	31.973657907721474	38.339999999999996	0.0
C 	33.20341398109538	39.04999999999999	0.0
C 	34.43317005446927	38.33999999999999	0.0
C 	35.66292612784318	39.04999999999999	0.0
C 	36.892682201217085	38.33999999999999	0.0
C 	38.12243827459099	39.04999999999999	0.0
C 	39.35219434796489	38.33999999999999	0.0
C 	40.581950421338796	39.04999999999999	0.0
C 	41.811706494712695	38.33999999999999	0.0
C 	43.0414625680866	39.04999999999999	0.0
C 	44.27121864146049	38.33999999999999	0.0
C 	45.5009747148344	39.04999999999999	0.0
C 	46.730730788208305	38.33999999999999	0.0
C 	47.960486861582204	39.04999999999999	0.0
C 	49.19024293495611	38.33999999999999	0.0
C 	50.41999900833002	39.04999999999999	0.0
C 	51.649755081703915	38.33999999999999	0.0
C 	52.879511155077815	39.04999999999999	0.0
C 	54.10926722845173	38.33999999999999	0.0
C 	55.33902330182562	39.04999999999998	0.0
C 	56.568779375199526	38.33999999999999	0.0
C 	57.79853544857343	39.04999999999999	0.0
C 	59.02829152194733	38.33999999999999	0.0
C 	60.25804759532123	39.04999999999999	0.0
C 	61.48780366869513	38.33999999999998	0.0
C 	62.71755974206905	39.04999999999999	0.0
C 	63.94731581544294	38.33999999999999	0.0
C 	65.17707188881685	39.04999999999999	0.0
C 	66.40682796219075	38.33999999999999	0.0
C 	67.63658403556465	39.04999999999999	0.0
C 	68.86634010893856	38.33999999999999	0.0
C 	70.09609618231245	39.04999999999998	0.0
C 	71.32585225568636	38.33999999999999	0.0
C 	72.55560832906025	39.04999999999998	0.0
C 	73.78536440243415	38.33999999999999	0.0
C 	75.01512047580806	39.04999999999999	0.0
C 	76.24487654918197	38.33999999999999	0.0
C 	77.47463262255587	39.05	0.0
C 	78.70438869592977	38.33999999999998	0.0
C 	79.93414476930369	39.04999999999999	0.0
C 	81.16390084267758	38.33999999999998	0.0
C 	82.39365691605148	39.04999999999998	0.0
C 	23.365365394104156	40.46999999999999	0.0
C 	24.59512146747806	41.17999999999999	0.0
C 	25.82487754085196	40.46999999999999	0.0
C 	27.054633614225867	41.17999999999999	0.0
C 	28.284389687599763	40.46999999999999	0.0
C 	29.51414576097367	41.17999999999999	0.0
C 	30.74390183434757	40.46999999999999	0.0
C 	31.973657907721474	41.17999999999999	0.0
C 	33.20341398109537	40.46999999999999	0.0
C 	34.43317005446928	41.17999999999999	0.0
C 	35.66292612784318	40.46999999999999	0.0
C 	36.892682201217085	41.17999999999999	0.0
C 	38.12243827459099	40.46999999999999	0.0
C 	39.3521943479649	41.17999999999999	0.0
C 	40.58195042133879	40.46999999999999	0.0
C 	41.811706494712695	41.17999999999999	0.0
C 	43.0414625680866	40.46999999999999	0.0
C 	44.2712186414605	41.17999999999999	0.0
C 	45.500974714834406	40.46999999999999	0.0
C 	46.73073078820831	41.17999999999999	0.0
C 	47.960486861582204	40.46999999999999	0.0
C 	49.19024293495611	41.17999999999999	0.0
C 	50.41999900833002	40.46999999999999	0.0
C 	51.649755081703915	41.179999999999986	0.0
C 	52.87951115507782	40.46999999999999	0.0
C 	54.10926722845173	41.17999999999999	0.0
C 	55.33902330182563	40.46999999999999	0.0
C 	56.568779375199526	41.17999999999999	0.0
C 	57.798535448573425	40.469999999999985	0.0
C 	59.028291521947345	41.17999999999999	0.0
C 	60.25804759532124	40.46999999999999	0.0
C 	61.48780366869514	41.17999999999999	0.0
C 	62.71755974206904	40.46999999999999	0.0
C 	63.94731581544295	41.17999999999999	0.0
C 	65.17707188881685	40.46999999999999	0.0
C 	66.40682796219075	41.179999999999986	0.0
C 	67.63658403556465	40.46999999999999	0.0
C 	68.86634010893854	41.179999999999986	0.0
C 	70.09609618231246	40.46999999999999	0.0
C 	71.32585225568636	41.17999999999999	0.0
C 	72.55560832906026	40.469999999999985	0.0
C 	73.78536440243417	41.179999999999986	0.0
C 	75.01512047580806	40.469999999999985	0.0
C 	76.24487654918198	41.17999999999999	0.0
C 	77.47463262255587	40.46999999999999	0.0
C 	78.70438869592978	41.17999999999999	0.0
C 	79.93414476930367	40.469999999999985	0.0
C 	81.16390084267758	41.179999999999986	0.0
C 	82.3936569160515	40.46999999999999	0.0
C 	83.62341298942539	41.179999999999986	0.0
C 	24.595121467478055	42.59999999999999	0.0
C 	25.82487754085196	43.30999999999999	0.0
C 	27.05463361422586	42.59999999999999	0.0
C 	28.284389687599766	43.30999999999999	0.0
C 	29.514145760973662	42.59999999999999	0.0
C 	30.743901834347568	43.30999999999999	0.0
C 	31.97365790772147	42.59999999999999	0.0
C 	33.20341398109537	43.30999999999999	0.0
C 	34.43317005446927	42.59999999999999	0.0
C 	35.66292612784318	43.30999999999999	0.0
C 	36.89268220121708	42.59999999999999	0.0
C 	38.122438274590984	43.30999999999999	0.0
C 	39.35219434796489	42.59999999999999	0.0
C 	40.581950421338796	43.30999999999999	0.0
C 	41.81170649471269	42.59999999999999	0.0
C 	43.041462568086594	43.30999999999999	0.0
C 	44.2712186414605	42.59999999999999	0.0
C 	45.5009747148344	43.30999999999999	0.0
C 	46.730730788208305	42.59999999999999	0.0
C 	47.96048686158221	43.30999999999999	0.0
C 	49.19024293495611	42.59999999999999	0.0
C 	50.41999900833001	43.30999999999999	0.0
C 	51.64975508170392	42.599999999999994	0.0
C 	52.879511155077815	43.30999999999999	0.0
C 	54.10926722845172	42.59999999999999	0.0
C 	55.33902330182563	43.30999999999999	0.0
C 	56.568779375199526	42.59999999999999	0.0
C 	57.798535448573425	43.30999999999999	0.0
C 	59.028291521947324	42.59999999999998	0.0
C 	60.258047595321244	43.30999999999999	0.0
C 	61.487803668695136	42.59999999999999	0.0
C 	62.71755974206904	43.30999999999999	0.0
C 	63.94731581544294	42.59999999999999	0.0
C 	65.17707188881684	43.30999999999999	0.0
C 	66.40682796219076	42.599999999999994	0.0
C 	67.63658403556465	43.30999999999999	0.0
C 	68.86634010893856	42.59999999999999	0.0
C 	70.09609618231245	43.30999999999998	0.0
C 	71.32585225568636	42.59999999999999	0.0
C 	72.55560832906026	43.30999999999999	0.0
C 	73.78536440243415	42.59999999999999	0.0
C 	75.01512047580806	43.30999999999999	0.0
C 	76.24487654918197	42.59999999999998	0.0
C 	77.47463262255587	43.30999999999999	0.0
C 	78.70438869592978	42.59999999999999	0.0
C 	79.93414476930367	43.30999999999999	0.0
C 	81.16390084267758	42.59999999999999	0.0
C 	82.39365691605148	43.30999999999999	0.0
C 	83.62341298942539	42.59999999999999	0.0
C 	84.85316906279928	43.30999999999998	0.0
C 	25.82487754085196	44.72999999999999	0.0
C 	27.054633614225864	45.43999999999999	0.0
C 	28.284389687599766	44.72999999999999	0.0
C 	29.514145760973673	45.43999999999999	0.0
C 	30.743901834347568	44.72999999999999	0.0
C 	31.97365790772147	45.43999999999999	0.0
C 	33.20341398109537	44.72999999999999	0.0
C 	34.43317005446928	45.43999999999999	0.0
C 	35.662926127843185	44.72999999999999	0.0
C 	36.892682201217085	45.43999999999999	0.0
C 	38.122438274590984	44.72999999999999	0.0
C 	39.35219434796489	45.43999999999999	0.0
C 	40.581950421338796	44.72999999999999	0.0
C 	41.811706494712695	45.43999999999999	0.0
C 	43.0414625680866	44.72999999999999	0.0
C 	44.27121864146051	45.43999999999999	0.0
C 	45.500974714834406	44.72999999999999	0.0
C 	46.730730788208305	45.43999999999999	0.0
C 	47.960486861582204	44.72999999999999	0.0
C 	49.19024293495611	45.43999999999998	0.0
C 	50.41999900833002	44.72999999999999	0.0
C 	51.64975508170391	45.43999999999998	0.0
C 	52.87951115507782	44.72999999999999	0.0
C 	54.10926722845172	45.43999999999999	0.0
C 	55.33902330182562	44.72999999999998	0.0
C 	56.568779375199526	45.43999999999998	0.0
C 	57.798535448573425	44.72999999999998	0.0
C 	59.02829152194734	45.43999999999999	0.0
C 	60.25804759532124	44.72999999999999	0.0
C 	61.48780366869514	45.43999999999999	0.0
C 	62.717559742069035	44.72999999999998	0.0
C 	63.94731581544294	45.43999999999998	0.0
C 	65.17707188881685	44.72999999999999	0.0
C 	66.40682796219075	45.43999999999998	0.0
C 	67.63658403556465	44.72999999999999	0.0
C 	68.86634010893856	45.43999999999999	0.0
C 	70.09609618231245	44.72999999999999	0.0
C 	71.32585225568636	45.43999999999998	0.0
C 	72.55560832906026	44.72999999999998	0.0
C 	73.78536440243417	45.43999999999999	0.0
C 	75.01512047580806	44.72999999999998	0.0
C 	76.24487654918198	45.43999999999999	0.0
C 	77.47463262255587	44.72999999999999	0.0
C 	78.70438869592978	45.43999999999999	0.0
C 	79.93414476930369	44.72999999999999	0.0
C 	81.16390084267758	45.43999999999998	0.0
C 	82.39365691605148	44.72999999999999	0.0
C 	83.62341298942538	45.43999999999998	0.0
C 	84.8531690627993	44.72999999999998	0.0
C 	86.08292513617319	45.43999999999998	0.0
C 	27.054633614225864	46.85999999999999	0.0
C 	28.28438968759977	47.56999999999999	0.0
C 	29.514145760973673	46.85999999999999	0.0
C 	30.74390183434758	47.56999999999999	0.0
C 	31.973657907721474	46.85999999999999	0.0
C 	33.20341398109538	47.56999999999999	0.0
C 	34.43317005446928	46.85999999999999	0.0
C 	35.662926127843185	47.56999999999999	0.0
C 	36.892682201217085	46.85999999999999	0.0
C 	38.122438274590984	47.56999999999999	0.0
C 	39.35219434796489	46.85999999999999	0.0
C 	40.581950421338796	47.56999999999999	0.0
C 	41.8117064947127	46.85999999999999	0.0
C 	43.0414625680866	47.56999999999999	0.0
C 	44.2712186414605	46.85999999999999	0.0
C 	45.500974714834406	47.56999999999999	0.0
C 	46.73073078820831	46.859999999999985	0.0
C 	47.960486861582204	47.569999999999986	0.0
C 	49.19024293495612	46.85999999999999	0.0
C 	50.41999900833002	47.56999999999999	0.0
C 	51.649755081703915	46.859999999999985	0.0
C 	52.87951115507782	47.569999999999986	0.0
C 	54.10926722845172	46.859999999999985	0.0
C 	55.339023301825634	47.56999999999999	0.0
C 	56.56877937519953	46.85999999999999	0.0
C 	57.79853544857344	47.56999999999999	0.0
C 	59.02829152194733	46.859999999999985	0.0
C 	60.25804759532124	47.569999999999986	0.0
C 	61.48780366869515	46.85999999999999	0.0
C 	62.71755974206904	47.569999999999986	0.0
C 	63.94731581544295	46.85999999999999	0.0
C 	65.17707188881685	47.56999999999999	0.0
C 	66.40682796219075	46.859999999999985	0.0
C 	67.63658403556465	47.569999999999986	0.0
C 	68.86634010893856	46.859999999999985	0.0
C 	70.09609618231246	47.56999999999999	0.0
C 	71.32585225568636	46.859999999999985	0.0
C 	72.55560832906028	47.56999999999999	0.0
C 	73.78536440243417	46.859999999999985	0.0
C 	75.01512047580808	47.569999999999986	0.0
C 	76.24487654918197	46.859999999999985	0.0
C 	77.47463262255587	47.569999999999986	0.0
C 	78.70438869592978	46.85999999999999	0.0
C 	79.93414476930367	47.569999999999986	0.0
C 	81.16390084267758	46.85999999999999	0.0
C 	82.39365691605148	47.56999999999999	0.0
C 	83.62341298942539	46.859999999999985	0.0
C 	84.8531690627993	47.569999999999986	0.0
C 	86.08292513617319	46.85999999999998	0.0
C 	87.31268120954711	47.569999999999986	0.0
C 	28.284389687599763	48.98999999999999	0.0
C 	29.51414576097367	49.69999999999999	0.0
C 	30.74390183434757	48.98999999999999	0.0
C 	31.973657907721478	49.69999999999999	0.0
C 	33.20341398109537	48.98999999999999	0.0
C 	34.43317005446928	49.69999999999999	0.0
C 	35.66292612784318	48.98999999999999	0.0
C 	36.892682201217085	49.69999999999999	0.0
C 	38.122438274590984	48.98999999999999	0.0
C 	39.35219434796488	49.69999999999999	0.0
C 	40.58195042133879	48.98999999999999	0.0
C 	41.811706494712695	49.69999999999999	0.0
C 	43.041462568086594	48.98999999999999	0.0
C 	44.2712186414605	49.69999999999999	0.0
C 	45.5009747148344	48.98999999999999	0.0
C 	46.730730788208305	49.69999999999998	0.0
C 	47.96048686158221	48.98999999999999	0.0
C 	49.1902429349561	49.69999999999998	0.0
C 	50.41999900833002	48.98999999999999	0.0
C 	51.64975508170392	49.69999999999999	0.0
C 	52.879511155077815	48.98999999999999	0.0
C 	54.10926722845172	49.69999999999999	0.0
C 	55.33902330182562	48.98999999999998	0.0
C 	56.56877937519953	49.69999999999999	0.0
C 	57.79853544857343	48.98999999999999	0.0
C 	59.02829152194734	49.69999999999999	0.0
C 	60.25804759532124	48.98999999999999	0.0
C 	61.487803668695136	49.69999999999999	0.0
C 	62.71755974206905	48.98999999999999	0.0
C 	63.94731581544294	49.69999999999998	0.0
C 	65.17707188881685	48.98999999999999	0.0
C 	66.40682796219075	49.69999999999999	0.0
C 	67.63658403556465	48.98999999999999	0.0
C 	68.86634010893856	49.69999999999999	0.0
C 	70.09609618231245	48.98999999999998	0.0
C 	71.32585225568637	49.69999999999999	0.0
C 	72.55560832906025	48.98999999999998	0.0
C 	73.78536440243417	49.69999999999999	0.0
C 	75.01512047580806	48.98999999999999	0.0
C 	76.24487654918197	49.69999999999999	0.0
C 	77.47463262255587	48.98999999999998	0.0
C 	78.70438869592978	49.69999999999998	0.0
C 	79.93414476930369	48.98999999999999	0.0
C 	81.16390084267758	49.69999999999998	0.0
C 	82.39365691605148	48.98999999999999	0.0
C 	83.62341298942539	49.69999999999999	0.0
C 	84.85316906279928	48.98999999999998	0.0
C 	86.08292513617319	49.69999999999998	0.0
C 	87.3126812095471	48.98999999999998	0.0
C 	88.542437282921	49.69999999999999	0.0
C 	29.51414576097367	51.11999999999999	0.0
C 	30.74390183434757	51.82999999999999	0.0
C 	31.973657907721474	51.11999999999999	0.0
C 	33.20341398109538	51.82999999999999	0.0
C 	34.43317005446928	51.11999999999999	0.0
C 	35.66292612784318	51.82999999999999	0.0
C 	36.892682201217085	51.11999999999999	0.0
C 	38.12243827459099	51.82999999999999	0.0
C 	39.35219434796489	51.12	0.0
C 	40.581950421338796	51.83	0.0
C 	41.811706494712695	51.11999999999999	0.0
C 	43.041462568086594	51.82999999999999	0.0
C 	44.2712186414605	51.12	0.0
C 	45.5009747148344	51.82999999999999	0.0
C 	46.73073078820831	51.11999999999999	0.0
C 	47.96048686158221	51.82999999999999	0.0
C 	49.19024293495611	51.11999999999999	0.0
C 	50.41999900833002	51.82999999999999	0.0
C 	51.649755081703915	51.11999999999998	0.0
C 	52.879511155077815	51.829999999999984	0.0
C 	54.10926722845171	51.11999999999999	0.0
C 	55.33902330182563	51.83	0.0
C 	56.568779375199526	51.11999999999999	0.0
C 	57.79853544857343	51.82999999999999	0.0
C 	59.02829152194733	51.11999999999999	0.0
C 	60.25804759532124	51.82999999999999	0.0
C 	61.48780366869514	51.11999999999999	0.0
C 	62.717559742069035	51.829999999999984	0.0
C 	63.94731581544295	51.11999999999999	0.0
C 	65.17707188881685	51.82999999999999	0.0
C 	66.40682796219075	51.11999999999999	0.0
C 	67.63658403556465	51.82999999999999	0.0
C 	68.86634010893854	51.11999999999998	0.0
C 	70.09609618231246	51.82999999999999	0.0
C 	71.32585225568636	51.11999999999999	0.0
C 	72.55560832906026	51.82999999999999	0.0
C 	73.78536440243417	51.11999999999999	0.0
C 	75.01512047580806	51.82999999999999	0.0
C 	76.24487654918198	51.11999999999999	0.0
C 	77.47463262255587	51.829999999999984	0.0
C 	78.70438869592978	51.11999999999999	0.0
C 	79.93414476930367	51.829999999999984	0.0
C 	81.16390084267758	51.11999999999999	0.0
C 	82.39365691605148	51.82999999999999	0.0
C 	83.62341298942538	51.11999999999998	0.0
C 	84.8531690627993	51.82999999999999	0.0
C 	86.08292513617319	51.11999999999998	0.0
C 	87.3126812095471	51.82999999999999	0.0
C 	88.542437282921	51.11999999999998	0.0
C 	89.7721933562949	51.829999999999984	0.0
C 	52.99111161046928	-0.8872937995882956	2.15
C 	54.27596602497103	-0.28268720556589905	2.15
C 	54.39478856250292	1.132332654568399	2.15
C 	55.67964297700466	1.7369392485908024	2.15
C 	55.79846551453655	3.1519591087251	2.15
C 	57.083319929038296	3.756565702747505	2.15
C 	57.20214246657019	5.171585562881803	2.15
C 	50.54022531899767	-0.6814871274988049	2.15
C 	51.825079733499415	-0.07688053347640128	2.15
C 	51.943902271031305	1.3381393266578967	2.15
C 	53.22875668553306	1.942745920680293	2.15
C 	53.34757922306495	3.357765780814591	2.15
C 	54.6324336375667	3.9623723748369946	2.15
C 	54.75125617509859	5.377392234971293	2.15
C 	56.03611058960033	5.981998828993696	2.15
C 	56.15493312713222	7.397018689127994	2.15
C 	57.43978754163396	8.001625283150391	2.15
C 	57.558610079165845	9.41664514328469	2.15
C 	58.843464493667604	10.021251737307093	2.15
C 	58.96228703119949	11.43627159744139	2.15
C 	60.24714144570124	12.040878191463795	2.15
C 	60.36596398323312	13.455898051598092	2.15
C 	61.65081839773487	14.06050464562049	2.15
C 	61.76964093526675	15.475524505754787	2.15
C 	63.05449534976851	16.08013109977719	2.15
C 	63.17331788730039	17.495150959911488	2.15
C 	64.45817230180214	18.099757553933895	2.15
C 	64.57699483933403	19.51477741406819	2.15
C 	65.86184925383579	20.119384008090588	2.15
C 	65.98067179136767	21.534403868224885	2.15
C 	67.26552620586942	22.13901046224728	2.15
C 	67.38434874340132	23.55403032238158	2.15
C 	68.66920315790306	24.158636916403992	2.15
C 	68.78802569543494	25.57365677653829	2.15
C 	48.08933902752607	-0.4756804554093222	2.15
C 	49.37419344202781	0.12892613861308141	2.15
C 	49.4930159795597	1.5439459987473794	2.15
C 	50.777870394061445	2.148552592769784	2.15
C 	50.896692931593336	3.5635724529040815	2.15
C 	52.18154734609508	4.168179046926478	2.15
C 	52.30036988362696	5.583198907060776	2.15
C 	53.58522429812872	6.187805501083179	2.15
C 	53.704046835660606	7.602825361217477	2.15
C 	54.988901250162364	8.207431955239882	2.15
C 	55.10772378769425	9.622451815374179	2.15
C 	56.39257820219599	10.227058409396577	2.15
C 	56.511400739727875	11.642078269530874	2.15
C 	57.79625515422963	12.246684863553279	2.15
C 	57.91507769176151	13.661704723687576	2.15
C 	59.19993210626327	14.26631131770998	2.15
C 	59.31875464379515	15.681331177844278	2.15
C 	60.6036090582969	16.285937771866674	2.15
C 	60.72243159582878	17.70095763200097	2.15
C 	62.00728601033054	18.305564226023375	2.15
C 	62.12610854786242	19.720584086157675	2.15
C 	63.410962962364174	20.32519068018008	2.15
C 	63.52978549989606	21.740210540314376	2.15
C 	64.8146399143978	22.344817134336772	2.15
C 	64.9334624519297	23.75983699447107	2.15
C 	66.21831686643145	24.36444358849347	2.15
C 	66.33713940396333	25.779463448627766	2.15
C 	67.62199381846507	26.384070042650176	2.15
C 	67.74081635599697	27.799089902784473	2.15
C 	69.02567077049873	28.40369649680687	2.15
C 	69.14449330803062	29.818716356941167	2.15
C 	70.42934772253234	30.423322950963566	2.15
C 	70.54817026006424	31.838342811097863	2.15
C 	71.83302467456599	32.442949405120274	2.15
C 	71.95184721209787	33.857969265254575	2.15
C 	73.23670162659963	34.46257585927697	2.15
C 	73.35552416413152	35.87759571941127	2.15
C 	74.64037857863326	36.48220231343366	2.15
C 	74.75920111616514	37.89722217356796	2.15
C 	45.638452736054454	-0.2698737833198245	2.15
C 	46.923307150556205	0.33473281070257205	2.15
C 	47.042129688088096	1.74975267083687	2.15
C 	48.32698410258985	2.3543592648592737	2.15
C 	48.44580664012174	3.7693791249935713	2.15
C 	49.730661054623475	4.373985719015975	2.15
C 	49.849483592155366	5.789005579150273	2.15
C 	51.13433800665711	6.39361217317267	2.15
C 	51.253160544188994	7.808632033306968	2.15
C 	52.538014958690745	8.413238627329372	2.15
C 	52.65683749622263	9.82825848746367	2.15
C 	53.94169191072439	10.432865081486074	2.15
C 	54.06051444825627	11.847884941620372	2.15
C 	55.34536886275803	12.452491535642768	2.15
C 	55.46419140028991	13.867511395777067	2.15
C 	56.74904581479165	14.47211798979947	2.15
C 	56.86786835232353	15.887137849933769	2.15
C 	58.15272276682529	16.491744443956172	2.15
C 	58.271545304357176	17.90676430409047	2.15
C 	59.556399718858934	18.511370898112865	2.15
C 	59.67522225639082	19.926390758247166	2.15
C 	60.96007667089257	20.53099735226957	2.15
C 	61.07889920842445	21.946017212403866	2.15
C 	62.3637536229262	22.55062380642627	2.15
C 	62.48257616045808	23.965643666560567	2.15
C 	63.76743057495984	24.570250260582966	2.15
C 	63.88625311249172	25.985270120717264	2.15
C 	65.17110752699347	26.58987671473966	2.15
C 	65.28993006452536	28.004896574873957	2.15
C 	66.57478447902712	28.609503168896367	2.15
C 	66.693607016559	30.024523029030664	2.15
C 	67.97846143106075	30.62912962305306	2.15
C 	68.09728396859265	32.04414948318736	2.15
C 	69.38213838309439	32.64875607720976	2.15
C 	69.50096092062627	34.063775937344055	2.15
C 	70.785815335128	34.66838253136647	2.15
C 	70.9046378726599	36.08340239150076	2.15
C 	72.18949228716166	36.68800898552316	2.15
C 	72.30831482469354	38.103028845657455	2.15
C 	73.59316923919529	38.707635439679855	2.15
C 	73.71199177672717	40.122655299814156	2.15
C 	43.187566444582856	-0.06406711123034178	2.15
C 	44.4724208590846	0.5405394827920623	2.15
C 	44.59124339661649	1.9555593429263602	2.15
C 	45.87609781111823	2.5601659369487573	2.15
C 	45.99492034865011	3.975185797083055	2.15
C 	47.27977476315187	4.5797923911054585	2.15
C 	47.398597300683754	5.994812251239757	2.15
C 	48.68345171518551	6.59941884526216	2.15
C 	48.802274252717396	8.014438705396458	2.15
C 	50.08712866721914	8.619045299418854	2.15
C 	50.205951204751024	10.034065159553153	2.15
C 	51.49080561925278	10.638671753575556	2.15
C 	51.609628156784666	12.053691613709853	2.15
C 	52.89448257128641	12.658298207732258	2.15
C 	53.013305108818294	14.073318067866557	2.15
C 	54.29815952332005	14.677924661888953	2.15
C 	54.416982060851936	16.092944522023252	2.15
C 	55.70183647535369	16.697551116045656	2.15
C 	55.82065901288557	18.112570976179953	2.15
C 	57.10551342738732	18.717177570202356	2.15
C 	57.224335964919206	20.132197430336653	2.15
C 	58.50919037942096	20.736804024359053	2.15
C 	58.62801291695284	22.15182388449335	2.15
C 	59.9128673314546	22.756430478515753	2.15
C 	60.03168986898648	24.17145033865005	2.15
C 	61.31654428348823	24.776056932672457	2.15
C 	61.43536682102011	26.191076792806754	2.15
C 	62.72022123552186	26.79568338682915	2.15
C 	62.83904377305375	28.210703246963448	2.15
C 	64.12389818755551	28.815309840985844	2.15
C 	64.2427207250874	30.23032970112014	2.15
C 	65.52757513958913	30.83493629514255	2.15
C 	65.64639767712103	32.24995615527685	2.15
C 	66.93125209162278	32.85456274929925	2.15
C 	67.05007462915466	34.26958260943355	2.15
C 	68.3349290436564	34.87418920345594	2.15
C 	68.45375158118829	36.28920906359024	2.15
C 	69.73860599569007	36.89381565761265	2.15
C 	69.85742853322195	38.30883551774695	2.15
C 	71.14228294772367	38.91344211176935	2.15
C 	71.26110548525556	40.32846197190364	2.15
C 	72.54595989975732	40.93306856592604	2.15
C 	72.6647824372892	42.348088426060336	2.15
C 	40.736680153111244	0.14173956085915596	2.15
C 	42.02153456761299	0.7463461548815525	2.15
C 	42.14035710514488	2.1613660150158505	2.15
C 	43.42521151964663	2.765972609038254	2.15
C 	43.54403405717852	4.180992469172552	2.15
C 	44.828888471680266	4.785599063194949	2.15
C 	44.94771100921215	6.200618923329247	2.15
C 	46.23256542371389	6.8052255173516505	2.15
C 	46.35138796124578	8.220245377485949	2.15
C 	47.636242375747536	8.824851971508352	2.15
C 	47.75506491327942	10.23987183164265	2.15
C 	49.03991932778118	10.844478425665047	2.15
C 	49.15874186531306	12.259498285799344	2.15
C 	50.44359627981481	12.864104879821749	2.15
C 	50.562418817346696	14.279124739956046	2.15
C 	51.84727323184845	14.88373133397845	2.15
C 	51.96609576938033	16.298751194112747	2.15
C 	53.250950183882075	16.903357788135146	2.15
C 	53.36977272141396	18.318377648269443	2.15
C 	54.65462713591572	18.922984242291847	2.15
C 	54.7734496734476	20.338004102426144	2.15
C 	56.05830408794936	20.942610696448547	2.15
C 	56.17712662548124	22.357630556582848	2.15
C 	57.46198103998298	22.962237150605244	2.15
C 	57.580803577514864	24.37725701073954	2.15
C 	58.86565799201662	24.981863604761944	2.15
C 	58.984480529548506	26.39688346489624	2.15
C 	60.269334944050264	27.001490058918648	2.15
C 	60.38815748158215	28.416509919052945	2.15
C 	61.67301189608389	29.02111651307534	2.15
C 	61.79183443361578	30.43613637320964	2.15
C 	63.076688848117534	31.040742967232035	2.15
C 	63.195511385649425	32.455762827366335	2.15
C 	64.48036580015116	33.06036942138874	2.15
C 	64.59918833768306	34.47538928152304	2.15
C 	65.8840427521848	35.07999587554544	2.15
C 	66.0028652897167	36.495015735679736	2.15
C 	67.28771970421845	37.099622329702136	2.15
C 	67.40654224175033	38.51464218983643	2.15
C 	68.69139665625208	39.11924878385884	2.15
C 	68.81021919378398	40.53426864399314	2.15
C 	70.09507360828572	41.13887523801554	2.15
C 	70.2138961458176	42.55389509814984	2.15
C 	71.49875056031934	43.15850169217223	2.15
C 	71.61757309785122	44.57352155230653	2.15
C 	38.28579386163964	0.3475462329486387	2.15
C 	39.570648276141384	0.9521528269710463	2.15
C 	39.689470813673275	2.3671726871053407	2.15
C 	40.97432522817502	2.9717792811277413	2.15
C 	41.0931477657069	4.386799141262036	2.15
C 	42.378002180208654	4.9914057352844425	2.15
C 	42.49682471774054	6.406425595418737	2.15
C 	43.781679132242296	7.011032189441137	2.15
C 	43.90050166977418	8.426052049575432	2.15
C 	45.18535608427593	9.030658643597839	2.15
C 	45.304178621807814	10.445678503732134	2.15
C 	46.58903303630956	11.050285097754541	2.15
C 	46.70785557384144	12.465304957888835	2.15
C 	47.9927099883432	13.069911551911236	2.15
C 	48.111532525875084	14.48493141204553	2.15
C 	49.39638694037684	15.089538006067936	2.15
C 	49.515209477908726	16.50455786620223	2.15
C 	50.80006389241048	17.109164460224637	2.15
C 	50.91888642994236	18.524184320358934	2.15
C 	52.20374084444411	19.128790914381334	2.15
C 	52.322563381975996	20.543810774515627	2.15
C 	53.60741779647774	21.148417368538034	2.15
C 	53.726240334009624	22.56343722867233	2.15
C 	55.01109474851138	23.168043822694738	2.15
C 	55.129917286043266	24.58306368282903	2.15
C 	56.41477170054502	25.18767027685143	2.15
C 	56.5335942380769	26.602690136985725	2.15
C 	57.81844865257865	27.20729673100813	2.15
C 	57.937271190110536	28.62231659114243	2.15
C 	59.22212560461228	29.226923185164832	2.15
C 	59.34094814214417	30.64194304529913	2.15
C 	60.62580255664592	31.246549639321525	2.15
C 	60.74462509417781	32.66156949945582	2.15
C 	62.02947950867956	33.26617609347822	2.15
C 	62.14830204621145	34.681195953612516	2.15
C 	63.43315646071319	35.28580254763493	2.15
C 	63.55197899824508	36.70082240776923	2.15
C 	64.83683341274684	37.30542900179162	2.15
C 	64.95565595027873	38.720448861925924	2.15
C 	66.24051036478046	39.325055455948316	2.15
C 	66.35933290231235	40.74007531608262	2.15
C 	67.64418731681411	41.34468191010503	2.15
C 	67.763009854346	42.759701770239325	2.15
C 	69.04786426884773	43.364308364261724	2.15
C 	69.16668680637962	44.77932822439602	2.15
C 	70.4515412208814	45.38393481841842	2.15
C 	35.83490757016803	0.5533529050381328	2.15
C 	37.11976198466978	1.1579594990605329	2.15
C 	37.23858452220167	2.572979359194831	2.15
C 	38.523438936703414	3.1775859532172346	2.15
C 	38.642261474235305	4.592605813351533	2.15
C 	39.92711588873705	5.19721240737393	2.15
C 	40.04593842626893	6.612232267508228	2.15
C 	41.330792840770684	7.216838861530631	2.15
C 	41.44961537830257	8.63185872166493	2.15
C 	42.73446979280432	9.236465315687326	2.15
C 	42.8532923303362	10.651485175821623	2.15
C 	44.13814674483796	11.256091769844028	2.15
C 	44.256969282369845	12.671111629978325	2.15
C 	45.541823696871596	13.275718224000729	2.15
C 	45.66064623440348	14.690738084135027	2.15
C 	46.945500648905224	15.295344678157424	2.15
C 	47.06432318643711	16.71036453829172	2.15
C 	48.349177600938866	17.314971132314124	2.15
C 	48.46800013847075	18.729990992448425	2.15
C 	49.75285455297251	19.334597586470828	2.15
C 	49.87167709050439	20.749617446605125	2.15
C 	51.15653150500614	21.35422404062752	2.15
C 	51.27535404253803	22.76924390076182	2.15
C 	52.56020845703977	23.373850494784225	2.15
C 	52.679030994571654	24.788870354918522	2.15
C 	53.963885409073406	25.393476948940926	2.15
C 	54.08270794660529	26.808496809075223	2.15
C 	55.36756236110704	27.41310340309762	2.15
C 	55.48638489863893	28.82812326323192	2.15
C 	56.77123931314068	29.432729857254323	2.15
C 	56.89006185067257	30.84774971738862	2.15
C 	58.1749162651743	31.452356311411023	2.15
C 	58.293738802706194	32.867376171545324	2.15
C 	59.578593217207946	33.47198276556772	2.15
C 	59.697415754739836	34.88700262570202	2.15
C 	60.98227016924159	35.49160921972441	2.15
C 	61.10109270677348	36.90662907985871	2.15
C 	62.38594712127522	37.511235673881124	2.15
C 	62.50476965880711	38.92625553401542	2.15
C 	63.789624073308865	39.53086212803782	2.15
C 	63.908446610840755	40.94588198817211	2.15
C 	65.19330102534249	41.55048858219451	2.15
C 	65.31212356287438	42.96550844232881	2.15
C 	66.59697797737613	43.57011503635122	2.15
C 	66.71580051490801	44.98513489648552	2.15
C 	68.00065492940978	45.58974149050791	2.15
C 	33.38402127869643	0.7591595771276262	2.15
C 	34.66887569319817	1.3637661711500266	2.15
C 	34.78769823073006	2.7787860312843247	2.15
C 	36.0725526452318	3.3833926253067252	2.15
C 	36.19137518276369	4.798412485441023	2.15
C 	37.476229597265444	5.4030190794634265	2.15
C 	37.595052134797335	6.818038939597725	2.15
C 	38.87990654929908	7.422645533620121	2.15
C 	38.99872908683096	8.837665393754419	2.15
C 	40.283583501332714	9.442271987776824	2.15
C 	40.4024060388646	10.857291847911121	2.15
C 	41.68726045336635	11.461898441933519	2.15
C 	41.80608299089823	12.876918302067816	2.15
C 	43.090937405399984	13.48152489609022	2.15
C 	43.20975994293187	14.896544756224518	2.15
C 	44.494614357433626	15.501151350246921	2.15
C 	44.61343689496551	16.91617121038122	2.15
C 	45.89829130946726	17.520777804403615	2.15
C 	46.017113846999145	18.935797664537915	2.15
C 	47.301968261500896	19.54040425856032	2.15
C 	47.42079079903278	20.955424118694616	2.15
C 	48.70564521353453	21.56003071271702	2.15
C 	48.824467751066415	22.975050572851316	2.15
C 	50.10932216556817	23.579657166873712	2.15
C 	50.22814470310006	24.994677027008013	2.15
C 	51.5129991176018	25.599283621030416	2.15
C 	51.631821655133685	27.014303481164713	2.15
C 	52.91667606963544	27.618910075187117	2.15
C 	53.03549860716733	29.033929935321414	2.15
C 	54.320353021669064	29.638536529343813	2.15
C 	54.439175559200955	31.05355638947811	2.15
C 	55.724029973702706	31.658162983500514	2.15
C 	55.8428525112346	33.07318284363481	2.15
C 	57.12770692573634	33.67778943765722	2.15
C 	57.24652946326823	35.09280929779151	2.15
C 	58.531383877769976	35.69741589181391	2.15
C 	58.65020641530187	37.112435751948205	2.15
C 	59.93506082980362	37.717042345970604	2.15
C 	60.05388336733551	39.132062206104905	2.15
C 	61.33873778183725	39.73666880012731	2.15
C 	61.45756031936914	41.15168866026161	2.15
C 	62.74241473387089	41.756295254284005	2.15
C 	62.86123727140278	43.171315114418306	2.15
C 	64.14609168590452	43.775921708440706	2.15
C 	64.2649142234364	45.190941568575	2.15
C 	65.54976863793817	45.79554816259741	2.15
C 	30.933134987224815	0.9649662492171093	2.15
C 	32.21798940172656	1.5695728432395168	2.15
C 	32.33681193925845	2.9845927033738113	2.15
C 	33.621666353760205	3.589199297396215	2.15
C 	33.740488891292095	5.0042191575305095	2.15
C 	35.02534330579383	5.608825751552914	2.15
C 	35.144165843325716	7.023845611687208	2.15
C 	36.42902025782747	7.628452205709615	2.15
C 	36.54784279535935	9.04347206584391	2.15
C 	37.83269720986111	9.648078659866309	2.15
C 	37.95151974739299	11.063098520000604	2.15
C 	39.236374161894744	11.667705114023011	2.15
C 	39.35519669942663	13.082724974157305	2.15
C 	40.64005111392838	13.687331568179706	2.15
C 	40.75887365146026	15.102351428314	2.15
C 	42.043728065962014	15.706958022336408	2.15
C 	42.1625506034939	17.121977882470702	2.15
C 	43.44740501799565	17.72658447649311	2.15
C 	43.56622755552753	19.141604336627402	2.15
C 	44.85108197002929	19.746210930649806	2.15
C 	44.969904507561175	21.1612307907841	2.15
C 	46.25475892206293	21.765837384806506	2.15
C 	46.37358145959482	23.1808572449408	2.15
C 	47.65843587409656	23.785463838963206	2.15
C 	47.777258411628445	25.200483699097504	2.15
C 	49.062112826130196	25.805090293119903	2.15
C 	49.18093536366208	27.220110153254197	2.15
C 	50.46578977816384	27.824716747276604	2.15
C 	50.58461231569572	29.239736607410897	2.15
C 	51.869466730197466	29.8443432014333	2.15
C 	51.98828926772936	31.2593630615676	2.15
C 	53.273143682231094	31.863969655589997	2.15
C 	53.391966219762985	33.2789895157243	2.15
C 	54.67682063426473	33.883596109746705	2.15
C 	54.79564317179662	35.298615969881	2.15
C 	56.08049758629837	35.9032225639034	2.15
C 	56.19932012383026	37.3182424240377	2.15
C 	57.48417453833201	37.92284901806009	2.15
C 	57.602997075863904	39.33786887819439	2.15
C 	58.88785149036565	39.94247547221679	2.15
C 	59.00667402789754	41.357495332351085	2.15
C 	60.291528442399276	41.9621019263735	2.15
C 	60.41035097993117	43.3771217865078	2.15
C 	61.69520539443292	43.98172838053019	2.15
C 	61.81402793196481	45.39674824066449	2.15
C 	63.09888234646655	46.001354834686886	2.15
C 	27.078571743719568	-0.8488535328500949	2.15
C 	28.363426158221316	-0.2442469388276944	2.15
C 	28.482248695753203	1.1707729213066036	2.15
C 	29.767103110254954	1.7753795153290035	2.15
C 	29.88592564778684	3.1903993754633015	2.15
C 	31.17078006228859	3.7950059694857057	2.15
C 	31.289602599820476	5.210025829620004	2.15
C 	32.57445701432223	5.814632423642403	2.15
C 	32.69327955185412	7.229652283776701	2.15
C 	33.97813396635586	7.834258877799102	2.15
C 	34.096956503887746	9.2492787379334	2.15
C 	35.3818109183895	9.853885331955803	2.15
C 	35.50063345592138	11.268905192090102	2.15
C 	36.78548787042313	11.873511786112498	2.15
C 	36.904310407955016	13.288531646246796	2.15
C 	38.189164822456775	13.8931382402692	2.15
C 	38.30798735998866	15.308158100403498	2.15
C 	39.5928417744904	15.912764694425896	2.15
C 	39.711664312022286	17.327784554560193	2.15
C 	40.996518726524044	17.932391148582596	2.15
C 	41.11534126405593	19.347411008716893	2.15
C 	42.40019567855768	19.9520176027393	2.15
C 	42.51901821608956	21.367037462873597	2.15
C 	43.803872630591314	21.971644056895993	2.15
C 	43.9226951681232	23.38666391703029	2.15
C 	45.20754958262496	23.991270511052694	2.15
C 	45.32637212015684	25.40629037118699	2.15
C 	46.61122653465859	26.010896965209398	2.15
C 	46.730049072190475	27.425916825343695	2.15
C 	48.01490348669222	28.03052341936609	2.15
C 	48.13372602422411	29.445543279500388	2.15
C 	49.418580438725854	30.05014987352279	2.15
C 	49.537402976257745	31.465169733657092	2.15
C 	50.822257390759496	32.06977632767949	2.15
C 	50.94107992829139	33.48479618781379	2.15
C 	52.225934342793124	34.08940278183619	2.15
C 	52.344756880325015	35.504422641970486	2.15
C 	53.629611294826766	36.10902923599289	2.15
C 	53.74843383235866	37.524049096127186	2.15
C 	55.033288246860394	38.12865569014959	2.15
C 	55.152110784392285	39.54367555028389	2.15
C 	56.436965198894036	40.148282144306286	2.15
C 	56.55578773642593	41.56330200444059	2.15
C 	57.84064215092768	42.16790859846298	2.15
C 	57.95946468845957	43.58292845859728	2.15
C 	59.244319102961306	44.18753505261969	2.15
C 	59.3631416404932	45.60255491275399	2.15
C 	60.64799605499495	46.20716150677639	2.15
C 	24.62768545224796	-0.6430468607606047	2.15
C 	25.912539866749707	-0.03844026673820064	2.15
C 	26.031362404281595	1.3765795933960974	2.15
C 	27.31621681878335	1.9811861874184973	2.15
C 	27.435039356315237	3.3962060475527953	2.15
C 	28.71989377081698	4.0008126415751954	2.15
C 	28.838716308348868	5.4158325017094935	2.15
C 	30.12357072285062	6.020439095731898	2.15
C 	30.242393260382507	7.435458955866196	2.15
C 	31.527247674884254	8.040065549888595	2.15
C 	31.64607021241614	9.455085410022894	2.15
C 	32.93092462691789	10.059692004045294	2.15
C 	33.04974716444978	11.474711864179591	2.15
C 	34.33460157895153	12.079318458201996	2.15
C 	34.45342411648341	13.494338318336293	2.15
C 	35.73827853098516	14.09894491235869	2.15
C 	35.857101068517046	15.513964772492988	2.15
C 	37.1419554830188	16.118571366515393	2.15
C 	37.26077802055068	17.53359122664969	2.15
C 	38.54563243505244	18.138197820672087	2.15
C 	38.66445497258432	19.553217680806384	2.15
C 	39.94930938708607	20.157824274828787	2.15
C 	40.06813192461795	21.572844134963088	2.15
C 	41.35298633911971	22.17745072898549	2.15
C 	41.47180887665159	23.592470589119788	2.15
C 	42.756663291153345	24.197077183142184	2.15
C 	42.87548582868523	25.61209704327648	2.15
C 	44.16034024318698	26.216703637298888	2.15
C 	44.27916278071886	27.631723497433185	2.15
C 	45.56401719522062	28.23633009145559	2.15
C 	45.682839732752505	29.651349951589886	2.15
C 	46.96769414725425	30.255956545612282	2.15
C 	47.08651668478614	31.67097640574658	2.15
C 	48.37137109928788	32.275582999768986	2.15
C 	48.49019363681977	33.69060285990328	2.15
C 	49.77504805132152	34.295209453925686	2.15
C 	49.89387058885341	35.71022931405999	2.15
C 	51.178725003355154	36.31483590808238	2.15
C 	51.297547540887045	37.72985576821668	2.15
C 	52.58240195538879	38.33446236223908	2.15
C 	52.70122449292068	39.74948222237338	2.15
C 	53.986078907422424	40.35408881639579	2.15
C 	54.104901444954315	41.76910867653008	2.15
C 	55.38975585945606	42.37371527055248	2.15
C 	55.50857839698795	43.788735130686774	2.15
C 	56.7934328114897	44.393341724709174	2.15
C 	56.91225534902159	45.808361584843475	2.15
C 	58.197109763523336	46.41296817886588	2.15
C 	22.176799160776355	-0.4372401886711178	2.15
C 	23.461653575278103	0.16736640535128602	2.15
C 	23.58047611280999	1.5823862654855805	2.15
C 	24.865330527311738	2.1869928595079875	2.15
C 	24.984153064843625	3.602012719642282	2.15
C 	26.269007479345373	4.206619313664686	2.15
C 	26.38783001687726	5.621639173798981	2.15
C 	27.672684431379015	6.226245767821384	2.15
C 	27.7915069689109	7.641265627955678	2.15
C 	29.076361383412646	8.245872221978086	2.15
C 	29.195183920944533	9.66089208211238	2.15
C 	30.480038335446284	10.265498676134785	2.15
C 	30.59886087297817	11.680518536269078	2.15
C 	31.88371528747992	12.285125130291483	2.15
C 	32.00253782501181	13.700144990425777	2.15
C 	33.28739223951356	14.304751584448184	2.15
C 	33.40621477704544	15.719771444582479	2.15
C 	34.69106919154719	16.32437803860488	2.15
C 	34.80989172907908	17.739397898739174	2.15
C 	36.09474614358083	18.34400449276158	2.15
C 	36.21356868111271	19.759024352895874	2.15
C 	37.49842309561446	20.363630946918274	2.15
C 	37.61724563314635	21.77865080705257	2.15
C 	38.902100047648105	22.383257401074978	2.15
C 	39.02092258517999	23.79827726120927	2.15
C 	40.30577699968173	24.40288385523168	2.15
C 	40.424599537213616	25.817903715365972	2.15
C 	41.709453951715375	26.42251030938837	2.15
C 	41.82827648924726	27.83753016952267	2.15
C 	43.11313090374902	28.442136763545076	2.15
C 	43.2319534412809	29.85715662367937	2.15
C 	44.51680785578264	30.461763217701773	2.15
C 	44.63563039331453	31.87678307783607	2.15
C 	45.92048480781628	32.481389671858466	2.15
C 	46.03930734534817	33.89640953199277	2.15
C 	47.324161759849915	34.50101612601517	2.15
C 	47.442984297381805	35.91603598614947	2.15
C 	48.72783871188355	36.520642580171874	2.15
C 	48.84666124941544	37.93566244030617	2.15
C 	50.131515663917185	38.54026903432857	2.15
C 	50.250338201449075	39.95528889446286	2.15
C 	51.53519261595083	40.559895488485274	2.15
C 	51.65401515348272	41.97491534861957	2.15
C 	52.938869567984455	42.57952194264197	2.15
C 	53.057692105516345	43.99454180277627	2.15
C 	54.3425465200181	44.59914839679866	2.15
C 	54.46136905754999	46.01416825693296	2.15
C 	55.74622347205173	46.618774850955354	2.15
C 	19.725912869304747	-0.2314335165816258	2.15
C 	21.010767283806494	0.37317307744077627	2.15
C 	21.12958982133838	1.7881929375750725	2.15
C 	22.414444235840133	2.3927995315974746	2.15
C 	22.53326677337202	3.8078193917317704	2.15
C 	23.818121187873768	4.412425985754176	2.15
C 	23.936943725405655	5.827445845888472	2.15
C 	25.221798139907406	6.4320524399108745	2.15
C 	25.340620677439293	7.847072300045171	2.15
C 	26.625475091941038	8.451678894067573	2.15
C 	26.744297629472925	9.866698754201868	2.15
C 	28.02915204397468	10.471305348224274	2.15
C 	28.147974581506567	11.88632520835857	2.15
C 	29.43282899600831	12.490931802380972	2.15
C 	29.5516515335402	13.905951662515267	2.15
C 	30.836505948041946	14.51055825653767	2.15
C 	30.955328485573837	15.925578116671968	2.15
C 	32.24018290007558	16.53018471069437	2.15
C 	32.35900543760747	17.945204570828672	2.15
C 	33.64385985210922	18.549811164851068	2.15
C 	33.76268238964111	19.964831024985365	2.15
C 	35.04753680414286	20.56943761900777	2.15
C 	35.16635934167474	21.984457479142065	2.15
C 	36.45121375617649	22.58906407316446	2.15
C 	36.57003629370838	24.004083933298762	2.15
C 	37.85489070821013	24.608690527321166	2.15
C 	37.97371324574201	26.023710387455463	2.15
C 	39.25856766024377	26.628316981477866	2.15
C 	39.377390197775654	28.043336841612163	2.15
C 	40.66224461227739	28.647943435634563	2.15
C 	40.78106714980928	30.06296329576886	2.15
C 	42.06592156431103	30.667569889791263	2.15
C 	42.184744101842924	32.08258974992556	2.15
C 	43.469598516344675	32.68719634394797	2.15
C 	43.588421053876566	34.10221620408226	2.15
C 	44.8732754683783	34.70682279810466	2.15
C 	44.992098005910194	36.12184265823896	2.15
C 	46.27695242041194	36.72644925226136	2.15
C 	46.39577495794383	38.14146911239566	2.15
C 	47.68062937244558	38.74607570641806	2.15
C 	47.79945190997747	40.16109556655236	2.15
C 	49.08430632447921	40.76570216057476	2.15
C 	49.2031288620111	42.180722020709055	2.15
C 	50.48798327651285	42.78532861473146	2.15
C 	50.60680581404474	44.200348474865756	2.15
C 	51.891660228546485	44.80495506888816	2.15
C 	52.010482766078376	46.21997492902246	2.15
C 	53.29533718058012	46.824581523044856	2.15
C 	17.275026577833138	-0.025626844492135606	2.15
C 	18.55988099233489	0.5789797495302664	2.15
C 	18.678703529866777	1.9939996096645627	2.15
C 	19.963557944368524	2.598606203686965	2.15
C 	20.08238048190041	4.013626063821261	2.15
C 	21.36723489640216	4.618232657843663	2.15
C 	21.486057433934047	6.033252517977959	2.15
C 	22.770911848435798	6.637859112000364	2.15
C 	22.889734385967685	8.05287897213466	2.15
C 	24.174588800469433	8.657485566157062	2.15
C 	24.29341133800132	10.07250542629136	2.15
C 	25.57826575250307	10.67711202031376	2.15
C 	25.69708829003496	12.092131880448058	2.15
C 	26.981942704536703	12.696738474470463	2.15
C 	27.10076524206859	14.111758334604756	2.15
C 	28.38561965657034	14.716364928627161	2.15
C 	28.504442194102232	16.13138478876146	2.15
C 	29.789296608603973	16.73599138278386	2.15
C 	29.908119146135864	18.151011242918152	2.15
C 	31.19297356063761	18.755617836940562	2.15
C 	31.311796098169502	20.170637697074856	2.15
C 	32.596650512671246	20.775244291097255	2.15
C 	32.71547305020314	22.19026415123155	2.15
C 	34.00032746470489	22.794870745253956	2.15
C 	34.11915000223677	24.209890605388253	2.15
C 	35.40400441673852	24.814497199410653	2.15
C 	35.52282695427041	26.229517059544946	2.15
C 	36.80768136877216	26.834123653567353	2.15
C 	36.92650390630404	28.249143513701647	2.15
C 	38.21135832080579	28.853750107724057	2.15
C 	38.33018085833768	30.26876996785835	2.15
C 	39.61503527283943	30.873376561880754	2.15
C 	39.73385781037132	32.28839642201505	2.15
C 	41.01871222487306	32.89300301603745	2.15
C 	41.137534762404954	34.30802287617175	2.15
C 	42.4223891769067	34.912629470194155	2.15
C 	42.54121171443859	36.32764933032845	2.15
C 	43.82606612894034	36.932255924350855	2.15
C 	43.94488866647223	38.34727578448514	2.15
C 	45.22974308097397	38.95188237850755	2.15
C 	45.34856561850586	40.36690223864184	2.15
C 	46.63342003300761	40.971508832664256	2.15
C 	46.7522425705395	42.38652869279854	2.15
C 	48.037096985041245	42.99113528682095	2.15
C 	48.155919522573136	44.40615514695524	2.15
C 	49.44077393707488	45.01076174097764	2.15
C 	14.824140286361533	0.18017982759735462	2.15
C 	16.10899470086328	0.7847864216197584	2.15
C 	16.22781723839517	2.1998062817540545	2.15
C 	17.512671652896916	2.804412875776457	2.15
C 	17.631494190428803	4.219432735910753	2.15
C 	18.916348604930555	4.8240393299331545	2.15
C 	19.035171142462442	6.239059190067451	2.15
C 	20.32002555696419	6.843665784089853	2.15
C 	20.438848094496077	8.25868564422415	2.15
C 	21.723702508997825	8.863292238246554	2.15
C 	21.842525046529712	10.278312098380852	2.15
C 	23.127379461031467	10.882918692403253	2.15
C 	23.246201998563354	12.297938552537548	2.15
C 	24.531056413065098	12.902545146559952	2.15
C 	24.649878950596985	14.317565006694247	2.15
C 	25.934733365098733	14.92217160071665	2.15
C 	26.053555902630624	16.33719146085095	2.15
C 	27.338410317132364	16.941798054873352	2.15
C 	27.457232854664255	18.356817915007646	2.15
C 	28.742087269166007	18.961424509030046	2.15
C 	28.860909806697897	20.376444369164346	2.15
C 	30.145764221199638	20.98105096318675	2.15
C 	30.26458675873153	22.396070823321047	2.15
C 	31.549441173233276	23.000677417343443	2.15
C 	31.668263710765164	24.41569727747774	2.15
C 	32.95311812526691	25.020303871500147	2.15
C 	33.0719406627988	26.435323731634444	2.15
C 	34.356795077300546	27.03993032565684	2.15
C 	34.47561761483244	28.454950185791137	2.15
C 	35.76047202933418	29.05955677981354	2.15
C 	35.87929456686607	30.47457663994784	2.15
C 	37.164148981367816	31.079183233970245	2.15
C 	37.28297151889971	32.49420309410454	2.15
C 	38.56782593340145	33.09880968812694	2.15
C 	38.68664847093334	34.513829548261235	2.15
C 	39.97150288543509	35.11843614228364	2.15
C 	40.090325422966984	36.533456002417935	2.15
C 	41.37517983746873	37.13806259644034	2.15
C 	41.49400237500062	38.55308245657464	2.15
C 	42.77885678950236	39.157689050597035	2.15
C 	42.897679327034254	40.572708910731336	2.15
C 	44.182533741536	41.177315504753736	2.15
C 	44.30135627906789	42.59233536488804	2.15
C 	45.58621069356963	43.19694195891044	2.15
C 	45.705033231101524	44.61196181904474	2.15
C 	46.98988764560327	45.21656841306714	2.15
C 	12.373253994889925	0.38598649968684484	2.15
C 	13.658108409391675	0.9905930937092486	2.15
C 	13.776930946923562	2.4056129538435447	2.15
C 	15.06178536142531	3.010219547865949	2.15
C 	15.180607898957197	4.425239408000245	2.15
C 	16.465462313458946	5.029846002022647	2.15
C 	16.584284850990834	6.444865862156943	2.15
C 	17.86913926549258	7.049472456179345	2.15
C 	17.98796180302447	8.464492316313642	2.15
C 	19.27281621752622	9.069098910336043	2.15
C 	19.391638755058107	10.484118770470339	2.15
C 	20.676493169559855	11.088725364492745	2.15
C 	20.795315707091742	12.50374522462704	2.15
C 	22.08017012159349	13.108351818649444	2.15
C 	22.198992659125377	14.523371678783738	2.15
C 	23.483847073627125	15.127978272806141	2.15
C 	23.602669611159016	16.54299813294044	2.15
C 	24.88752402566076	17.147604726962843	2.15
C 	25.00634656319265	18.56262458709714	2.15
C 	26.291200977694395	19.16723118111954	2.15
C 	26.410023515226285	20.582251041253837	2.15
C 	27.69487792972803	21.18685763527624	2.15
C 	27.81370046725992	22.601877495410537	2.15
C 	29.098554881761668	23.20648408943294	2.15
C 	29.21737741929356	24.621503949567238	2.15
C 	30.502231833795303	25.226110543589638	2.15
C 	30.62105437132719	26.641130403723935	2.15
C 	31.905908785828938	27.245736997746338	2.15
C 	32.024731323360825	28.660756857880635	2.15
C 	33.30958573786258	29.26536345190303	2.15
C 	33.42840827539447	30.680383312037332	2.15
C 	34.71326268989621	31.284989906059735	2.15
C 	34.8320852274281	32.70000976619403	2.15
C 	36.11693964192985	33.304616360216436	2.15
C 	36.23576217946174	34.719636220350736	2.15
C 	37.52061659396348	35.32424281437313	2.15
C 	37.63943913149537	36.73926267450743	2.15
C 	38.92429354599712	37.34386926852983	2.15
C 	39.043116083529014	38.75888912866413	2.15
C 	40.32797049803076	39.36349572268654	2.15
C 	40.44679303556265	40.77851558282083	2.15
C 	41.73164745006439	41.38312217684323	2.15
C 	41.850469987596284	42.798142036977524	2.15
C 	43.13532440209803	43.40274863099993	2.15
C 	43.25414693962992	44.81776849113423	2.15
C 	44.53900135413167	45.42237508515663	2.15
C 	9.922367703418319	0.5917931717763352	2.15
C 	11.207222117920066	1.1963997657987373	2.15
C 	11.326044655451954	2.6114196259330336	2.15
C 	12.610899069953703	3.2160262199554372	2.15
C 	12.72972160748559	4.6310460800897335	2.15
C 	14.01457602198734	5.235652674112137	2.15
C 	14.133398559519227	6.650672534246433	2.15
C 	15.418252974020973	7.255279128268835	2.15
C 	15.537075511552862	8.67029898840313	2.15
C 	16.82192992605461	9.274905582425534	2.15
C 	16.9407524635865	10.68992544255983	2.15
C 	18.225606878088247	11.29453203658223	2.15
C 	18.344429415620134	12.709551896716528	2.15
C 	19.629283830121885	13.314158490738933	2.15
C 	19.748106367653772	14.729178350873228	2.15
C 	21.032960782155516	15.333784944895632	2.15
C 	21.151783319687407	16.74880480502993	2.15
C 	22.43663773418915	17.35341139905233	2.15
C 	22.555460271721042	18.768431259186624	2.15
C 	23.84031468622279	19.37303785320903	2.15
C 	23.95913722375468	20.788057713343328	2.15
C 	25.243991638256425	21.39266430736573	2.15
C 	25.362814175788316	22.807684167500028	2.15
C 	26.64766859029006	23.412290761522428	2.15
C 	26.766491127821947	24.82731062165672	2.15
C 	28.051345542323695	25.431917215679128	2.15
C 	28.170168079855582	26.846937075813425	2.15
C 	29.455022494357333	27.451543669835825	2.15
C 	29.57384503188922	28.86656352997012	2.15
C 	30.85869944639097	29.471170123992525	2.15
C 	30.977521983922855	30.88618998412682	2.15
C 	32.2623763984246	31.490796578149226	2.15
C 	32.38119893595649	32.905816438283516	2.15
C 	33.66605335045824	33.510423032305916	2.15
C 	33.78487588799013	34.925442892440216	2.15
C 	35.06973030249188	35.53004948646263	2.15
C 	35.18855284002377	36.94506934659692	2.15
C 	36.47340725452551	37.54967594061932	2.15
C 	36.5922297920574	38.96469580075361	2.15
C 	37.87708420655915	39.56930239477602	2.15
C 	37.99590674409104	40.98432225491032	2.15
C 	39.28076115859279	41.588928848932724	2.15
C 	39.39958369612468	43.00394870906702	2.15
C 	40.684438110626424	43.60855530308942	2.15
C 	40.803260648158314	45.02357516322371	2.15
C 	42.08811506266005	45.62818175724612	2.15
C 	7.47148141194671	0.7975998438658254	2.15
C 	8.756335826448458	1.4022064378882284	2.15
C 	8.875158363980345	2.8172262980225247	2.15
C 	10.160012778482095	3.4218328920449266	2.15
C 	10.278835316013982	4.836852752179222	2.15
C 	11.563689730515733	5.4414593462016265	2.15
C 	11.68251226804762	6.856479206335923	2.15
C 	12.967366682549367	7.461085800358325	2.15
C 	13.086189220081256	8.876105660492623	2.15
C 	14.371043634583003	9.480712254515023	2.15
C 	14.489866172114892	10.895732114649322	2.15
C 	15.774720586616638	11.500338708671721	2.15
C 	15.893543124148527	12.91535856880602	2.15
C 	17.178397538650273	13.51996516282842	2.15
C 	17.297220076182164	14.934985022962717	2.15
C 	18.582074490683908	15.539591616985122	2.15
C 	18.7008970282158	16.95461147711942	2.15
C 	19.985751442717547	17.55921807114182	2.15
C 	20.104573980249437	18.974237931276118	2.15
C 	21.38942839475118	19.578844525298518	2.15
C 	21.508250932283072	20.993864385432815	2.15
C 	22.793105346784817	21.59847097945522	2.15
C 	22.911927884316707	23.01349083958952	2.15
C 	24.196782298818455	23.61809743361192	2.15
C 	24.315604836350346	25.033117293746216	2.15
C 	25.60045925085209	25.637723887768615	2.15
C 	25.719281788383977	27.052743747902916	2.15
C 	27.004136202885725	27.65735034192532	2.15
C 	27.122958740417612	29.072370202059616	2.15
C 	28.40781315491936	29.676976796082013	2.15
C 	28.526635692451247	31.09199665621631	2.15
C 	29.811490106953	31.696603250238713	2.15
C 	29.930312644484886	33.11162311037301	2.15
C 	31.215167058986633	33.71622970439541	2.15
C 	31.33398959651852	35.13124956452971	2.15
C 	32.618844011020265	35.73585615855211	2.15
C 	32.737666548552156	37.15087601868641	2.15
C 	34.02252096305391	37.75548261270881	2.15
C 	34.1413435005858	39.17050247284311	2.15
C 	35.42619791508754	39.77510906686551	2.15
C 	35.545020452619426	41.190128926999805	2.15
C 	36.829874867121184	41.79473552102221	2.15
C 	36.948697404653075	43.209755381156505	2.15
C 	38.23355181915481	43.81436197517891	2.15
C 	38.3523743566867	45.229381835313205	2.15
C 	39.637228771188454	45.833988429335605	2.15
C 	5.020595120475103	1.0034065159553156	2.15
C 	6.305449534976852	1.6080131099777186	2.15
C 	6.42427207250874	3.023032970112015	2.15
C 	7.7091264870104865	3.6276395641344177	2.15
C 	7.8279490245423755	5.042659424268714	2.15
C 	9.112803439044123	5.647266018291115	2.15
C 	9.23162597657601	7.062285878425412	2.15
C 	10.516480391077758	7.666892472447816	2.15
C 	10.635302928609647	9.081912332582112	2.15
C 	11.920157343111395	9.686518926604515	2.15
C 	12.038979880643284	11.101538786738812	2.15
C 	13.32383429514503	11.706145380761214	2.15
C 	13.442656832676919	13.12116524089551	2.15
C 	14.727511247178667	13.725771834917913	2.15
C 	14.846333784710556	15.140791695052208	2.15
C 	16.1311881992123	15.745398289074613	2.15
C 	16.25001073674419	17.16041814920891	2.15
C 	17.53486515124594	17.765024743231315	2.15
C 	17.653687688777826	19.18004460336561	2.15
C 	18.938542103279573	19.78465119738801	2.15
C 	19.057364640811464	21.199671057522306	2.15
C 	20.342219055313212	21.80427765154471	2.15
C 	20.461041592845103	23.219297511679006	2.15
C 	21.745896007346847	23.823904105701413	2.15
C 	21.864718544878738	25.238923965835706	2.15
C 	23.14957295938048	25.843530559858106	2.15
C 	23.26839549691237	27.258550419992403	2.15
C 	24.55324991141412	27.86315701401481	2.15
C 	24.672072448946007	29.278176874149104	2.15
C 	25.956926863447755	29.88278346817151	2.15
C 	26.075749400979642	31.297803328305807	2.15
C 	27.36060381548139	31.902409922328204	2.15
C 	27.479426353013277	33.317429782462504	2.15
C 	28.764280767515025	33.922036376484904	2.15
C 	28.883103305046912	35.3370562366192	2.15
C 	30.167957719548664	35.941662830641604	2.15
C 	30.28678025708055	37.35668269077589	2.15
C 	31.5716346715823	37.961289284798305	2.15
C 	31.690457209114186	39.3763091449326	2.15
C 	32.97531162361593	39.980915738955005	2.15
C 	33.09413416114782	41.3959355990893	2.15
C 	34.37898857564957	42.0005421931117	2.15
C 	34.497811113181456	43.41556205324599	2.15
C 	35.78266552768321	44.0201686472684	2.15
C 	35.9014880652151	45.4351885074027	2.15
C 	37.18634247971685	46.0397951014251	2.15
C 	2.4508862914716074	-0.20580667208949024	2.15
C 	2.5697088290034955	1.2092131880448058	2.15
C 	3.8545632435052433	1.8138197820672088	2.15
C 	3.973385781037132	3.228839642201505	2.15
C 	5.258240195538879	3.833446236223908	2.15
C 	5.377062733070768	5.248466096358204	2.15
C 	6.661917147572515	5.853072690380607	2.15
C 	6.780739685104403	7.268092550514903	2.15
C 	8.06559409960615	7.8726991445373065	2.15
C 	8.184416637138039	9.287719004671601	2.15
C 	9.469271051639787	9.892325598694004	2.15
C 	9.588093589171676	11.307345458828301	2.15
C 	10.872948003673423	11.911952052850706	2.15
C 	10.991770541205312	13.326971912985	2.15
C 	12.27662495570706	13.931578507007405	2.15
C 	12.39544749323895	15.346598367141699	2.15
C 	13.680301907740695	15.951204961164102	2.15
C 	13.799124445272582	17.366224821298395	2.15
C 	15.083978859774332	17.970831415320802	2.15
C 	15.202801397306219	19.385851275455096	2.15
C 	16.487655811807965	19.990457869477503	2.15
C 	16.606478349339856	21.405477729611796	2.15
C 	17.891332763841604	22.0100843236342	2.15
C 	18.010155301373494	23.425104183768497	2.15
C 	19.29500971587524	24.0297107777909	2.15
C 	19.413832253407126	25.444730637925193	2.15
C 	20.698686667908877	26.0493372319476	2.15
C 	20.817509205440764	27.464357092081894	2.15
C 	22.102363619942512	28.068963686104297	2.15
C 	22.2211861574744	29.483983546238594	2.15
C 	23.506040571976147	30.088590140260997	2.15
C 	23.624863109508034	31.50361000039529	2.15
C 	24.909717524009785	32.1082165944177	2.15
C 	25.028540061541673	33.52323645455199	2.15
C 	26.31339447604342	34.12784304857439	2.15
C 	26.432217013575308	35.542862908708685	2.15
C 	27.717071428077055	36.14746950273109	2.15
C 	27.835893965608943	37.56248936286539	2.15
C 	29.12074838011069	38.167095956887785	2.15
C 	29.239570917642578	39.582115817022085	2.15
C 	30.52442533214433	40.186722411044485	2.15
C 	30.643247869676216	41.601742271178786	2.15
C 	31.928102284177964	42.20634886520119	2.15
C 	32.04692482170985	43.621368725335486	2.15
C 	33.331779236211595	44.225975319357886	2.15
C 	33.450601773743486	45.64099517949218	2.15
C 	34.73545618824524	46.245601773514586	2.15
C 	2.807353904067272	4.039252908313398	2.15
C 	2.9261764415991602	5.454272768447694	2.15
C 	4.211030856100908	6.058879362470098	2.15
C 	4.3298533936327965	7.473899222604393	2.15
C 	5.614707808134544	8.078505816626796	2.15
C 	5.733530345666432	9.493525676761092	2.15
C 	7.01838476016818	10.098132270783495	2.15
C 	7.137207297700068	11.51315213091779	2.15
C 	8.422061712201817	12.117758724940195	2.15
C 	8.540884249733704	13.53277858507449	2.15
C 	9.825738664235452	14.137385179096894	2.15
C 	9.94456120176734	15.55240503923119	2.15
C 	11.229415616269089	16.157011633253592	2.15
C 	11.348238153800978	17.57203149338789	2.15
C 	12.633092568302725	18.17663808741029	2.15
C 	12.751915105834613	19.591657947544586	2.15
C 	14.03676952033636	20.19626454156699	2.15
C 	14.155592057868247	21.611284401701287	2.15
C 	15.440446472369997	22.21589099572369	2.15
C 	15.559269009901884	23.630910855857987	2.15
C 	16.844123424403634	24.23551744988039	2.15
C 	16.96294596193552	25.650537310014684	2.15
C 	18.24780037643727	26.255143904037087	2.15
C 	18.366622913969156	27.670163764171384	2.15
C 	19.651477328470904	28.274770358193788	2.15
C 	19.77029986600279	29.68979021832809	2.15
C 	21.055154280504542	30.294396812350488	2.15
C 	21.17397681803643	31.70941667248478	2.15
C 	22.458831232538177	32.314023266507185	2.15
C 	22.577653770070064	33.729043126641486	2.15
C 	23.862508184571812	34.333649720663885	2.15
C 	23.9813307221037	35.748669580798186	2.15
C 	25.26618513660545	36.35327617482058	2.15
C 	25.385007674137338	37.76829603495488	2.15
C 	26.669862088639086	38.372902628977286	2.15
C 	26.788684626170973	39.78792248911158	2.15
C 	28.07353904067272	40.39252908313398	2.15
C 	28.192361578204608	41.80754894326827	2.15
C 	29.477215992706356	42.41215553729068	2.15
C 	29.596038530238243	43.82717539742498	2.15
C 	30.880892944739994	44.43178199144738	2.15
C 	30.99971548227188	45.84680185158168	2.15
C 	32.284569896773625	46.45140844560407	2.15
C 	14.393237132932024	24.441324121969878	2.15
C 	14.512059670463913	25.85634398210418	2.15
C 	15.796914084965662	26.460950576126578	2.15
C 	15.915736622497551	27.875970436260875	2.15
C 	17.2005910369993	28.480577030283275	2.15
C 	17.319413574531186	29.895596890417572	2.15
C 	18.604267989032934	30.50020348443998	2.15
C 	18.72309052656482	31.915223344574272	2.15
C 	20.00794494106657	32.51982993859667	2.15
C 	20.126767478598456	33.93484979873097	2.15
C 	21.411621893100207	34.53945639275338	2.15
C 	21.530444430632095	35.954476252887666	2.15
C 	22.815298845133842	36.55908284691008	2.15
C 	22.93412138266573	37.974102707044366	2.15
C 	24.218975797167477	38.57870930106677	2.15
C 	24.337798334699364	39.99372916120107	2.15
C 	25.622652749201116	40.598335755223474	2.15
C 	25.741475286733003	42.01335561535777	2.15
C 	27.02632970123475	42.61796220938017	2.15
C 	27.145152238766638	44.03298206951446	2.15
C 	28.430006653268386	44.637588663536874	2.15
C 	28.548829190800273	46.05260852367116	2.15
C 	29.83368360530202	46.657215117693575	2.15
H 	52.89990276123707	-1.9734710161702567	2.15
H 	55.17101866292676	-0.9047649943419365	2.15
H 	56.5746956149604	1.1148614598147688	2.15
H 	57.97837256699403	3.1344879139714714	2.15
H 	58.18840395375815	5.635684990687732	2.15
H 	50.449016469765446	-1.7676643440807651	2.15
H 	58.3348401795897	7.379547494374359	2.15
H 	59.73851713162335	9.39917394853107	2.15
H 	61.14219408365698	11.418800402687769	2.15
H 	62.5458710356906	13.438426856844458	2.15
H 	63.94954798772425	15.458053311001168	2.15
H 	65.35322493975787	17.47767976515786	2.15
H 	66.75690189179153	19.497306219314556	2.15
H 	68.16057884382516	21.51693267347125	2.15
H 	69.5642557958588	23.53655912762797	2.15
H 	69.7742871826229	26.03775620434422	2.15
H 	47.99813017829386	-1.5618576719912831	2.15
H 	69.92072340845448	27.781618708030837	2.15
H 	71.32440036048807	29.801245162187517	2.15
H 	72.72807731252173	31.820871616344245	2.15
H 	74.13175426455535	33.84049807050092	2.15
H 	75.53543121658899	35.860124524657614	2.15
H 	75.7454626033531	38.36132160137389	2.15
H 	45.54724388682222	-1.3560509999017838	2.15
H 	74.69825326391513	40.5867547276201	2.15
H 	43.09635759535064	-1.1502443278123018	2.15
H 	73.65104392447716	42.81218785386626	2.15
H 	40.64547130387902	-0.9444376557228041	2.15
H 	72.60383458503917	45.037620980112486	2.15
H 	38.19458501240742	-0.7386309836333214	2.15
H 	70.54275007011366	46.470112035000376	2.15
H 	35.743698720935804	-0.5328243115438273	2.15
H 	68.09186377864204	46.67591870708987	2.15
H 	33.29281242946422	-0.3270176394543348	2.15
H 	65.64097748717042	46.88172537917937	2.15
H 	30.84192613799259	-0.12121096736485037	2.15
H 	63.19009119569878	47.087532051268845	2.15
H 	26.98736289448734	-1.9350307494320544	2.15
H 	29.25847879617705	-0.866324727603727	2.15
H 	60.73920490422717	47.293338723358346	2.15
H 	24.536476603015732	-1.7292240773425642	2.15
H 	58.28831861275556	47.49914539544784	2.15
H 	22.085590311544134	-1.523417405253078	2.15
H 	55.837432321283956	47.70495206753731	2.15
H 	19.63470402007252	-1.3176107331635856	2.15
H 	51.11543012812265	46.8420527177985	2.15
H 	53.386546029812344	47.910758739626814	2.15
H 	17.183817728600907	-1.1118040610740951	2.15
H 	49.531982786307104	46.0969389575596	2.15
H 	14.732931437129308	-0.905997388984605	2.15
H 	47.08109649483548	46.302745629649095	2.15
H 	12.2820451456577	-0.7001907168951148	2.15
H 	44.6302102033639	46.50855230173859	2.15
H 	9.831158854186095	-0.4943840448056245	2.15
H 	42.17932391189226	46.71435897382808	2.15
H 	7.380272562714485	-0.28857737271613426	2.15
H 	39.728437620420685	46.920165645917564	2.15
H 	4.929386271242878	-0.08277070062664404	2.15
H 	37.27755132894908	47.12597231800706	2.15
H 	1.674656191047758	1.8312909768208365	2.15
H 	34.82666503747746	47.331778990096545	2.15
H 	1.8210924168793108	3.5751534805074687	2.15
H 	2.031123803643423	6.0763505572237255	2.15
H 	3.4348007556770592	8.095977011380423	2.15
H 	4.838477707710695	10.115603465537122	2.15
H 	6.24215465974433	12.135229919693819	2.15
H 	7.645831611777965	14.154856373850519	2.15
H 	9.049508563811605	16.17448282800722	2.15
H 	10.45318551584524	18.19410928216392	2.15
H 	11.856862467878875	20.21373573632062	2.15
H 	13.26053941991251	22.23336219047732	2.15
H 	32.37577874600585	47.53758566218603	2.15
H 	13.406975645744065	23.97722469416394	2.15
H 	13.617007032508178	26.478421770880214	2.15
H 	15.020683984541817	28.49804822503691	2.15
H 	16.42436093657545	30.517674679193604	2.15
H 	17.828037888609085	32.537301133350304	2.15
H 	19.23171484064272	34.556927587507005	2.15
H 	20.635391792676348	36.576554041663684	2.15
H 	22.039068744709986	38.59618049582039	2.15
H 	23.442745696743625	40.61580694997709	2.15
H 	24.846422648777267	42.6354334041338	2.15
H 	26.250099600810895	44.655059858290485	2.15
H 	27.653776552844526	46.67468631244718	2.15
H 	29.92489245453424	47.74339233427553	2.15
