2334

C 	0.0	0.0	0.0
C 	1.2297560733739028	0.7099999999999999	0.0
C 	2.4595121467478056	-2.3647750424515833e-16	0.0
C 	3.689268220121708	0.7099999999999995	0.0
C 	4.919024293495611	-4.729550084903167e-16	0.0
C 	6.148780366869514	0.7099999999999993	0.0
C 	7.378536440243416	-7.09432512735475e-16	0.0
C 	8.60829251361732	0.7099999999999991	0.0
C 	9.838048586991222	-9.459100169806333e-16	0.0
C 	11.067804660365125	0.7099999999999989	0.0
C 	12.297560733739026	-1.1823875212257916e-15	0.0
C 	13.527316807112928	0.7099999999999986	0.0
C 	14.757072880486833	-1.41886502547095e-15	0.0
C 	15.986828953860735	0.7099999999999984	0.0
C 	17.21658502723464	-7.671641100159832e-16	0.0
C 	18.44634110060854	0.7099999999999982	0.0
C 	19.676097173982445	-1.8918200339612667e-15	0.0
C 	20.905853247356347	0.7099999999999989	0.0
C 	22.135609320730246	-2.128297538206425e-15	0.0
C 	23.36536539410415	0.7099999999999967	0.0
C 	24.59512146747805	-2.364775042451583e-15	0.0
C 	25.824877540851954	0.7099999999999983	0.0
C 	27.05463361422586	-8.248957072964913e-16	0.0
C 	28.284389687599763	0.7099999999999999	0.0
C 	29.514145760973665	-2.8377300509419e-15	0.0
C 	30.743901834347565	0.7099999999999961	0.0
C 	31.97365790772147	-3.0742075551870582e-15	0.0
C 	33.20341398109537	0.7099999999999976	0.0
C 	34.43317005446928	-1.5343282200319664e-15	0.0
C 	35.66292612784318	0.7099999999999992	0.0
C 	36.892682201217085	-1.7708057242771246e-15	0.0
C 	38.122438274590984	0.7099999999999972	0.0
C 	39.35219434796489	-3.783640067922533e-15	0.0
C 	40.58195042133879	0.7099999999999969	0.0
C 	41.811706494712695	-4.67403893367191e-16	0.0
C 	43.0414625680866	0.7100000000000002	0.0
C 	44.27121864146049	-4.25659507641285e-15	0.0
C 	45.5009747148344	0.7099999999999964	0.0
C 	46.730730788208305	-9.403589018575075e-16	0.0
C 	47.96048686158221	0.7099999999999997	0.0
C 	49.1902429349561	-4.729550084903166e-15	0.0
C 	50.41999900833001	0.709999999999996	0.0
C 	51.64975508170391	-1.413313910347824e-15	0.0
C 	52.879511155077815	0.7099999999999993	0.0
C 	54.10926722845172	-1.6497914145929826e-15	0.0
C 	55.33902330182562	0.7099999999999991	0.0
C 	56.56877937519952	-5.438982597638641e-15	0.0
C 	57.798535448573425	0.7099999999999953	0.0
C 	59.02829152194733	-5.6754601018838e-15	0.0
C 	60.25804759532124	0.709999999999995	0.0
C 	1.2297560733739028	2.1299999999999994	0.0
C 	2.4595121467478056	2.8399999999999994	0.0
C 	3.689268220121708	2.1299999999999994	0.0
C 	4.919024293495611	2.8399999999999994	0.0
C 	6.148780366869514	2.129999999999999	0.0
C 	7.378536440243416	2.839999999999999	0.0
C 	8.60829251361732	2.1299999999999986	0.0
C 	9.838048586991222	2.8399999999999985	0.0
C 	11.067804660365123	2.129999999999998	0.0
C 	12.297560733739028	2.839999999999999	0.0
C 	13.527316807112928	2.1299999999999977	0.0
C 	14.757072880486833	2.839999999999998	0.0
C 	15.986828953860735	2.129999999999998	0.0
C 	17.216585027234636	2.839999999999997	0.0
C 	18.446341100608542	2.129999999999998	0.0
C 	19.676097173982445	2.8399999999999985	0.0
C 	20.905853247356344	2.1299999999999977	0.0
C 	22.13560932073025	2.8399999999999985	0.0
C 	23.36536539410415	2.129999999999997	0.0
C 	24.595121467478055	2.839999999999997	0.0
C 	25.824877540851954	2.1299999999999963	0.0
C 	27.05463361422586	2.839999999999997	0.0
C 	28.284389687599763	2.129999999999998	0.0
C 	29.514145760973665	2.8399999999999985	0.0
C 	30.743901834347568	2.129999999999996	0.0
C 	31.97365790772147	2.8399999999999967	0.0
C 	33.20341398109537	2.129999999999996	0.0
C 	34.43317005446928	2.8399999999999963	0.0
C 	35.66292612784318	2.1299999999999972	0.0
C 	36.89268220121708	2.8399999999999963	0.0
C 	38.122438274590984	2.129999999999997	0.0
C 	39.35219434796489	2.8399999999999976	0.0
C 	40.58195042133879	2.1299999999999986	0.0
C 	41.81170649471269	2.839999999999996	0.0
C 	43.0414625680866	2.129999999999998	0.0
C 	44.2712186414605	2.8399999999999954	0.0
C 	45.5009747148344	2.129999999999998	0.0
C 	46.7307307882083	2.8399999999999954	0.0
C 	47.96048686158221	2.1299999999999977	0.0
C 	49.19024293495611	2.839999999999995	0.0
C 	50.41999900833001	2.1299999999999977	0.0
C 	51.64975508170391	2.8399999999999945	0.0
C 	52.879511155077815	2.1299999999999972	0.0
C 	54.10926722845171	2.8399999999999945	0.0
C 	55.33902330182563	2.130000000000001	0.0
C 	56.56877937519952	2.8399999999999976	0.0
C 	57.798535448573425	2.129999999999997	0.0
C 	59.028291521947324	2.839999999999994	0.0
C 	60.25804759532124	2.129999999999997	0.0
C 	61.487803668695136	2.8399999999999936	0.0
C 	2.4595121467478056	4.259999999999999	0.0
C 	3.689268220121708	4.969999999999999	0.0
C 	4.919024293495611	4.259999999999999	0.0
C 	6.148780366869514	4.969999999999999	0.0
C 	7.378536440243416	4.259999999999999	0.0
C 	8.60829251361732	4.969999999999999	0.0
C 	9.83804858699122	4.259999999999998	0.0
C 	11.067804660365125	4.969999999999999	0.0
C 	12.297560733739028	4.259999999999998	0.0
C 	13.52731680711293	4.969999999999998	0.0
C 	14.757072880486831	4.259999999999998	0.0
C 	15.986828953860735	4.969999999999998	0.0
C 	17.21658502723464	4.259999999999997	0.0
C 	18.446341100608542	4.969999999999998	0.0
C 	19.676097173982445	4.259999999999999	0.0
C 	20.905853247356347	4.969999999999997	0.0
C 	22.135609320730246	4.259999999999996	0.0
C 	23.365365394104153	4.969999999999997	0.0
C 	24.595121467478055	4.259999999999998	0.0
C 	25.824877540851958	4.969999999999997	0.0
C 	27.054633614225857	4.259999999999995	0.0
C 	28.28438968759976	4.969999999999996	0.0
C 	29.514145760973665	4.259999999999997	0.0
C 	30.743901834347568	4.969999999999997	0.0
C 	31.97365790772147	4.259999999999996	0.0
C 	33.20341398109537	4.969999999999995	0.0
C 	34.43317005446927	4.2599999999999945	0.0
C 	35.66292612784318	4.969999999999995	0.0
C 	36.892682201217085	4.259999999999996	0.0
C 	38.122438274590984	4.969999999999997	0.0
C 	39.35219434796489	4.259999999999997	0.0
C 	40.58195042133879	4.969999999999994	0.0
C 	41.81170649471269	4.259999999999995	0.0
C 	43.041462568086594	4.969999999999996	0.0
C 	44.2712186414605	4.259999999999997	0.0
C 	45.500974714834406	4.969999999999998	0.0
C 	46.7307307882083	4.259999999999994	0.0
C 	47.960486861582204	4.9699999999999935	0.0
C 	49.19024293495611	4.259999999999996	0.0
C 	50.41999900833001	4.969999999999997	0.0
C 	51.64975508170391	4.259999999999993	0.0
C 	52.879511155077815	4.9699999999999935	0.0
C 	54.10926722845171	4.259999999999996	0.0
C 	55.33902330182562	4.969999999999997	0.0
C 	56.568779375199526	4.259999999999996	0.0
C 	57.798535448573425	4.969999999999996	0.0
C 	59.028291521947324	4.259999999999995	0.0
C 	60.25804759532123	4.969999999999996	0.0
C 	61.487803668695136	4.259999999999992	0.0
C 	62.717559742069035	4.969999999999993	0.0
C 	3.6892682201217086	6.389999999999999	0.0
C 	4.919024293495611	7.099999999999999	0.0
C 	6.148780366869514	6.389999999999999	0.0
C 	7.378536440243416	7.099999999999999	0.0
C 	8.608292513617318	6.389999999999998	0.0
C 	9.838048586991222	7.099999999999999	0.0
C 	11.067804660365125	6.389999999999998	0.0
C 	12.297560733739028	7.099999999999998	0.0
C 	13.52731680711293	6.389999999999999	0.0
C 	14.757072880486833	7.099999999999998	0.0
C 	15.986828953860735	6.389999999999998	0.0
C 	17.216585027234636	7.099999999999997	0.0
C 	18.44634110060854	6.389999999999997	0.0
C 	19.676097173982445	7.099999999999998	0.0
C 	20.905853247356347	6.389999999999998	0.0
C 	22.13560932073025	7.099999999999997	0.0
C 	23.365365394104153	6.389999999999998	0.0
C 	24.59512146747805	7.099999999999997	0.0
C 	25.824877540851958	6.389999999999998	0.0
C 	27.054633614225857	7.099999999999997	0.0
C 	28.28438968759976	6.389999999999999	0.0
C 	29.514145760973662	7.099999999999997	0.0
C 	30.743901834347568	6.389999999999999	0.0
C 	31.97365790772147	7.099999999999998	0.0
C 	33.20341398109537	6.389999999999995	0.0
C 	34.43317005446928	7.099999999999994	0.0
C 	35.66292612784318	6.389999999999995	0.0
C 	36.892682201217085	7.099999999999996	0.0
C 	38.122438274590984	6.389999999999996	0.0
C 	39.35219434796489	7.099999999999997	0.0
C 	40.58195042133879	6.389999999999994	0.0
C 	41.811706494712695	7.099999999999995	0.0
C 	43.041462568086594	6.389999999999996	0.0
C 	44.2712186414605	7.099999999999997	0.0
C 	45.500974714834406	6.389999999999998	0.0
C 	46.730730788208305	7.099999999999998	0.0
C 	47.960486861582204	6.389999999999995	0.0
C 	49.19024293495611	7.099999999999996	0.0
C 	50.41999900833001	6.389999999999995	0.0
C 	51.649755081703915	7.099999999999996	0.0
C 	52.879511155077815	6.389999999999995	0.0
C 	54.10926722845172	7.099999999999996	0.0
C 	55.33902330182562	6.389999999999995	0.0
C 	56.568779375199526	7.099999999999995	0.0
C 	57.79853544857343	6.389999999999998	0.0
C 	59.02829152194733	7.099999999999999	0.0
C 	60.25804759532123	6.389999999999994	0.0
C 	61.487803668695136	7.099999999999995	0.0
C 	62.71755974206904	6.389999999999994	0.0
C 	63.94731581544294	7.099999999999995	0.0
C 	4.919024293495611	8.519999999999998	0.0
C 	6.148780366869514	9.229999999999999	0.0
C 	7.378536440243416	8.519999999999998	0.0
C 	8.60829251361732	9.229999999999999	0.0
C 	9.838048586991222	8.519999999999998	0.0
C 	11.067804660365125	9.229999999999999	0.0
C 	12.297560733739028	8.519999999999998	0.0
C 	13.52731680711293	9.229999999999997	0.0
C 	14.757072880486833	8.519999999999998	0.0
C 	15.986828953860737	9.229999999999999	0.0
C 	17.216585027234636	8.519999999999998	0.0
C 	18.44634110060854	9.229999999999997	0.0
C 	19.67609717398244	8.519999999999996	0.0
C 	20.905853247356347	9.229999999999997	0.0
C 	22.13560932073025	8.519999999999998	0.0
C 	23.365365394104153	9.229999999999999	0.0
C 	24.595121467478055	8.519999999999996	0.0
C 	25.824877540851954	9.229999999999995	0.0
C 	27.05463361422586	8.519999999999996	0.0
C 	28.284389687599763	9.229999999999997	0.0
C 	29.514145760973662	8.519999999999996	0.0
C 	30.743901834347565	9.229999999999995	0.0
C 	31.97365790772147	8.52	0.0
C 	33.20341398109537	9.229999999999997	0.0
C 	34.43317005446928	8.519999999999994	0.0
C 	35.66292612784318	9.229999999999995	0.0
C 	36.89268220121708	8.519999999999992	0.0
C 	38.122438274590984	9.229999999999993	0.0
C 	39.35219434796489	8.519999999999998	0.0
C 	40.58195042133879	9.229999999999995	0.0
C 	41.811706494712695	8.519999999999994	0.0
C 	43.0414625680866	9.229999999999995	0.0
C 	44.27121864146049	8.519999999999992	0.0
C 	45.5009747148344	9.229999999999993	0.0
C 	46.730730788208305	8.519999999999998	0.0
C 	47.960486861582204	9.229999999999995	0.0
C 	49.19024293495611	8.519999999999996	0.0
C 	50.41999900833001	9.229999999999993	0.0
C 	51.64975508170391	8.519999999999994	0.0
C 	52.879511155077815	9.229999999999995	0.0
C 	54.10926722845171	8.51999999999999	0.0
C 	55.33902330182562	9.229999999999992	0.0
C 	56.568779375199526	8.519999999999998	0.0
C 	57.798535448573425	9.229999999999995	0.0
C 	59.02829152194733	8.519999999999994	0.0
C 	60.25804759532123	9.229999999999993	0.0
C 	61.48780366869513	8.519999999999992	0.0
C 	62.717559742069035	9.229999999999993	0.0
C 	63.94731581544294	8.519999999999992	0.0
C 	65.17707188881684	9.22999999999999	0.0
C 	6.148780366869514	10.649999999999997	0.0
C 	7.378536440243416	11.359999999999998	0.0
C 	8.608292513617318	10.649999999999997	0.0
C 	9.838048586991222	11.359999999999998	0.0
C 	11.067804660365125	10.649999999999997	0.0
C 	12.297560733739028	11.359999999999996	0.0
C 	13.52731680711293	10.649999999999997	0.0
C 	14.757072880486831	11.359999999999996	0.0
C 	15.986828953860735	10.649999999999997	0.0
C 	17.216585027234636	11.359999999999996	0.0
C 	18.44634110060854	10.649999999999997	0.0
C 	19.676097173982445	11.359999999999998	0.0
C 	20.905853247356347	10.649999999999997	0.0
C 	22.13560932073025	11.359999999999996	0.0
C 	23.365365394104153	10.649999999999997	0.0
C 	24.595121467478055	11.359999999999996	0.0
C 	25.824877540851958	10.649999999999997	0.0
C 	27.05463361422586	11.359999999999996	0.0
C 	28.284389687599763	10.649999999999995	0.0
C 	29.514145760973662	11.359999999999994	0.0
C 	30.743901834347565	10.649999999999995	0.0
C 	31.97365790772147	11.359999999999996	0.0
C 	33.20341398109537	10.649999999999997	0.0
C 	34.43317005446928	11.359999999999998	0.0
C 	35.66292612784318	10.649999999999991	0.0
C 	36.89268220121708	11.359999999999992	0.0
C 	38.122438274590984	10.649999999999993	0.0
C 	39.35219434796489	11.359999999999994	0.0
C 	40.58195042133879	10.649999999999993	0.0
C 	41.811706494712695	11.359999999999994	0.0
C 	43.041462568086594	10.649999999999991	0.0
C 	44.2712186414605	11.359999999999992	0.0
C 	45.5009747148344	10.649999999999993	0.0
C 	46.730730788208305	11.359999999999994	0.0
C 	47.960486861582204	10.649999999999995	0.0
C 	49.19024293495611	11.359999999999996	0.0
C 	50.41999900833001	10.649999999999993	0.0
C 	51.649755081703915	11.359999999999994	0.0
C 	52.879511155077815	10.649999999999995	0.0
C 	54.10926722845172	11.359999999999996	0.0
C 	55.33902330182562	10.649999999999993	0.0
C 	56.568779375199526	11.359999999999994	0.0
C 	57.798535448573425	10.649999999999993	0.0
C 	59.02829152194733	11.359999999999992	0.0
C 	60.25804759532124	10.649999999999995	0.0
C 	61.487803668695136	11.359999999999996	0.0
C 	62.717559742069035	10.649999999999991	0.0
C 	63.94731581544294	11.359999999999992	0.0
C 	65.17707188881684	10.649999999999991	0.0
C 	66.40682796219075	11.359999999999992	0.0
C 	7.378536440243417	12.779999999999998	0.0
C 	8.60829251361732	13.489999999999998	0.0
C 	9.838048586991222	12.78	0.0
C 	11.067804660365125	13.489999999999997	0.0
C 	12.297560733739028	12.779999999999998	0.0
C 	13.527316807112932	13.489999999999998	0.0
C 	14.757072880486833	12.779999999999998	0.0
C 	15.986828953860737	13.489999999999997	0.0
C 	17.216585027234636	12.779999999999996	0.0
C 	18.446341100608542	13.489999999999997	0.0
C 	19.676097173982445	12.779999999999998	0.0
C 	20.905853247356347	13.489999999999997	0.0
C 	22.13560932073025	12.779999999999996	0.0
C 	23.36536539410415	13.489999999999995	0.0
C 	24.595121467478055	12.779999999999996	0.0
C 	25.824877540851958	13.489999999999997	0.0
C 	27.05463361422586	12.779999999999998	0.0
C 	28.284389687599763	13.489999999999997	0.0
C 	29.514145760973662	12.779999999999996	0.0
C 	30.743901834347568	13.489999999999997	0.0
C 	31.97365790772147	12.779999999999996	0.0
C 	33.20341398109537	13.489999999999997	0.0
C 	34.43317005446928	12.779999999999998	0.0
C 	35.66292612784318	13.489999999999995	0.0
C 	36.89268220121708	12.779999999999994	0.0
C 	38.122438274590984	13.489999999999995	0.0
C 	39.35219434796489	12.779999999999996	0.0
C 	40.581950421338796	13.489999999999997	0.0
C 	41.811706494712695	12.779999999999996	0.0
C 	43.041462568086594	13.489999999999993	0.0
C 	44.2712186414605	12.779999999999994	0.0
C 	45.5009747148344	13.489999999999995	0.0
C 	46.730730788208305	12.779999999999996	0.0
C 	47.96048686158221	13.489999999999997	0.0
C 	49.19024293495611	12.779999999999998	0.0
C 	50.41999900833001	13.489999999999995	0.0
C 	51.649755081703915	12.779999999999996	0.0
C 	52.879511155077815	13.489999999999993	0.0
C 	54.10926722845172	12.779999999999998	0.0
C 	55.33902330182563	13.489999999999998	0.0
C 	56.56877937519952	12.779999999999998	0.0
C 	57.798535448573425	13.489999999999997	0.0
C 	59.02829152194733	12.779999999999994	0.0
C 	60.25804759532123	13.489999999999991	0.0
C 	61.487803668695136	12.779999999999998	0.0
C 	62.71755974206904	13.489999999999998	0.0
C 	63.94731581544294	12.779999999999994	0.0
C 	65.17707188881684	13.489999999999995	0.0
C 	66.40682796219075	12.77999999999999	0.0
C 	67.63658403556465	13.489999999999988	0.0
C 	8.60829251361732	14.909999999999998	0.0
C 	9.838048586991222	15.619999999999996	0.0
C 	11.067804660365125	14.909999999999997	0.0
C 	12.297560733739026	15.619999999999996	0.0
C 	13.527316807112934	14.909999999999998	0.0
C 	14.757072880486831	15.619999999999996	0.0
C 	15.986828953860737	14.909999999999998	0.0
C 	17.21658502723464	15.619999999999997	0.0
C 	18.446341100608542	14.909999999999997	0.0
C 	19.676097173982445	15.619999999999996	0.0
C 	20.905853247356347	14.909999999999997	0.0
C 	22.135609320730246	15.619999999999996	0.0
C 	23.365365394104153	14.909999999999995	0.0
C 	24.595121467478055	15.619999999999996	0.0
C 	25.824877540851958	14.909999999999997	0.0
C 	27.05463361422586	15.619999999999996	0.0
C 	28.284389687599763	14.909999999999997	0.0
C 	29.514145760973665	15.619999999999996	0.0
C 	30.743901834347568	14.909999999999997	0.0
C 	31.973657907721474	15.619999999999997	0.0
C 	33.203413981095366	14.909999999999993	0.0
C 	34.43317005446927	15.619999999999994	0.0
C 	35.662926127843185	14.909999999999998	0.0
C 	36.892682201217085	15.619999999999996	0.0
C 	38.122438274590984	14.909999999999995	0.0
C 	39.35219434796489	15.619999999999996	0.0
C 	40.58195042133879	14.909999999999993	0.0
C 	41.811706494712695	15.619999999999994	0.0
C 	43.0414625680866	14.909999999999998	0.0
C 	44.2712186414605	15.619999999999996	0.0
C 	45.5009747148344	14.909999999999995	0.0
C 	46.730730788208305	15.619999999999996	0.0
C 	47.960486861582204	14.909999999999993	0.0
C 	49.19024293495611	15.619999999999994	0.0
C 	50.41999900833002	14.909999999999998	0.0
C 	51.649755081703915	15.619999999999996	0.0
C 	52.87951115507782	14.909999999999997	0.0
C 	54.10926722845171	15.619999999999994	0.0
C 	55.33902330182562	14.909999999999995	0.0
C 	56.568779375199526	15.619999999999994	0.0
C 	57.798535448573425	14.909999999999991	0.0
C 	59.028291521947324	15.619999999999992	0.0
C 	60.25804759532124	14.909999999999998	0.0
C 	61.487803668695136	15.619999999999996	0.0
C 	62.717559742069035	14.909999999999993	0.0
C 	63.94731581544294	15.619999999999994	0.0
C 	65.17707188881684	14.909999999999993	0.0
C 	66.40682796219075	15.619999999999994	0.0
C 	67.63658403556465	14.909999999999997	0.0
C 	68.86634010893854	15.61999999999999	0.0
C 	9.838048586991222	17.039999999999996	0.0
C 	11.067804660365127	17.749999999999996	0.0
C 	12.297560733739028	17.039999999999996	0.0
C 	13.527316807112932	17.749999999999996	0.0
C 	14.757072880486833	17.039999999999996	0.0
C 	15.986828953860735	17.749999999999996	0.0
C 	17.21658502723464	17.039999999999996	0.0
C 	18.446341100608546	17.749999999999996	0.0
C 	19.676097173982445	17.039999999999996	0.0
C 	20.905853247356347	17.749999999999996	0.0
C 	22.13560932073025	17.039999999999996	0.0
C 	23.365365394104153	17.749999999999996	0.0
C 	24.595121467478055	17.039999999999996	0.0
C 	25.82487754085196	17.749999999999996	0.0
C 	27.05463361422586	17.039999999999996	0.0
C 	28.28438968759977	17.75	0.0
C 	29.514145760973665	17.039999999999996	0.0
C 	30.74390183434757	17.749999999999996	0.0
C 	31.973657907721467	17.039999999999992	0.0
C 	33.20341398109537	17.749999999999993	0.0
C 	34.43317005446927	17.039999999999996	0.0
C 	35.66292612784318	17.749999999999996	0.0
C 	36.892682201217085	17.039999999999996	0.0
C 	38.122438274590984	17.749999999999996	0.0
C 	39.35219434796488	17.039999999999992	0.0
C 	40.58195042133879	17.749999999999993	0.0
C 	41.811706494712695	17.039999999999992	0.0
C 	43.041462568086594	17.749999999999993	0.0
C 	44.2712186414605	17.039999999999996	0.0
C 	45.500974714834406	17.749999999999996	0.0
C 	46.7307307882083	17.039999999999992	0.0
C 	47.960486861582204	17.749999999999993	0.0
C 	49.19024293495611	17.039999999999992	0.0
C 	50.41999900833002	17.749999999999993	0.0
C 	51.649755081703915	17.039999999999996	0.0
C 	52.87951115507782	17.749999999999996	0.0
C 	54.10926722845172	17.039999999999992	0.0
C 	55.33902330182562	17.749999999999993	0.0
C 	56.568779375199526	17.039999999999996	0.0
C 	57.79853544857343	17.749999999999996	0.0
C 	59.028291521947324	17.039999999999992	0.0
C 	60.25804759532123	17.749999999999993	0.0
C 	61.487803668695136	17.039999999999996	0.0
C 	62.71755974206904	17.749999999999996	0.0
C 	63.94731581544294	17.04	0.0
C 	65.17707188881684	17.749999999999993	0.0
C 	66.40682796219075	17.039999999999996	0.0
C 	67.63658403556464	17.74999999999999	0.0
C 	68.86634010893856	17.03999999999999	0.0
C 	70.09609618231246	17.74999999999999	0.0
C 	11.067804660365125	19.169999999999995	0.0
C 	12.297560733739026	19.879999999999995	0.0
C 	13.52731680711293	19.169999999999995	0.0
C 	14.757072880486831	19.879999999999995	0.0
C 	15.986828953860737	19.169999999999998	0.0
C 	17.216585027234636	19.879999999999992	0.0
C 	18.446341100608542	19.169999999999995	0.0
C 	19.676097173982445	19.879999999999995	0.0
C 	20.905853247356347	19.169999999999995	0.0
C 	22.135609320730246	19.879999999999995	0.0
C 	23.365365394104153	19.169999999999995	0.0
C 	24.59512146747805	19.879999999999995	0.0
C 	25.824877540851958	19.169999999999995	0.0
C 	27.05463361422586	19.879999999999995	0.0
C 	28.284389687599763	19.169999999999995	0.0
C 	29.51414576097367	19.879999999999995	0.0
C 	30.743901834347565	19.16999999999999	0.0
C 	31.97365790772147	19.879999999999992	0.0
C 	33.20341398109537	19.169999999999995	0.0
C 	34.43317005446927	19.879999999999992	0.0
C 	35.66292612784318	19.169999999999995	0.0
C 	36.89268220121708	19.879999999999992	0.0
C 	38.122438274590984	19.169999999999995	0.0
C 	39.35219434796488	19.879999999999992	0.0
C 	40.58195042133879	19.16999999999999	0.0
C 	41.81170649471269	19.87999999999999	0.0
C 	43.0414625680866	19.169999999999995	0.0
C 	44.27121864146049	19.879999999999992	0.0
C 	45.5009747148344	19.16999999999999	0.0
C 	46.730730788208305	19.879999999999992	0.0
C 	47.960486861582204	19.169999999999995	0.0
C 	49.1902429349561	19.879999999999992	0.0
C 	50.41999900833002	19.169999999999995	0.0
C 	51.649755081703915	19.879999999999992	0.0
C 	52.879511155077815	19.16999999999999	0.0
C 	54.10926722845172	19.879999999999992	0.0
C 	55.33902330182562	19.16999999999999	0.0
C 	56.56877937519952	19.879999999999992	0.0
C 	57.79853544857343	19.169999999999995	0.0
C 	59.02829152194733	19.879999999999992	0.0
C 	60.25804759532123	19.169999999999995	0.0
C 	61.48780366869513	19.879999999999992	0.0
C 	62.717559742069035	19.16999999999999	0.0
C 	63.94731581544294	19.879999999999992	0.0
C 	65.17707188881684	19.169999999999995	0.0
C 	66.40682796219075	19.87999999999999	0.0
C 	67.63658403556465	19.169999999999995	0.0
C 	68.86634010893854	19.87999999999999	0.0
C 	70.09609618231245	19.16999999999999	0.0
C 	71.32585225568636	19.879999999999992	0.0
C 	12.297560733739028	21.299999999999994	0.0
C 	13.527316807112932	22.009999999999994	0.0
C 	14.757072880486831	21.299999999999994	0.0
C 	15.986828953860735	22.009999999999994	0.0
C 	17.216585027234636	21.299999999999994	0.0
C 	18.44634110060854	22.009999999999994	0.0
C 	19.676097173982445	21.299999999999994	0.0
C 	20.905853247356347	22.009999999999994	0.0
C 	22.13560932073025	21.299999999999994	0.0
C 	23.365365394104153	22.009999999999994	0.0
C 	24.595121467478055	21.299999999999994	0.0
C 	25.824877540851958	22.009999999999994	0.0
C 	27.05463361422586	21.299999999999994	0.0
C 	28.284389687599766	22.009999999999994	0.0
C 	29.514145760973662	21.29999999999999	0.0
C 	30.743901834347568	22.00999999999999	0.0
C 	31.97365790772147	21.299999999999994	0.0
C 	33.20341398109537	22.009999999999994	0.0
C 	34.43317005446928	21.299999999999994	0.0
C 	35.662926127843185	22.009999999999994	0.0
C 	36.89268220121708	21.299999999999994	0.0
C 	38.122438274590984	22.009999999999994	0.0
C 	39.35219434796489	21.299999999999994	0.0
C 	40.58195042133879	22.009999999999994	0.0
C 	41.811706494712695	21.299999999999994	0.0
C 	43.0414625680866	22.009999999999994	0.0
C 	44.2712186414605	21.29999999999999	0.0
C 	45.5009747148344	22.00999999999999	0.0
C 	46.730730788208305	21.299999999999994	0.0
C 	47.96048686158221	22.009999999999994	0.0
C 	49.19024293495611	21.299999999999994	0.0
C 	50.41999900833002	22.009999999999994	0.0
C 	51.649755081703915	21.299999999999994	0.0
C 	52.879511155077815	22.00999999999999	0.0
C 	54.10926722845172	21.299999999999994	0.0
C 	55.33902330182563	22.009999999999994	0.0
C 	56.568779375199526	21.29999999999999	0.0
C 	57.798535448573425	22.00999999999999	0.0
C 	59.02829152194733	21.299999999999994	0.0
C 	60.25804759532124	22.009999999999994	0.0
C 	61.48780366869513	21.29999999999999	0.0
C 	62.717559742069035	22.00999999999999	0.0
C 	63.94731581544294	21.299999999999994	0.0
C 	65.17707188881684	22.009999999999987	0.0
C 	66.40682796219075	21.299999999999994	0.0
C 	67.63658403556465	22.009999999999994	0.0
C 	68.86634010893854	21.29999999999999	0.0
C 	70.09609618231245	22.00999999999999	0.0
C 	71.32585225568636	21.299999999999983	0.0
C 	72.55560832906026	22.00999999999999	0.0
C 	13.527316807112932	23.429999999999996	0.0
C 	14.757072880486836	24.139999999999997	0.0
C 	15.986828953860737	23.429999999999996	0.0
C 	17.216585027234643	24.139999999999997	0.0
C 	18.446341100608542	23.429999999999996	0.0
C 	19.676097173982445	24.139999999999997	0.0
C 	20.90585324735635	23.429999999999996	0.0
C 	22.135609320730254	24.139999999999997	0.0
C 	23.365365394104156	23.429999999999993	0.0
C 	24.595121467478062	24.139999999999997	0.0
C 	25.824877540851958	23.429999999999993	0.0
C 	27.054633614225864	24.139999999999993	0.0
C 	28.284389687599766	23.429999999999996	0.0
C 	29.514145760973673	24.139999999999997	0.0
C 	30.743901834347575	23.429999999999996	0.0
C 	31.973657907721478	24.139999999999997	0.0
C 	33.20341398109537	23.429999999999993	0.0
C 	34.43317005446928	24.139999999999993	0.0
C 	35.66292612784318	23.429999999999993	0.0
C 	36.892682201217085	24.139999999999993	0.0
C 	38.122438274590984	23.429999999999993	0.0
C 	39.35219434796489	24.139999999999993	0.0
C 	40.58195042133879	23.429999999999996	0.0
C 	41.811706494712695	24.139999999999993	0.0
C 	43.041462568086594	23.42999999999999	0.0
C 	44.2712186414605	24.13999999999999	0.0
C 	45.5009747148344	23.429999999999993	0.0
C 	46.730730788208305	24.139999999999993	0.0
C 	47.96048686158221	23.429999999999993	0.0
C 	49.19024293495611	24.139999999999993	0.0
C 	50.41999900833001	23.429999999999993	0.0
C 	51.649755081703915	24.13999999999999	0.0
C 	52.87951115507782	23.429999999999993	0.0
C 	54.10926722845172	24.139999999999993	0.0
C 	55.33902330182563	23.429999999999993	0.0
C 	56.56877937519953	24.139999999999993	0.0
C 	57.798535448573425	23.429999999999993	0.0
C 	59.02829152194733	24.139999999999993	0.0
C 	60.25804759532124	23.429999999999993	0.0
C 	61.487803668695136	24.13999999999999	0.0
C 	62.71755974206904	23.429999999999993	0.0
C 	63.947315815442934	24.139999999999986	0.0
C 	65.17707188881684	23.429999999999993	0.0
C 	66.40682796219075	24.139999999999993	0.0
C 	67.63658403556464	23.42999999999999	0.0
C 	68.86634010893856	24.139999999999997	0.0
C 	70.09609618231245	23.42999999999999	0.0
C 	71.32585225568636	24.139999999999997	0.0
C 	72.55560832906026	23.42999999999999	0.0
C 	73.78536440243417	24.13999999999999	0.0
C 	14.757072880486835	25.559999999999995	0.0
C 	15.986828953860735	26.269999999999996	0.0
C 	17.21658502723464	25.559999999999995	0.0
C 	18.44634110060854	26.269999999999996	0.0
C 	19.676097173982445	25.56	0.0
C 	20.905853247356344	26.269999999999996	0.0
C 	22.13560932073025	25.56	0.0
C 	23.365365394104153	26.269999999999996	0.0
C 	24.595121467478055	25.559999999999995	0.0
C 	25.824877540851958	26.269999999999996	0.0
C 	27.054633614225857	25.559999999999995	0.0
C 	28.28438968759976	26.269999999999996	0.0
C 	29.514145760973665	25.559999999999995	0.0
C 	30.743901834347568	26.269999999999996	0.0
C 	31.973657907721474	25.559999999999995	0.0
C 	33.20341398109538	26.269999999999996	0.0
C 	34.43317005446927	25.55999999999999	0.0
C 	35.66292612784318	26.269999999999992	0.0
C 	36.892682201217085	25.559999999999995	0.0
C 	38.12243827459098	26.269999999999992	0.0
C 	39.35219434796489	25.559999999999995	0.0
C 	40.58195042133879	26.269999999999992	0.0
C 	41.81170649471269	25.55999999999999	0.0
C 	43.041462568086594	26.269999999999992	0.0
C 	44.2712186414605	25.55999999999999	0.0
C 	45.5009747148344	26.26999999999999	0.0
C 	46.730730788208305	25.559999999999995	0.0
C 	47.960486861582204	26.269999999999992	0.0
C 	49.19024293495611	25.55999999999999	0.0
C 	50.41999900833001	26.269999999999992	0.0
C 	51.649755081703915	25.559999999999995	0.0
C 	52.879511155077815	26.269999999999992	0.0
C 	54.10926722845172	25.559999999999995	0.0
C 	55.33902330182562	26.269999999999992	0.0
C 	56.568779375199526	25.55999999999999	0.0
C 	57.79853544857343	26.269999999999992	0.0
C 	59.028291521947324	25.55999999999999	0.0
C 	60.25804759532123	26.269999999999992	0.0
C 	61.487803668695136	25.559999999999995	0.0
C 	62.717559742069035	26.26999999999999	0.0
C 	63.94731581544294	25.55999999999999	0.0
C 	65.17707188881683	26.269999999999985	0.0
C 	66.40682796219075	25.55999999999999	0.0
C 	67.63658403556465	26.269999999999992	0.0
C 	68.86634010893856	25.559999999999995	0.0
C 	70.09609618231246	26.269999999999996	0.0
C 	71.32585225568636	25.559999999999995	0.0
C 	72.55560832906026	26.269999999999996	0.0
C 	73.78536440243415	25.559999999999988	0.0
C 	75.01512047580806	26.26999999999999	0.0
C 	15.986828953860735	27.689999999999994	0.0
C 	17.21658502723464	28.399999999999995	0.0
C 	18.446341100608542	27.689999999999994	0.0
C 	19.676097173982445	28.399999999999995	0.0
C 	20.905853247356344	27.689999999999994	0.0
C 	22.13560932073025	28.399999999999995	0.0
C 	23.365365394104153	27.689999999999994	0.0
C 	24.59512146747806	28.399999999999995	0.0
C 	25.824877540851954	27.689999999999994	0.0
C 	27.054633614225857	28.399999999999995	0.0
C 	28.284389687599763	27.689999999999994	0.0
C 	29.514145760973665	28.399999999999995	0.0
C 	30.74390183434757	27.689999999999994	0.0
C 	31.973657907721474	28.399999999999995	0.0
C 	33.20341398109537	27.68999999999999	0.0
C 	34.43317005446928	28.39999999999999	0.0
C 	35.66292612784318	27.689999999999994	0.0
C 	36.892682201217085	28.399999999999995	0.0
C 	38.122438274590984	27.689999999999994	0.0
C 	39.35219434796489	28.399999999999995	0.0
C 	40.58195042133879	27.689999999999994	0.0
C 	41.811706494712695	28.399999999999995	0.0
C 	43.041462568086594	27.689999999999994	0.0
C 	44.2712186414605	28.399999999999995	0.0
C 	45.500974714834406	27.689999999999994	0.0
C 	46.730730788208305	28.399999999999995	0.0
C 	47.960486861582204	27.68999999999999	0.0
C 	49.19024293495611	28.39999999999999	0.0
C 	50.41999900833002	27.689999999999994	0.0
C 	51.649755081703915	28.399999999999995	0.0
C 	52.87951115507782	27.689999999999994	0.0
C 	54.10926722845173	28.399999999999995	0.0
C 	55.33902330182562	27.68999999999999	0.0
C 	56.568779375199526	28.39999999999999	0.0
C 	57.79853544857343	27.689999999999994	0.0
C 	59.02829152194733	28.39999999999999	0.0
C 	60.25804759532124	27.689999999999994	0.0
C 	61.48780366869513	28.399999999999988	0.0
C 	62.717559742069035	27.689999999999994	0.0
C 	63.94731581544294	28.399999999999995	0.0
C 	65.17707188881684	27.68999999999999	0.0
C 	66.40682796219075	28.39999999999999	0.0
C 	67.63658403556464	27.689999999999987	0.0
C 	68.86634010893856	28.399999999999995	0.0
C 	70.09609618231245	27.689999999999994	0.0
C 	71.32585225568636	28.399999999999995	0.0
C 	72.55560832906026	27.68999999999999	0.0
C 	73.78536440243415	28.39999999999999	0.0
C 	75.01512047580808	27.689999999999994	0.0
C 	76.24487654918197	28.399999999999984	0.0
C 	17.21658502723464	29.819999999999997	0.0
C 	18.446341100608546	30.529999999999998	0.0
C 	19.676097173982445	29.819999999999997	0.0
C 	20.905853247356355	30.529999999999998	0.0
C 	22.13560932073025	29.819999999999993	0.0
C 	23.365365394104156	30.529999999999994	0.0
C 	24.59512146747806	29.819999999999997	0.0
C 	25.82487754085196	30.529999999999998	0.0
C 	27.054633614225867	29.819999999999997	0.0
C 	28.28438968759977	30.529999999999998	0.0
C 	29.514145760973665	29.819999999999997	0.0
C 	30.74390183434757	30.529999999999998	0.0
C 	31.973657907721474	29.819999999999997	0.0
C 	33.20341398109538	30.529999999999998	0.0
C 	34.43317005446928	29.819999999999997	0.0
C 	35.662926127843185	30.529999999999998	0.0
C 	36.892682201217085	29.819999999999993	0.0
C 	38.12243827459099	30.529999999999994	0.0
C 	39.35219434796488	29.819999999999993	0.0
C 	40.58195042133879	30.529999999999994	0.0
C 	41.811706494712695	29.819999999999993	0.0
C 	43.0414625680866	30.529999999999994	0.0
C 	44.2712186414605	29.819999999999993	0.0
C 	45.500974714834406	30.529999999999994	0.0
C 	46.730730788208305	29.81999999999999	0.0
C 	47.960486861582204	30.52999999999999	0.0
C 	49.19024293495611	29.819999999999993	0.0
C 	50.41999900833002	30.529999999999994	0.0
C 	51.649755081703915	29.819999999999993	0.0
C 	52.87951115507782	30.529999999999994	0.0
C 	54.10926722845172	29.819999999999993	0.0
C 	55.33902330182563	30.52999999999999	0.0
C 	56.568779375199526	29.819999999999993	0.0
C 	57.798535448573425	30.52999999999999	0.0
C 	59.02829152194734	29.819999999999993	0.0
C 	60.25804759532124	30.529999999999994	0.0
C 	61.487803668695136	29.819999999999993	0.0
C 	62.71755974206904	30.529999999999994	0.0
C 	63.947315815442934	29.81999999999999	0.0
C 	65.17707188881685	30.529999999999998	0.0
C 	66.40682796219073	29.819999999999986	0.0
C 	67.63658403556465	30.529999999999994	0.0
C 	68.86634010893856	29.819999999999993	0.0
C 	70.09609618231245	30.529999999999994	0.0
C 	71.32585225568637	29.819999999999997	0.0
C 	72.55560832906026	30.52999999999999	0.0
C 	73.78536440243417	29.819999999999997	0.0
C 	75.01512047580806	30.529999999999987	0.0
C 	76.24487654918197	29.81999999999999	0.0
C 	77.47463262255587	30.52999999999999	0.0
C 	18.446341100608542	31.949999999999996	0.0
C 	19.676097173982445	32.65999999999999	0.0
C 	20.905853247356347	31.949999999999992	0.0
C 	22.135609320730254	32.66	0.0
C 	23.365365394104156	31.949999999999996	0.0
C 	24.595121467478055	32.65999999999999	0.0
C 	25.824877540851958	31.949999999999992	0.0
C 	27.05463361422586	32.66	0.0
C 	28.284389687599766	31.949999999999996	0.0
C 	29.51414576097367	32.66	0.0
C 	30.743901834347568	31.949999999999992	0.0
C 	31.97365790772147	32.66	0.0
C 	33.20341398109537	31.949999999999992	0.0
C 	34.43317005446928	32.66	0.0
C 	35.66292612784318	31.949999999999996	0.0
C 	36.892682201217085	32.66	0.0
C 	38.122438274590984	31.949999999999992	0.0
C 	39.35219434796489	32.65999999999999	0.0
C 	40.58195042133879	31.949999999999992	0.0
C 	41.81170649471269	32.65999999999999	0.0
C 	43.0414625680866	31.949999999999996	0.0
C 	44.2712186414605	32.65999999999999	0.0
C 	45.5009747148344	31.949999999999992	0.0
C 	46.730730788208305	32.65999999999999	0.0
C 	47.96048686158221	31.949999999999992	0.0
C 	49.1902429349561	32.65999999999999	0.0
C 	50.41999900833002	31.949999999999992	0.0
C 	51.649755081703915	32.65999999999999	0.0
C 	52.879511155077815	31.949999999999992	0.0
C 	54.10926722845172	32.65999999999999	0.0
C 	55.33902330182563	31.949999999999992	0.0
C 	56.568779375199526	32.65999999999999	0.0
C 	57.79853544857343	31.949999999999992	0.0
C 	59.028291521947324	32.65999999999999	0.0
C 	60.25804759532124	31.949999999999992	0.0
C 	61.487803668695136	32.65999999999999	0.0
C 	62.717559742069035	31.94999999999999	0.0
C 	63.94731581544294	32.65999999999999	0.0
C 	65.17707188881685	31.949999999999992	0.0
C 	66.40682796219076	32.66	0.0
C 	67.63658403556465	31.949999999999992	0.0
C 	68.86634010893856	32.65999999999999	0.0
C 	70.09609618231245	31.94999999999999	0.0
C 	71.32585225568636	32.65999999999999	0.0
C 	72.55560832906026	31.949999999999996	0.0
C 	73.78536440243415	32.65999999999999	0.0
C 	75.01512047580806	31.949999999999992	0.0
C 	76.24487654918195	32.65999999999998	0.0
C 	77.47463262255587	31.949999999999985	0.0
C 	78.70438869592978	32.65999999999999	0.0
C 	19.676097173982445	34.07999999999999	0.0
C 	20.90585324735635	34.78999999999999	0.0
C 	22.135609320730254	34.07999999999999	0.0
C 	23.365365394104156	34.78999999999999	0.0
C 	24.595121467478055	34.07999999999999	0.0
C 	25.824877540851958	34.78999999999999	0.0
C 	27.054633614225864	34.07999999999999	0.0
C 	28.284389687599766	34.78999999999999	0.0
C 	29.514145760973665	34.07999999999999	0.0
C 	30.743901834347568	34.78999999999999	0.0
C 	31.97365790772147	34.07999999999999	0.0
C 	33.20341398109537	34.78999999999999	0.0
C 	34.43317005446928	34.07999999999999	0.0
C 	35.662926127843185	34.78999999999999	0.0
C 	36.89268220121708	34.07999999999999	0.0
C 	38.122438274590984	34.78999999999999	0.0
C 	39.35219434796489	34.07999999999999	0.0
C 	40.581950421338796	34.78999999999999	0.0
C 	41.811706494712695	34.07999999999999	0.0
C 	43.0414625680866	34.78999999999999	0.0
C 	44.2712186414605	34.07999999999999	0.0
C 	45.5009747148344	34.78999999999999	0.0
C 	46.730730788208305	34.07999999999999	0.0
C 	47.96048686158221	34.78999999999999	0.0
C 	49.19024293495611	34.07999999999999	0.0
C 	50.41999900833002	34.78999999999999	0.0
C 	51.649755081703915	34.07999999999999	0.0
C 	52.87951115507782	34.78999999999999	0.0
C 	54.10926722845172	34.07999999999999	0.0
C 	55.33902330182562	34.78999999999999	0.0
C 	56.56877937519953	34.07999999999999	0.0
C 	57.79853544857343	34.78999999999999	0.0
C 	59.02829152194733	34.07999999999999	0.0
C 	60.25804759532124	34.78999999999999	0.0
C 	61.487803668695136	34.07999999999999	0.0
C 	62.71755974206905	34.79	0.0
C 	63.947315815442934	34.079999999999984	0.0
C 	65.17707188881685	34.78999999999999	0.0
C 	66.40682796219075	34.07999999999999	0.0
C 	67.63658403556465	34.78999999999999	0.0
C 	68.86634010893854	34.07999999999999	0.0
C 	70.09609618231245	34.78999999999999	0.0
C 	71.32585225568636	34.07999999999999	0.0
C 	72.55560832906025	34.789999999999985	0.0
C 	73.78536440243417	34.07999999999999	0.0
C 	75.01512047580808	34.78999999999999	0.0
C 	76.24487654918197	34.07999999999999	0.0
C 	77.47463262255587	34.78999999999999	0.0
C 	78.70438869592977	34.079999999999984	0.0
C 	79.93414476930369	34.78999999999999	0.0
C 	20.90585324735635	36.209999999999994	0.0
C 	22.135609320730254	36.919999999999995	0.0
C 	23.36536539410416	36.209999999999994	0.0
C 	24.595121467478062	36.919999999999995	0.0
C 	25.82487754085196	36.209999999999994	0.0
C 	27.054633614225864	36.919999999999995	0.0
C 	28.284389687599766	36.209999999999994	0.0
C 	29.514145760973673	36.919999999999995	0.0
C 	30.743901834347575	36.209999999999994	0.0
C 	31.973657907721478	36.919999999999995	0.0
C 	33.20341398109537	36.209999999999994	0.0
C 	34.43317005446928	36.919999999999995	0.0
C 	35.662926127843185	36.209999999999994	0.0
C 	36.89268220121709	36.919999999999995	0.0
C 	38.12243827459099	36.209999999999994	0.0
C 	39.3521943479649	36.919999999999995	0.0
C 	40.581950421338796	36.209999999999994	0.0
C 	41.811706494712695	36.919999999999995	0.0
C 	43.041462568086594	36.209999999999994	0.0
C 	44.2712186414605	36.919999999999995	0.0
C 	45.500974714834406	36.209999999999994	0.0
C 	46.730730788208305	36.919999999999995	0.0
C 	47.96048686158221	36.209999999999994	0.0
C 	49.19024293495612	36.919999999999995	0.0
C 	50.41999900833002	36.20999999999999	0.0
C 	51.649755081703915	36.91999999999999	0.0
C 	52.87951115507782	36.209999999999994	0.0
C 	54.10926722845172	36.91999999999999	0.0
C 	55.33902330182563	36.209999999999994	0.0
C 	56.56877937519953	36.919999999999995	0.0
C 	57.79853544857343	36.20999999999999	0.0
C 	59.02829152194733	36.91999999999999	0.0
C 	60.25804759532123	36.20999999999999	0.0
C 	61.48780366869515	36.919999999999995	0.0
C 	62.71755974206904	36.209999999999994	0.0
C 	63.94731581544295	36.919999999999995	0.0
C 	65.17707188881684	36.209999999999994	0.0
C 	66.40682796219075	36.919999999999995	0.0
C 	67.63658403556467	36.209999999999994	0.0
C 	68.86634010893856	36.91999999999999	0.0
C 	70.09609618231246	36.209999999999994	0.0
C 	71.32585225568636	36.91999999999999	0.0
C 	72.55560832906026	36.209999999999994	0.0
C 	73.78536440243417	36.919999999999995	0.0
C 	75.01512047580806	36.20999999999999	0.0
C 	76.24487654918198	36.919999999999995	0.0
C 	77.47463262255586	36.20999999999999	0.0
C 	78.70438869592978	36.919999999999995	0.0
C 	79.93414476930369	36.20999999999999	0.0
C 	81.16390084267759	36.91999999999999	0.0
C 	22.13560932073025	38.33999999999999	0.0
C 	23.365365394104153	39.04999999999999	0.0
C 	24.59512146747806	38.33999999999999	0.0
C 	25.82487754085196	39.04999999999999	0.0
C 	27.05463361422586	38.33999999999999	0.0
C 	28.284389687599763	39.04999999999999	0.0
C 	29.514145760973665	38.33999999999999	0.0
C 	30.74390183434757	39.04999999999999	0.0
C 	31.973657907721474	38.339999999999996	0.0
C 	33.20341398109538	39.04999999999999	0.0
C 	34.43317005446927	38.33999999999999	0.0
C 	35.66292612784318	39.04999999999999	0.0
C 	36.892682201217085	38.33999999999999	0.0
C 	38.12243827459099	39.04999999999999	0.0
C 	39.35219434796489	38.33999999999999	0.0
C 	40.581950421338796	39.04999999999999	0.0
C 	41.811706494712695	38.33999999999999	0.0
C 	43.0414625680866	39.04999999999999	0.0
C 	44.27121864146049	38.33999999999999	0.0
C 	45.5009747148344	39.04999999999999	0.0
C 	46.730730788208305	38.33999999999999	0.0
C 	47.960486861582204	39.04999999999999	0.0
C 	49.19024293495611	38.33999999999999	0.0
C 	50.41999900833002	39.04999999999999	0.0
C 	51.649755081703915	38.33999999999999	0.0
C 	52.879511155077815	39.04999999999999	0.0
C 	54.10926722845173	38.33999999999999	0.0
C 	55.33902330182562	39.04999999999998	0.0
C 	56.568779375199526	38.33999999999999	0.0
C 	57.79853544857343	39.04999999999999	0.0
C 	59.02829152194733	38.33999999999999	0.0
C 	60.25804759532123	39.04999999999999	0.0
C 	61.48780366869513	38.33999999999998	0.0
C 	62.71755974206905	39.04999999999999	0.0
C 	63.94731581544294	38.33999999999999	0.0
C 	65.17707188881685	39.04999999999999	0.0
C 	66.40682796219075	38.33999999999999	0.0
C 	67.63658403556465	39.04999999999999	0.0
C 	68.86634010893856	38.33999999999999	0.0
C 	70.09609618231245	39.04999999999998	0.0
C 	71.32585225568636	38.33999999999999	0.0
C 	72.55560832906025	39.04999999999998	0.0
C 	73.78536440243415	38.33999999999999	0.0
C 	75.01512047580806	39.04999999999999	0.0
C 	76.24487654918197	38.33999999999999	0.0
C 	77.47463262255587	39.05	0.0
C 	78.70438869592977	38.33999999999998	0.0
C 	79.93414476930369	39.04999999999999	0.0
C 	81.16390084267758	38.33999999999998	0.0
C 	82.39365691605148	39.04999999999998	0.0
C 	23.365365394104156	40.46999999999999	0.0
C 	24.59512146747806	41.17999999999999	0.0
C 	25.82487754085196	40.46999999999999	0.0
C 	27.054633614225867	41.17999999999999	0.0
C 	28.284389687599763	40.46999999999999	0.0
C 	29.51414576097367	41.17999999999999	0.0
C 	30.74390183434757	40.46999999999999	0.0
C 	31.973657907721474	41.17999999999999	0.0
C 	33.20341398109537	40.46999999999999	0.0
C 	34.43317005446928	41.17999999999999	0.0
C 	35.66292612784318	40.46999999999999	0.0
C 	36.892682201217085	41.17999999999999	0.0
C 	38.12243827459099	40.46999999999999	0.0
C 	39.3521943479649	41.17999999999999	0.0
C 	40.58195042133879	40.46999999999999	0.0
C 	41.811706494712695	41.17999999999999	0.0
C 	43.0414625680866	40.46999999999999	0.0
C 	44.2712186414605	41.17999999999999	0.0
C 	45.500974714834406	40.46999999999999	0.0
C 	46.73073078820831	41.17999999999999	0.0
C 	47.960486861582204	40.46999999999999	0.0
C 	49.19024293495611	41.17999999999999	0.0
C 	50.41999900833002	40.46999999999999	0.0
C 	51.649755081703915	41.179999999999986	0.0
C 	52.87951115507782	40.46999999999999	0.0
C 	54.10926722845173	41.17999999999999	0.0
C 	55.33902330182563	40.46999999999999	0.0
C 	56.568779375199526	41.17999999999999	0.0
C 	57.798535448573425	40.469999999999985	0.0
C 	59.028291521947345	41.17999999999999	0.0
C 	60.25804759532124	40.46999999999999	0.0
C 	61.48780366869514	41.17999999999999	0.0
C 	62.71755974206904	40.46999999999999	0.0
C 	63.94731581544295	41.17999999999999	0.0
C 	65.17707188881685	40.46999999999999	0.0
C 	66.40682796219075	41.179999999999986	0.0
C 	67.63658403556465	40.46999999999999	0.0
C 	68.86634010893854	41.179999999999986	0.0
C 	70.09609618231246	40.46999999999999	0.0
C 	71.32585225568636	41.17999999999999	0.0
C 	72.55560832906026	40.469999999999985	0.0
C 	73.78536440243417	41.179999999999986	0.0
C 	75.01512047580806	40.469999999999985	0.0
C 	76.24487654918198	41.17999999999999	0.0
C 	77.47463262255587	40.46999999999999	0.0
C 	78.70438869592978	41.17999999999999	0.0
C 	79.93414476930367	40.469999999999985	0.0
C 	81.16390084267758	41.179999999999986	0.0
C 	82.3936569160515	40.46999999999999	0.0
C 	83.62341298942539	41.179999999999986	0.0
C 	24.595121467478055	42.59999999999999	0.0
C 	25.82487754085196	43.30999999999999	0.0
C 	27.05463361422586	42.59999999999999	0.0
C 	28.284389687599766	43.30999999999999	0.0
C 	29.514145760973662	42.59999999999999	0.0
C 	30.743901834347568	43.30999999999999	0.0
C 	31.97365790772147	42.59999999999999	0.0
C 	33.20341398109537	43.30999999999999	0.0
C 	34.43317005446927	42.59999999999999	0.0
C 	35.66292612784318	43.30999999999999	0.0
C 	36.89268220121708	42.59999999999999	0.0
C 	38.122438274590984	43.30999999999999	0.0
C 	39.35219434796489	42.59999999999999	0.0
C 	40.581950421338796	43.30999999999999	0.0
C 	41.81170649471269	42.59999999999999	0.0
C 	43.041462568086594	43.30999999999999	0.0
C 	44.2712186414605	42.59999999999999	0.0
C 	45.5009747148344	43.30999999999999	0.0
C 	46.730730788208305	42.59999999999999	0.0
C 	47.96048686158221	43.30999999999999	0.0
C 	49.19024293495611	42.59999999999999	0.0
C 	50.41999900833001	43.30999999999999	0.0
C 	51.64975508170392	42.599999999999994	0.0
C 	52.879511155077815	43.30999999999999	0.0
C 	54.10926722845172	42.59999999999999	0.0
C 	55.33902330182563	43.30999999999999	0.0
C 	56.568779375199526	42.59999999999999	0.0
C 	57.798535448573425	43.30999999999999	0.0
C 	59.028291521947324	42.59999999999998	0.0
C 	60.258047595321244	43.30999999999999	0.0
C 	61.487803668695136	42.59999999999999	0.0
C 	62.71755974206904	43.30999999999999	0.0
C 	63.94731581544294	42.59999999999999	0.0
C 	65.17707188881684	43.30999999999999	0.0
C 	66.40682796219076	42.599999999999994	0.0
C 	67.63658403556465	43.30999999999999	0.0
C 	68.86634010893856	42.59999999999999	0.0
C 	70.09609618231245	43.30999999999998	0.0
C 	71.32585225568636	42.59999999999999	0.0
C 	72.55560832906026	43.30999999999999	0.0
C 	73.78536440243415	42.59999999999999	0.0
C 	75.01512047580806	43.30999999999999	0.0
C 	76.24487654918197	42.59999999999998	0.0
C 	77.47463262255587	43.30999999999999	0.0
C 	78.70438869592978	42.59999999999999	0.0
C 	79.93414476930367	43.30999999999999	0.0
C 	81.16390084267758	42.59999999999999	0.0
C 	82.39365691605148	43.30999999999999	0.0
C 	83.62341298942539	42.59999999999999	0.0
C 	84.85316906279928	43.30999999999998	0.0
C 	25.82487754085196	44.72999999999999	0.0
C 	27.054633614225864	45.43999999999999	0.0
C 	28.284389687599766	44.72999999999999	0.0
C 	29.514145760973673	45.43999999999999	0.0
C 	30.743901834347568	44.72999999999999	0.0
C 	31.97365790772147	45.43999999999999	0.0
C 	33.20341398109537	44.72999999999999	0.0
C 	34.43317005446928	45.43999999999999	0.0
C 	35.662926127843185	44.72999999999999	0.0
C 	36.892682201217085	45.43999999999999	0.0
C 	38.122438274590984	44.72999999999999	0.0
C 	39.35219434796489	45.43999999999999	0.0
C 	40.581950421338796	44.72999999999999	0.0
C 	41.811706494712695	45.43999999999999	0.0
C 	43.0414625680866	44.72999999999999	0.0
C 	44.27121864146051	45.43999999999999	0.0
C 	45.500974714834406	44.72999999999999	0.0
C 	46.730730788208305	45.43999999999999	0.0
C 	47.960486861582204	44.72999999999999	0.0
C 	49.19024293495611	45.43999999999998	0.0
C 	50.41999900833002	44.72999999999999	0.0
C 	51.64975508170391	45.43999999999998	0.0
C 	52.87951115507782	44.72999999999999	0.0
C 	54.10926722845172	45.43999999999999	0.0
C 	55.33902330182562	44.72999999999998	0.0
C 	56.568779375199526	45.43999999999998	0.0
C 	57.798535448573425	44.72999999999998	0.0
C 	59.02829152194734	45.43999999999999	0.0
C 	60.25804759532124	44.72999999999999	0.0
C 	61.48780366869514	45.43999999999999	0.0
C 	62.717559742069035	44.72999999999998	0.0
C 	63.94731581544294	45.43999999999998	0.0
C 	65.17707188881685	44.72999999999999	0.0
C 	66.40682796219075	45.43999999999998	0.0
C 	67.63658403556465	44.72999999999999	0.0
C 	68.86634010893856	45.43999999999999	0.0
C 	70.09609618231245	44.72999999999999	0.0
C 	71.32585225568636	45.43999999999998	0.0
C 	72.55560832906026	44.72999999999998	0.0
C 	73.78536440243417	45.43999999999999	0.0
C 	75.01512047580806	44.72999999999998	0.0
C 	76.24487654918198	45.43999999999999	0.0
C 	77.47463262255587	44.72999999999999	0.0
C 	78.70438869592978	45.43999999999999	0.0
C 	79.93414476930369	44.72999999999999	0.0
C 	81.16390084267758	45.43999999999998	0.0
C 	82.39365691605148	44.72999999999999	0.0
C 	83.62341298942538	45.43999999999998	0.0
C 	84.8531690627993	44.72999999999998	0.0
C 	86.08292513617319	45.43999999999998	0.0
C 	27.054633614225864	46.85999999999999	0.0
C 	28.28438968759977	47.56999999999999	0.0
C 	29.514145760973673	46.85999999999999	0.0
C 	30.74390183434758	47.56999999999999	0.0
C 	31.973657907721474	46.85999999999999	0.0
C 	33.20341398109538	47.56999999999999	0.0
C 	34.43317005446928	46.85999999999999	0.0
C 	35.662926127843185	47.56999999999999	0.0
C 	36.892682201217085	46.85999999999999	0.0
C 	38.122438274590984	47.56999999999999	0.0
C 	39.35219434796489	46.85999999999999	0.0
C 	40.581950421338796	47.56999999999999	0.0
C 	41.8117064947127	46.85999999999999	0.0
C 	43.0414625680866	47.56999999999999	0.0
C 	44.2712186414605	46.85999999999999	0.0
C 	45.500974714834406	47.56999999999999	0.0
C 	46.73073078820831	46.859999999999985	0.0
C 	47.960486861582204	47.569999999999986	0.0
C 	49.19024293495612	46.85999999999999	0.0
C 	50.41999900833002	47.56999999999999	0.0
C 	51.649755081703915	46.859999999999985	0.0
C 	52.87951115507782	47.569999999999986	0.0
C 	54.10926722845172	46.859999999999985	0.0
C 	55.339023301825634	47.56999999999999	0.0
C 	56.56877937519953	46.85999999999999	0.0
C 	57.79853544857344	47.56999999999999	0.0
C 	59.02829152194733	46.859999999999985	0.0
C 	60.25804759532124	47.569999999999986	0.0
C 	61.48780366869515	46.85999999999999	0.0
C 	62.71755974206904	47.569999999999986	0.0
C 	63.94731581544295	46.85999999999999	0.0
C 	65.17707188881685	47.56999999999999	0.0
C 	66.40682796219075	46.859999999999985	0.0
C 	67.63658403556465	47.569999999999986	0.0
C 	68.86634010893856	46.859999999999985	0.0
C 	70.09609618231246	47.56999999999999	0.0
C 	71.32585225568636	46.859999999999985	0.0
C 	72.55560832906028	47.56999999999999	0.0
C 	73.78536440243417	46.859999999999985	0.0
C 	75.01512047580808	47.569999999999986	0.0
C 	76.24487654918197	46.859999999999985	0.0
C 	77.47463262255587	47.569999999999986	0.0
C 	78.70438869592978	46.85999999999999	0.0
C 	79.93414476930367	47.569999999999986	0.0
C 	81.16390084267758	46.85999999999999	0.0
C 	82.39365691605148	47.56999999999999	0.0
C 	83.62341298942539	46.859999999999985	0.0
C 	84.8531690627993	47.569999999999986	0.0
C 	86.08292513617319	46.85999999999998	0.0
C 	87.31268120954711	47.569999999999986	0.0
C 	28.284389687599763	48.98999999999999	0.0
C 	29.51414576097367	49.69999999999999	0.0
C 	30.74390183434757	48.98999999999999	0.0
C 	31.973657907721478	49.69999999999999	0.0
C 	33.20341398109537	48.98999999999999	0.0
C 	34.43317005446928	49.69999999999999	0.0
C 	35.66292612784318	48.98999999999999	0.0
C 	36.892682201217085	49.69999999999999	0.0
C 	38.122438274590984	48.98999999999999	0.0
C 	39.35219434796488	49.69999999999999	0.0
C 	40.58195042133879	48.98999999999999	0.0
C 	41.811706494712695	49.69999999999999	0.0
C 	43.041462568086594	48.98999999999999	0.0
C 	44.2712186414605	49.69999999999999	0.0
C 	45.5009747148344	48.98999999999999	0.0
C 	46.730730788208305	49.69999999999998	0.0
C 	47.96048686158221	48.98999999999999	0.0
C 	49.1902429349561	49.69999999999998	0.0
C 	50.41999900833002	48.98999999999999	0.0
C 	51.64975508170392	49.69999999999999	0.0
C 	52.879511155077815	48.98999999999999	0.0
C 	54.10926722845172	49.69999999999999	0.0
C 	55.33902330182562	48.98999999999998	0.0
C 	56.56877937519953	49.69999999999999	0.0
C 	57.79853544857343	48.98999999999999	0.0
C 	59.02829152194734	49.69999999999999	0.0
C 	60.25804759532124	48.98999999999999	0.0
C 	61.487803668695136	49.69999999999999	0.0
C 	62.71755974206905	48.98999999999999	0.0
C 	63.94731581544294	49.69999999999998	0.0
C 	65.17707188881685	48.98999999999999	0.0
C 	66.40682796219075	49.69999999999999	0.0
C 	67.63658403556465	48.98999999999999	0.0
C 	68.86634010893856	49.69999999999999	0.0
C 	70.09609618231245	48.98999999999998	0.0
C 	71.32585225568637	49.69999999999999	0.0
C 	72.55560832906025	48.98999999999998	0.0
C 	73.78536440243417	49.69999999999999	0.0
C 	75.01512047580806	48.98999999999999	0.0
C 	76.24487654918197	49.69999999999999	0.0
C 	77.47463262255587	48.98999999999998	0.0
C 	78.70438869592978	49.69999999999998	0.0
C 	79.93414476930369	48.98999999999999	0.0
C 	81.16390084267758	49.69999999999998	0.0
C 	82.39365691605148	48.98999999999999	0.0
C 	83.62341298942539	49.69999999999999	0.0
C 	84.85316906279928	48.98999999999998	0.0
C 	86.08292513617319	49.69999999999998	0.0
C 	87.3126812095471	48.98999999999998	0.0
C 	88.542437282921	49.69999999999999	0.0
C 	29.51414576097367	51.11999999999999	0.0
C 	30.74390183434757	51.82999999999999	0.0
C 	31.973657907721474	51.11999999999999	0.0
C 	33.20341398109538	51.82999999999999	0.0
C 	34.43317005446928	51.11999999999999	0.0
C 	35.66292612784318	51.82999999999999	0.0
C 	36.892682201217085	51.11999999999999	0.0
C 	38.12243827459099	51.82999999999999	0.0
C 	39.35219434796489	51.12	0.0
C 	40.581950421338796	51.83	0.0
C 	41.811706494712695	51.11999999999999	0.0
C 	43.041462568086594	51.82999999999999	0.0
C 	44.2712186414605	51.12	0.0
C 	45.5009747148344	51.82999999999999	0.0
C 	46.73073078820831	51.11999999999999	0.0
C 	47.96048686158221	51.82999999999999	0.0
C 	49.19024293495611	51.11999999999999	0.0
C 	50.41999900833002	51.82999999999999	0.0
C 	51.649755081703915	51.11999999999998	0.0
C 	52.879511155077815	51.829999999999984	0.0
C 	54.10926722845171	51.11999999999999	0.0
C 	55.33902330182563	51.83	0.0
C 	56.568779375199526	51.11999999999999	0.0
C 	57.79853544857343	51.82999999999999	0.0
C 	59.02829152194733	51.11999999999999	0.0
C 	60.25804759532124	51.82999999999999	0.0
C 	61.48780366869514	51.11999999999999	0.0
C 	62.717559742069035	51.829999999999984	0.0
C 	63.94731581544295	51.11999999999999	0.0
C 	65.17707188881685	51.82999999999999	0.0
C 	66.40682796219075	51.11999999999999	0.0
C 	67.63658403556465	51.82999999999999	0.0
C 	68.86634010893854	51.11999999999998	0.0
C 	70.09609618231246	51.82999999999999	0.0
C 	71.32585225568636	51.11999999999999	0.0
C 	72.55560832906026	51.82999999999999	0.0
C 	73.78536440243417	51.11999999999999	0.0
C 	75.01512047580806	51.82999999999999	0.0
C 	76.24487654918198	51.11999999999999	0.0
C 	77.47463262255587	51.829999999999984	0.0
C 	78.70438869592978	51.11999999999999	0.0
C 	79.93414476930367	51.829999999999984	0.0
C 	81.16390084267758	51.11999999999999	0.0
C 	82.39365691605148	51.82999999999999	0.0
C 	83.62341298942538	51.11999999999998	0.0
C 	84.8531690627993	51.82999999999999	0.0
C 	86.08292513617319	51.11999999999998	0.0
C 	87.3126812095471	51.82999999999999	0.0
C 	88.542437282921	51.11999999999998	0.0
C 	89.7721933562949	51.829999999999984	0.0
C 	52.99508781364731	-0.6048699230497834	2.15
C 	54.38707288161015	-0.32419649971142256	2.15
C 	54.83999510081342	1.021634642502191	2.15
C 	50.66403989692488	0.1796143724871102	2.15
C 	52.056024964887726	0.46028779582546747	2.15
C 	52.50894718409099	1.806118938039081	2.15
C 	53.900932252053835	2.0867923613774435	2.15
C 	54.353854471257094	3.432623503591057	2.15
C 	55.745839539219936	3.713296926929411	2.15
C 	56.198761758423196	5.059128069143024	2.15
C 	57.590746826386045	5.3398014924813815	2.15
C 	58.043669045589304	6.685632634694995	2.15
C 	46.48808469303634	-0.6624058975279704	2.15
C 	47.880069760999184	-0.3817324741896045	2.15
C 	48.33299198020244	0.9640986680240056	2.15
C 	49.72497704816529	1.2447720913623612	2.15
C 	50.17789926736855	2.590603233575971	2.15
C 	51.5698843353314	2.8712766569143335	2.15
C 	52.02280655453466	4.217107799127944	2.15
C 	53.41479162249751	4.497781222466305	2.15
C 	53.86771384170077	5.843612364679914	2.15
C 	55.25969890966361	6.124285788018273	2.15
C 	55.712621128866864	7.4701169302318835	2.15
C 	57.104606196829714	7.750790353570248	2.15
C 	57.55752841603297	9.096621495783857	2.15
C 	58.94951348399582	9.37729491912222	2.15
C 	59.40243570319908	10.72312606133583	2.15
C 	60.794420771161924	11.003799484674186	2.15
C 	61.24734299036518	12.349630626887796	2.15
C 	44.157036776313916	0.12207839800892314	2.15
C 	45.54902184427676	0.40275182134728216	2.15
C 	46.00194406348002	1.7485829635608956	2.15
C 	47.39392913144286	2.0292563868992564	2.15
C 	47.846851350646126	3.3750875291128697	2.15
C 	49.23883641860896	3.655760952451226	2.15
C 	49.69175863781222	5.001592094664839	2.15
C 	51.08374370577508	5.282265518003198	2.15
C 	51.53666592497834	6.628096660216811	2.15
C 	52.928650992941186	6.90877008355517	2.15
C 	53.381573212144446	8.254601225768784	2.15
C 	54.77355828010729	8.535274649107135	2.15
C 	55.22648049931055	9.881105791320747	2.15
C 	56.61846556727338	10.161779214659111	2.15
C 	57.07138778647664	11.507610356872725	2.15
C 	58.46337285443949	11.788283780211085	2.15
C 	58.91629507364275	13.134114922424699	2.15
C 	60.3082801416056	13.414788345763048	2.15
C 	60.76120236080886	14.760619487976662	2.15
C 	62.15318742877171	15.041292911315024	2.15
C 	62.60610964797497	16.387124053528638	2.15
C 	63.9980947159378	16.667797476867	2.15
C 	64.45101693514107	18.013628619080613	2.15
C 	39.98108157242538	-0.7199418720061508	2.15
C 	41.373066640388224	-0.43926844866778997	2.15
C 	41.82598885959149	0.9065626935458234	2.15
C 	43.217973927554326	1.1872361168841776	2.15
C 	43.670896146757585	2.533067259097791	2.15
C 	45.062881214720434	2.81374068243615	2.15
C 	45.5158034339237	4.159571824649763	2.15
C 	46.90778850188654	4.4402452479881225	2.15
C 	47.3607107210898	5.786076390201736	2.15
C 	48.752695789052645	6.06674981354009	2.15
C 	49.205618008255904	7.412580955753703	2.15
C 	50.59760307621875	7.693254379092062	2.15
C 	51.05052529542201	9.039085521305676	2.15
C 	52.442510363384855	9.319758944644038	2.15
C 	52.895432582588114	10.665590086857652	2.15
C 	54.287417650550964	10.946263510196005	2.15
C 	54.74033986975422	12.292094652409618	2.15
C 	56.132324937717065	12.572768075747979	2.15
C 	56.585247156920325	13.918599217961592	2.15
C 	57.97723222488317	14.19927264129995	2.15
C 	58.430154444086426	15.545103783513564	2.15
C 	59.82213951204927	15.82577720685192	2.15
C 	60.27506173125253	17.171608349065533	2.15
C 	61.66704679921538	17.45228177240389	2.15
C 	62.11996901841864	18.7981129146175	2.15
C 	63.51195408638148	19.07878633795586	2.15
C 	63.96487630558474	20.424617480169477	2.15
C 	65.35686137354759	20.70529090350783	2.15
C 	65.80978359275085	22.051122045721446	2.15
C 	67.2017686607137	22.331795469059795	2.15
C 	67.65469087991696	23.677626611273407	2.15
C 	37.65003365570295	0.06454242353074459	2.15
C 	39.04201872366579	0.3452158468691003	2.15
C 	39.49494094286905	1.6910469890827102	2.15
C 	40.8869260108319	1.9717204124210728	2.15
C 	41.33984823003516	3.317551554634683	2.15
C 	42.731833297998	3.5982249779730404	2.15
C 	43.18475551720126	4.944056120186651	2.15
C 	44.5767405851641	5.224729543525014	2.15
C 	45.02966280436736	6.5705606857386245	2.15
C 	46.42164787233022	6.851234109076987	2.15
C 	46.87457009153348	8.197065251290597	2.15
C 	48.26655515949632	8.477738674628952	2.15
C 	48.71947737869957	9.823569816842562	2.15
C 	50.11146244666243	10.104243240180924	2.15
C 	50.56438466586569	11.450074382394535	2.15
C 	51.95636973382853	11.7307478057329	2.15
C 	52.40929195303179	13.07657894794651	2.15
C 	53.80127702099463	13.357252371284869	2.15
C 	54.25419924019789	14.703083513498479	2.15
C 	55.64618430816074	14.98375693683684	2.15
C 	56.099106527364	16.329588079050453	2.15
C 	57.49109159532684	16.61026150238881	2.15
C 	57.9440138145301	17.95609264460242	2.15
C 	59.33599888249294	18.236766067940778	2.15
C 	59.7889211016962	19.58259721015439	2.15
C 	61.180906169659046	19.863270633492757	2.15
C 	61.633828388862305	21.209101775706365	2.15
C 	63.025813456825155	21.489775199044722	2.15
C 	63.478735676028414	22.835606341258337	2.15
C 	64.87072074399127	23.11627976459669	2.15
C 	65.32364296319453	24.462110906810302	2.15
C 	66.71562803115737	24.742784330148655	2.15
C 	67.16855025036064	26.088615472362267	2.15
C 	68.56053531832346	26.369288895700638	2.15
C 	69.01345753752672	27.715120037914254	2.15
C 	70.40544260548957	27.995793461252603	2.15
C 	70.85836482469283	29.341624603466215	2.15
C 	33.474078451814414	-0.7774778464843327	2.15
C 	34.866063519777256	-0.4968044231459752	2.15
C 	35.318985738980516	0.8490267190676382	2.15
C 	36.710970806943365	1.1297001424059971	2.15
C 	37.16389302614663	2.4755312846196107	2.15
C 	38.55587809410947	2.7562047079579646	2.15
C 	39.008800313312726	4.102035850171578	2.15
C 	40.40078538127557	4.3827092735099376	2.15
C 	40.853707600478835	5.72854041572355	2.15
C 	42.24569266844167	6.009213839061904	2.15
C 	42.69861488764493	7.355044981275518	2.15
C 	44.090599955607786	7.635718404613877	2.15
C 	44.543522174811045	8.981549546827491	2.15
C 	45.93550724277389	9.262222970165851	2.15
C 	46.38842946197715	10.608054112379465	2.15
C 	47.780414529939996	10.888727535717818	2.15
C 	48.233336749143255	12.23455867793143	2.15
C 	49.6253218171061	12.51523210126979	2.15
C 	50.07824403630936	13.861063243483404	2.15
C 	51.4702291042722	14.141736666821764	2.15
C 	51.92315132347546	15.487567809035378	2.15
C 	53.31513639143831	15.768241232373729	2.15
C 	53.76805861064157	17.114072374587344	2.15
C 	55.16004367860441	17.394745797925705	2.15
C 	55.61296589780767	18.74057694013932	2.15
C 	57.00495096577052	19.021250363477677	2.15
C 	57.45787318497378	20.367081505691292	2.15
C 	58.84985825293662	20.647754929029645	2.15
C 	59.30278047213988	21.993586071243257	2.15
C 	60.69476554010272	22.274259494581617	2.15
C 	61.14768775930598	23.620090636795233	2.15
C 	62.539672827268824	23.900764060133593	2.15
C 	62.99259504647208	25.246595202347205	2.15
C 	64.38458011443494	25.527268625685558	2.15
C 	64.8375023336382	26.87309976789917	2.15
C 	66.22948740160105	27.153773191237523	2.15
C 	66.68240962080431	28.49960433345114	2.15
C 	68.07439468876714	28.780277756789506	2.15
C 	68.5273169079704	30.126108899003118	2.15
C 	69.91930197593325	30.406782322341467	2.15
C 	70.37222419513651	31.752613464555083	2.15
C 	71.76420926309935	32.03328688789344	2.15
C 	72.2171314823026	33.37911803010705	2.15
C 	73.60911655026545	33.659791453445415	2.15
C 	74.06203876946871	35.005622595659034	2.15
C 	31.143030535091988	0.007006449052564255	2.15
C 	32.53501560305483	0.2876798723909217	2.15
C 	32.98793782225809	1.633511014604535	2.15
C 	34.37992289022093	1.9141844379428907	2.15
C 	34.8328451094242	3.2600155801565043	2.15
C 	36.22483017738704	3.540689003494865	2.15
C 	36.6777523965903	4.886520145708478	2.15
C 	38.06973746455314	5.167193569046831	2.15
C 	38.52265968375641	6.513024711260444	2.15
C 	39.91464475171925	6.793698134598805	2.15
C 	40.36756697092251	8.139529276812418	2.15
C 	41.75955203888535	8.42020270015077	2.15
C 	42.21247425808861	9.766033842364385	2.15
C 	43.604459326051455	10.046707265702745	2.15
C 	44.057381545254714	11.392538407916359	2.15
C 	45.44936661321756	11.673211831254717	2.15
C 	45.90228883242082	13.01904297346833	2.15
C 	47.294273900383665	13.299716396806685	2.15
C 	47.747196119586924	14.6455475390203	2.15
C 	49.139181187549774	14.926220962358657	2.15
C 	49.59210340675303	16.27205210457227	2.15
C 	50.984088474715875	16.55272552791063	2.15
C 	51.437010693919134	17.898556670124243	2.15
C 	52.82899576188198	18.179230093462596	2.15
C 	53.281917981085236	19.525061235676212	2.15
C 	54.67390304904808	19.805734659014572	2.15
C 	55.12682526825134	21.151565801228188	2.15
C 	56.51881033621419	21.432239224566544	2.15
C 	56.97173255541745	22.77807036678016	2.15
C 	58.36371762338029	23.058743790118513	2.15
C 	58.81663984258355	24.404574932332128	2.15
C 	60.2086249105464	24.685248355670485	2.15
C 	60.66154712974966	26.0310794978841	2.15
C 	62.0535321977125	26.311752921222457	2.15
C 	62.50645441691576	27.657584063436072	2.15
C 	63.8984394848786	27.938257486774425	2.15
C 	64.35136170408187	29.28408862898804	2.15
C 	65.74334677204472	29.56476205232639	2.15
C 	66.19626899124798	30.910593194540002	2.15
C 	67.58825405921081	31.19126661787837	2.15
C 	68.04117627841407	32.53709776009198	2.15
C 	69.43316134637692	32.81777118343034	2.15
C 	69.88608356558018	34.16360232564395	2.15
C 	71.27806863354301	34.44427574898231	2.15
C 	71.73099085274627	35.79010689119592	2.15
C 	73.12297592070912	36.07078031453428	2.15
C 	73.5758981399124	37.416611456747894	2.15
C 	74.96788320787523	37.69728488008625	2.15
C 	75.42080542707849	39.04311602229987	2.15
C 	76.81279049504134	39.32378944563822	2.15
C 	77.2657127142446	40.66962058785183	2.15
C 	26.967075331203446	-0.835013820962518	2.15
C 	28.359060399166296	-0.554340397624159	2.15
C 	28.811982618369555	0.7914907445894511	2.15
C 	30.203967686332398	1.0721641679278153	2.15
C 	30.656889905535657	2.4179953101414253	2.15
C 	32.048874973498506	2.6986687334797845	2.15
C 	32.501797192701765	4.044499875693394	2.15
C 	33.89378226066461	4.325173299031755	2.15
C 	34.34670447986787	5.6710044412453655	2.15
C 	35.73868954783072	5.951677864583727	2.15
C 	36.191611767033976	7.297509006797338	2.15
C 	37.58359683499681	7.578182430135695	2.15
C 	38.03651905420007	8.924013572349306	2.15
C 	39.42850412216293	9.204686995687668	2.15
C 	39.881426341366186	10.550518137901278	2.15
C 	41.27341140932903	10.831191561239635	2.15
C 	41.72633362853228	12.177022703453245	2.15
C 	43.11831869649513	12.457696126791607	2.15
C 	43.57124091569839	13.803527269005217	2.15
C 	44.96322598366123	14.084200692343583	2.15
C 	45.41614820286449	15.430031834557193	2.15
C 	46.80813327082734	15.710705257895548	2.15
C 	47.2610554900306	17.056536400109156	2.15
C 	48.65304055799345	17.33720982344752	2.15
C 	49.10596277719671	18.68304096566113	2.15
C 	50.49794784515955	18.96371438899949	2.15
C 	50.95087006436281	20.309545531213104	2.15
C 	52.34285513232565	20.590218954551457	2.15
C 	52.79577735152891	21.93605009676507	2.15
C 	54.187762419491754	22.216723520103436	2.15
C 	54.640684638695014	23.562554662317044	2.15
C 	56.03266970665786	23.843228085655404	2.15
C 	56.48559192586112	25.189059227869016	2.15
C 	57.877576993823965	25.469732651207373	2.15
C 	58.330499213027224	26.815563793420985	2.15
C 	59.72248428099008	27.096237216759352	2.15
C 	60.17540650019333	28.442068358972957	2.15
C 	61.567391568156175	28.72274178231132	2.15
C 	62.02031378735944	30.068572924524933	2.15
C 	63.41229885532228	30.349246347863286	2.15
C 	63.865221074525536	31.695077490076898	2.15
C 	65.25720614248839	31.97575091341525	2.15
C 	65.71012836169164	33.32158205562886	2.15
C 	67.1021134296545	33.60225547896723	2.15
C 	67.55503564885775	34.94808662118084	2.15
C 	68.9470207168206	35.2287600445192	2.15
C 	69.39994293602386	36.57459118673281	2.15
C 	70.7919280039867	36.85526461007117	2.15
C 	71.24485022318996	38.20109575228478	2.15
C 	72.6368352911528	38.48176917562314	2.15
C 	73.08975751035607	39.827600317836755	2.15
C 	74.4817425783189	40.10827374117511	2.15
C 	74.93466479752216	41.45410488338872	2.15
C 	76.32664986548501	41.73477830672708	2.15
C 	76.77957208468827	43.08060944894069	2.15
C 	24.63602741448102	-0.05052952542562272	2.15
C 	26.028012482443863	0.23014389791273374	2.15
C 	26.480934701647126	1.5759750401263455	2.15
C 	27.872919769609968	1.8566484634647056	2.15
C 	28.325841988813227	3.202479605678317	2.15
C 	29.717827056776077	3.483153029016678	2.15
C 	30.170749275979336	4.82898417123029	2.15
C 	31.562734343942175	5.109657594568649	2.15
C 	32.015656563145434	6.455488736782259	2.15
C 	33.407641631108284	6.736162160120618	2.15
C 	33.86056385031154	8.081993302334231	2.15
C 	35.252548918274385	8.362666725672591	2.15
C 	35.705471137477645	9.708497867886205	2.15
C 	37.097456205440494	9.989171291224558	2.15
C 	37.55037842464375	11.335002433438172	2.15
C 	38.942363492606596	11.615675856776532	2.15
C 	39.395285711809855	12.961506998990146	2.15
C 	40.787270779772705	13.242180422328499	2.15
C 	41.240192998975964	14.58801156454211	2.15
C 	42.632178066938806	14.868684987880473	2.15
C 	43.085100286142065	16.214516130094086	2.15
C 	44.47708535410491	16.495189553432443	2.15
C 	44.93000757330817	17.84102069564606	2.15
C 	46.32199264127101	18.12169411898441	2.15
C 	46.77491486047427	19.467525261198027	2.15
C 	48.16689992843712	19.748198684536383	2.15
C 	48.61982214764038	21.09402982675	2.15
C 	50.01180721560323	21.374703250088356	2.15
C 	50.464729434806486	22.72053439230197	2.15
C 	51.85671450276933	23.001207815640324	2.15
C 	52.30963672197259	24.347038957853936	2.15
C 	53.70162178993543	24.6277123811923	2.15
C 	54.15454400913869	25.973543523405915	2.15
C 	55.54652907710153	26.254216946744272	2.15
C 	55.99945129630479	27.600048088957884	2.15
C 	57.39143636426763	27.88072151229624	2.15
C 	57.84435858347089	29.226552654509852	2.15
C 	59.23634365143374	29.507226077848212	2.15
C 	59.68926587063701	30.853057220061828	2.15
C 	61.08125093859985	31.133730643400188	2.15
C 	61.53417315780311	32.479561785613804	2.15
C 	62.92615822576595	32.76023520895215	2.15
C 	63.37908044496922	34.106066351165765	2.15
C 	64.77106551293205	34.38673977450412	2.15
C 	65.22398773213531	35.732570916717734	2.15
C 	66.61597280009816	36.0132443400561	2.15
C 	67.06889501930142	37.359075482269716	2.15
C 	68.46088008726427	37.639748905608066	2.15
C 	68.91380230646753	38.98558004782168	2.15
C 	70.30578737443037	39.266253471160034	2.15
C 	70.75870959363363	40.612084613373646	2.15
C 	72.15069466159649	40.89275803671201	2.15
C 	72.60361688079975	42.23858917892562	2.15
C 	73.99560194876257	42.51926260226398	2.15
C 	74.44852416796583	43.86509374447758	2.15
C 	75.84050923592869	44.14576716781595	2.15
C 	76.29343145513194	45.49159831002955	2.15
C 	20.460072210592482	-0.8925497954407033	2.15
C 	21.85205727855533	-0.6118763721023451	2.15
C 	22.304979497758588	0.7339547701112666	2.15
C 	23.69696456572143	1.0146281934496282	2.15
C 	24.149886784924693	2.36045933566324	2.15
C 	25.54187185288754	2.641132759001599	2.15
C 	25.994794072090798	3.9869639012152107	2.15
C 	27.386779140053644	4.267637324553568	2.15
C 	27.839701359256903	5.613468466767179	2.15
C 	29.231686427219746	5.8941418901055425	2.15
C 	29.684608646423005	7.239973032319153	2.15
C 	31.076593714385854	7.520646455657512	2.15
C 	31.529515933589114	8.866477597871125	2.15
C 	32.92150100155195	9.147151021209483	2.15
C 	33.37442322075521	10.492982163423093	2.15
C 	34.76640828871806	10.773655586761455	2.15
C 	35.21933050792132	12.119486728975065	2.15
C 	36.61131557588416	12.400160152313422	2.15
C 	37.06423779508742	13.745991294527032	2.15
C 	38.45622286305027	14.026664717865394	2.15
C 	38.90914508225353	15.372495860079004	2.15
C 	40.30113015021637	15.653169283417363	2.15
C 	40.75405236941963	16.99900042563097	2.15
C 	42.14603743738248	17.279673848969335	2.15
C 	42.59895965658574	18.625504991182943	2.15
C 	43.990944724548584	18.90617841452131	2.15
C 	44.44386694375184	20.25200955673492	2.15
C 	45.835852011714685	20.53268298007328	2.15
C 	46.288774230917944	21.878514122286884	2.15
C 	47.680759298880794	22.159187545625244	2.15
C 	48.13368151808405	23.505018687838856	2.15
C 	49.525666586046896	23.785692111177223	2.15
C 	49.978588805250155	25.13152325339083	2.15
C 	51.370573873213004	25.41219667672919	2.15
C 	51.82349609241626	26.758027818942796	2.15
C 	53.215481160379106	27.038701242281157	2.15
C 	53.668403379582365	28.384532384494772	2.15
C 	55.060388447545215	28.665205807833136	2.15
C 	55.51331066674847	30.011036950046744	2.15
C 	56.90529573471131	30.291710373385104	2.15
C 	57.35821795391457	31.637541515598713	2.15
C 	58.75020302187742	31.91821493893707	2.15
C 	59.20312524108068	33.26404608115068	2.15
C 	60.59511030904353	33.54471950448905	2.15
C 	61.048032528246786	34.89055064670266	2.15
C 	62.440017596209636	35.17122407004102	2.15
C 	62.89293981541289	36.517055212254625	2.15
C 	64.28492488337574	36.79772863559298	2.15
C 	64.737847102579	38.14355977780659	2.15
C 	66.12983217054183	38.424233201144965	2.15
C 	66.58275438974509	39.77006434335857	2.15
C 	67.97473945770794	40.050737766696926	2.15
C 	68.4276616769112	41.39656890891054	2.15
C 	69.81964674487405	41.677242332248895	2.15
C 	70.27256896407731	43.02307347446251	2.15
C 	71.66455403204016	43.30374689780088	2.15
C 	72.11747625124342	44.64957804001449	2.15
C 	73.50946131920627	44.930251463352846	2.15
C 	73.96238353840953	46.27608260556646	2.15
C 	75.35436860637236	46.55675602890481	2.15
C 	18.129024293870053	-0.10806549990380811	2.15
C 	19.521009361832895	0.17260792343455014	2.15
C 	19.973931581036155	1.518439065648162	2.15
C 	21.365916648999	1.7991124889865202	2.15
C 	21.81883886820226	3.1449436312001318	2.15
C 	23.21082393616511	3.4256170545384936	2.15
C 	23.66374615536837	4.771448196752106	2.15
C 	25.055731223331215	5.052121620090462	2.15
C 	25.508653442534474	6.397952762304074	2.15
C 	26.900638510497316	6.678626185642434	2.15
C 	27.353560729700575	8.024457327856046	2.15
C 	28.74554579766342	8.305130751194405	2.15
C 	29.19846801686668	9.650961893408018	2.15
C 	30.590453084829523	9.931635316746378	2.15
C 	31.043375304032782	11.277466458959989	2.15
C 	32.435360371995635	11.558139882298345	2.15
C 	32.888282591198895	12.903971024511959	2.15
C 	34.28026765916173	13.184644447850319	2.15
C 	34.73318987836499	14.530475590063933	2.15
C 	36.12517494632784	14.811149013402286	2.15
C 	36.5780971655311	16.156980155615898	2.15
C 	37.97008223349394	16.437653578954258	2.15
C 	38.4230044526972	17.783484721167873	2.15
C 	39.81498952066005	18.064158144506226	2.15
C 	40.26791173986331	19.40998928671984	2.15
C 	41.65989680782615	19.6906627100582	2.15
C 	42.11281902702941	21.036493852271814	2.15
C 	43.50480409499226	21.31716727561017	2.15
C 	43.95772631419552	22.662998417823786	2.15
C 	45.34971138215836	22.94367184116214	2.15
C 	45.80263360136162	24.28950298337575	2.15
C 	47.19461866932446	24.57017640671411	2.15
C 	47.64754088852772	25.916007548927723	2.15
C 	49.03952595649057	26.196680972266083	2.15
C 	49.49244817569383	27.5425121144797	2.15
C 	50.88443324365667	27.823185537818052	2.15
C 	51.33735546285993	29.169016680031664	2.15
C 	52.729340530822775	29.449690103370028	2.15
C 	53.182262750026034	30.79552124558364	2.15
C 	54.57424781798888	31.076194668922	2.15
C 	55.02717003719215	32.42202581113561	2.15
C 	56.419155105154985	32.70269923447397	2.15
C 	56.872077324358244	34.04853037668758	2.15
C 	58.26406239232109	34.32920380002594	2.15
C 	58.71698461152435	35.67503494223955	2.15
C 	60.108969679487195	35.95570836557791	2.15
C 	60.561891898690455	37.301539507791524	2.15
C 	61.9538769666533	37.58221293112988	2.15
C 	62.40679918585656	38.92804407334349	2.15
C 	63.798784253819406	39.20871749668184	2.15
C 	64.25170647302267	40.55454863889546	2.15
C 	65.64369154098551	40.835222062233825	2.15
C 	66.09661376018877	42.18105320444744	2.15
C 	67.48859882815161	42.461726627785794	2.15
C 	67.94152104735487	43.807557769999406	2.15
C 	69.33350611531772	44.08823119333776	2.15
C 	69.78642833452098	45.434062335551374	2.15
C 	71.17841340248383	45.71473575888974	2.15
C 	13.95306908998152	-0.9500857699188845	2.15
C 	15.345054157944364	-0.6694123465805246	2.15
C 	15.797976377147624	0.6764187956330872	2.15
C 	17.189961445110466	0.9570922189714454	2.15
C 	17.64288366431373	2.3029233611850572	2.15
C 	19.03486873227657	2.5835967845234156	2.15
C 	19.487790951479834	3.929427926737027	2.15
C 	20.879776019442676	4.210101350075385	2.15
C 	21.332698238645936	5.555932492288997	2.15
C 	22.72468330660878	5.836605915627358	2.15
C 	23.17760552581204	7.18243705784097	2.15
C 	24.569590593774887	7.463110481179329	2.15
C 	25.022512812978146	8.808941623392938	2.15
C 	26.41449788094099	9.089615046731298	2.15
C 	26.867420100144248	10.435446188944912	2.15
C 	28.259405168107094	10.716119612283272	2.15
C 	28.712327387310356	12.061950754496886	2.15
C 	30.1043124552732	12.342624177835242	2.15
C 	30.557234674476458	13.688455320048853	2.15
C 	31.9492197424393	13.969128743387213	2.15
C 	32.40214196164256	15.314959885600826	2.15
C 	33.794127029605406	15.595633308939185	2.15
C 	34.247049248808665	16.9414644511528	2.15
C 	35.63903431677151	17.222137874491153	2.15
C 	36.09195653597477	18.567969016704765	2.15
C 	37.483941603937616	18.848642440043125	2.15
C 	37.936863823140875	20.19447358225674	2.15
C 	39.32884889110372	20.475147005595094	2.15
C 	39.78177111030698	21.820978147808706	2.15
C 	41.17375617826982	22.101651571147066	2.15
C 	41.626678397473086	23.44748271336068	2.15
C 	43.01866346543593	23.728156136699038	2.15
C 	43.47158568463919	25.073987278912654	2.15
C 	44.86357075260204	25.354660702251007	2.15
C 	45.316492971805296	26.70049184446462	2.15
C 	46.708478039768146	26.98116526780298	2.15
C 	47.161400258971405	28.32699641001659	2.15
C 	48.55338532693424	28.60766983335495	2.15
C 	49.0063075461375	29.953500975568566	2.15
C 	50.39829261410035	30.23417439890692	2.15
C 	50.85121483330361	31.58000554112053	2.15
C 	52.24319990126645	31.86067896445889	2.15
C 	52.69612212046972	33.2065101066725	2.15
C 	54.088107188432566	33.48718353001087	2.15
C 	54.541029407635826	34.83301467222448	2.15
C 	55.93301447559866	35.11368809556283	2.15
C 	56.38593669480193	36.45951923777645	2.15
C 	57.77792176276477	36.740192661114804	2.15
C 	58.23084398196803	38.086023803328416	2.15
C 	59.62282904993087	38.36669722666678	2.15
C 	60.07575126913413	39.71252836888039	2.15
C 	61.46773633709698	39.99320179221874	2.15
C 	61.92065855630024	41.33903293443236	2.15
C 	63.31264362426309	41.61970635777071	2.15
C 	63.76556584346635	42.96553749998432	2.15
C 	65.1575509114292	43.24621092332269	2.15
C 	65.61047313063246	44.592042065536305	2.15
C 	67.00245819859529	44.872715488874654	2.15
C 	67.45538041779855	46.218546631088266	2.15
C 	68.8473654857614	46.49922005442663	2.15
C 	11.622021173259085	-0.1656014743819926	2.15
C 	13.014006241221932	0.11507194895636687	2.15
C 	13.466928460425192	1.4609030911699785	2.15
C 	14.858913528388038	1.741576514508339	2.15
C 	15.311835747591298	3.087407656721951	2.15
C 	16.703820815554142	3.368081080060309	2.15
C 	17.1567430347574	4.713912222273921	2.15
C 	18.548728102720247	4.994585645612279	2.15
C 	19.001650321923506	6.340416787825891	2.15
C 	20.393635389886352	6.621090211164249	2.15
C 	20.84655760908961	7.9669213533778604	2.15
C 	22.238542677052454	8.247594776716221	2.15
C 	22.691464896255713	9.593425918929832	2.15
C 	24.08344996421856	9.874099342268192	2.15
C 	24.53637218342182	11.219930484481806	2.15
C 	25.928357251384664	11.500603907820162	2.15
C 	26.381279470587923	12.846435050033772	2.15
C 	27.773264538550766	13.127108473372136	2.15
C 	28.226186757754025	14.472939615585746	2.15
C 	29.61817182571687	14.753613038924106	2.15
C 	30.071094044920134	16.09944418113772	2.15
C 	31.463079112882976	16.380117604476077	2.15
C 	31.916001332086235	17.725948746689685	2.15
C 	33.30798640004908	18.00662217002805	2.15
C 	33.76090861925234	19.35245331224166	2.15
C 	35.15289368721518	19.633126735580017	2.15
C 	35.60581590641844	20.978957877793626	2.15
C 	36.997800974381285	21.25963130113199	2.15
C 	37.450723193584544	22.6054624433456	2.15
C 	38.84270826154739	22.88613586668396	2.15
C 	39.29563048075065	24.231967008897566	2.15
C 	40.687615548713495	24.512640432235926	2.15
C 	41.140537767916754	25.85847157444954	2.15
C 	42.532522835879604	26.139144997787906	2.15
C 	42.98544505508286	27.484976140001514	2.15
C 	44.377430123045706	27.765649563339874	2.15
C 	44.830352342248965	29.11148070555348	2.15
C 	46.222337410211814	29.39215412889184	2.15
C 	46.67525962941507	30.73798527110545	2.15
C 	48.06724469737793	31.01865869444382	2.15
C 	48.52016691658118	32.36448983665743	2.15
C 	49.91215198454402	32.64516325999578	2.15
C 	50.36507420374728	33.990994402209395	2.15
C 	51.75705927171012	34.27166782554775	2.15
C 	52.20998149091338	35.617498967761364	2.15
C 	53.601966558876235	35.898172391099735	2.15
C 	54.054888778079494	37.24400353331334	2.15
C 	55.44687384604234	37.5246769566517	2.15
C 	55.89979606524559	38.87050809886531	2.15
C 	57.29178113320844	39.151181522203665	2.15
C 	57.744703352411705	40.49701266441728	2.15
C 	59.13668842037455	40.77768608775565	2.15
C 	59.589610639577806	42.12351722996925	2.15
C 	60.98159570754065	42.40419065330761	2.15
C 	61.43451792674391	43.75002179552122	2.15
C 	62.82650299470676	44.03069521885958	2.15
C 	63.27942521391001	45.37652636107318	2.15
C 	64.67141028187287	45.65719978441156	2.15
C 	9.290973256536656	0.6188828211549018	2.15
C 	10.6829583244995	0.8995562444932601	2.15
C 	11.13588054370276	2.245387386706872	2.15
C 	12.527865611665607	2.526060810045231	2.15
C 	12.980787830868866	3.871891952258843	2.15
C 	14.37277289883171	4.152565375597202	2.15
C 	14.82569511803497	5.498396517810815	2.15
C 	16.217680185997818	5.779069941149173	2.15
C 	16.670602405201077	7.124901083362786	2.15
C 	18.06258747316392	7.405574506701143	2.15
C 	18.51550969236718	8.751405648914757	2.15
C 	19.907494760330025	9.032079072253113	2.15
C 	20.360416979533284	10.377910214466725	2.15
C 	21.75240204749613	10.658583637805085	2.15
C 	22.20532426669939	12.004414780018699	2.15
C 	23.59730933466223	12.285088203357056	2.15
C 	24.05023155386549	13.63091934557067	2.15
C 	25.442216621828337	13.911592768909026	2.15
C 	25.895138841031596	15.25742391112264	2.15
C 	27.28712390899444	15.538097334461	2.15
C 	27.740046128197704	16.883928476674612	2.15
C 	29.132031196160543	17.16460190001297	2.15
C 	29.584953415363806	18.510433042226584	2.15
C 	30.97693848332665	18.79110646556494	2.15
C 	31.42986070252991	20.136937607778552	2.15
C 	32.82184577049276	20.417611031116913	2.15
C 	33.27476798969602	21.763442173330528	2.15
C 	34.66675305765886	22.04411559666888	2.15
C 	35.11967527686212	23.389946738882493	2.15
C 	36.51166034482496	23.670620162220853	2.15
C 	36.96458256402823	25.016451304434465	2.15
C 	38.35656763199106	25.297124727772818	2.15
C 	38.80948985119432	26.642955869986434	2.15
C 	40.20147491915717	26.923629293324794	2.15
C 	40.65439713836043	28.269460435538406	2.15
C 	42.04638220632328	28.550133858876766	2.15
C 	42.49930442552654	29.89596500109038	2.15
C 	43.89128949348938	30.176638424428734	2.15
C 	44.34421171269264	31.522469566642346	2.15
C 	45.73619678065549	31.803142989980707	2.15
C 	46.18911899985875	33.14897413219432	2.15
C 	47.58110406782159	33.42964755553268	2.15
C 	48.03402628702486	34.775478697746294	2.15
C 	49.4260113549877	35.056152121084644	2.15
C 	49.87893357419096	36.401983263298256	2.15
C 	51.270918642153795	36.68265668663662	2.15
C 	51.72384086135706	38.02848782885023	2.15
C 	53.11582592931991	38.309161252188595	2.15
C 	53.56874814852317	39.65499239440221	2.15
C 	54.960733216486005	39.935665817740556	2.15
C 	55.41365543568927	41.281496959954175	2.15
C 	56.80564050365212	41.56217038329253	2.15
C 	57.25856272285538	42.908001525506144	2.15
C 	58.65054779081822	43.18867494884451	2.15
C 	59.10347001002148	44.53450609105812	2.15
C 	60.495455077984325	44.81517951439647	2.15
C 	60.948377297187584	46.16101065661009	2.15
C 	62.34036236515043	46.44168407994844	2.15
C 	5.115018052648121	-0.22313744886017542	2.15
C 	6.507003120610966	0.057535974478183434	2.15
C 	6.959925339814226	1.4033671166917951	2.15
C 	8.351910407777071	1.6840405400301546	2.15
C 	8.80483262698033	3.0298716822437664	2.15
C 	10.196817694943176	3.3105451055821247	2.15
C 	10.649739914146435	4.656376247795736	2.15
C 	12.04172498210928	4.937049671134096	2.15
C 	12.494647201312539	6.282880813347708	2.15
C 	13.886632269275383	6.563554236686068	2.15
C 	14.339554488478644	7.90938537889968	2.15
C 	15.731539556441488	8.190058802238038	2.15
C 	16.18446177564475	9.53588994445165	2.15
C 	17.57644684360759	9.816563367790009	2.15
C 	18.02936906281085	11.162394510003619	2.15
C 	19.421354130773697	11.44306793334198	2.15
C 	19.874276349976956	12.788899075555591	2.15
C 	21.266261417939802	13.069572498893953	2.15
C 	21.71918363714306	14.415403641107563	2.15
C 	23.111168705105907	14.69607706444592	2.15
C 	23.564090924309166	16.04190820665953	2.15
C 	24.95607599227201	16.32258162999789	2.15
C 	25.408998211475268	17.668412772211504	2.15
C 	26.800983279438118	17.949086195549867	2.15
C 	27.253905498641377	19.294917337763476	2.15
C 	28.64589056660422	19.575590761101832	2.15
C 	29.098812785807482	20.921421903315448	2.15
C 	30.490797853770324	21.202095326653804	2.15
C 	30.943720072973584	22.547926468867416	2.15
C 	32.33570514093643	22.82859989220578	2.15
C 	32.78862736013969	24.174431034419392	2.15
C 	34.180612428102535	24.45510445775775	2.15
C 	34.633534647305794	25.80093559997136	2.15
C 	36.025519715268636	26.08160902330972	2.15
C 	36.478441934471896	27.427440165523326	2.15
C 	37.87042700243474	27.708113588861686	2.15
C 	38.323349221638	29.053944731075294	2.15
C 	39.71533428960085	29.33461815441366	2.15
C 	40.168256508804106	30.680449296627273	2.15
C 	41.56024157676695	30.961122719965633	2.15
C 	42.01316379597021	32.30695386217924	2.15
C 	43.40514886393306	32.5876272855176	2.15
C 	43.858071083136316	33.93345842773121	2.15
C 	45.25005615109916	34.214131851069574	2.15
C 	45.702978370302425	35.559962993283186	2.15
C 	47.094963438265275	35.84063641662154	2.15
C 	47.54788565746853	37.186467558835155	2.15
C 	48.93987072543137	37.46714098217351	2.15
C 	49.39279294463463	38.812972124387116	2.15
C 	50.78477801259748	39.09364554772549	2.15
C 	51.23770023180074	40.4394766899391	2.15
C 	52.62968529976358	40.72015011327746	2.15
C 	53.08260751896684	42.06598125549107	2.15
C 	54.47459258692968	42.346654678829424	2.15
C 	54.92751480613293	43.692485821043036	2.15
C 	56.31949987409579	43.9731592443814	2.15
C 	56.77242209329905	45.31899038659501	2.15
C 	58.16440716126189	45.599663809933375	2.15
C 	2.7839701359256903	0.5613468466767182	2.15
C 	4.1759552038885355	0.8420202700150773	2.15
C 	4.628877423091795	2.187851412228689	2.15
C 	6.02086249105464	2.468524835567048	2.15
C 	6.473784710257899	3.81435597778066	2.15
C 	7.865769778220744	4.095029401119019	2.15
C 	8.318691997424004	5.440860543332631	2.15
C 	9.710677065386848	5.72153396667099	2.15
C 	10.163599284590108	7.067365108884601	2.15
C 	11.555584352552954	7.34803853222296	2.15
C 	12.008506571756214	8.693869674436574	2.15
C 	13.400491639719059	8.974543097774934	2.15
C 	13.853413858922318	10.320374239988544	2.15
C 	15.245398926885162	10.601047663326902	2.15
C 	15.698321146088421	11.946878805540512	2.15
C 	17.090306214051267	12.227552228878874	2.15
C 	17.543228433254527	13.573383371092483	2.15
C 	18.93521350121737	13.854056794430843	2.15
C 	19.388135720420628	15.199887936644453	2.15
C 	20.780120788383474	15.480561359982817	2.15
C 	21.233043007586733	16.826392502196427	2.15
C 	22.62502807554958	17.107065925534787	2.15
C 	23.07795029475284	18.452897067748395	2.15
C 	24.469935362715685	18.733570491086756	2.15
C 	24.922857581918944	20.079401633300368	2.15
C 	26.31484264988179	20.36007505663873	2.15
C 	26.76776486908505	21.70590619885234	2.15
C 	28.159749937047895	21.9865796221907	2.15
C 	28.612672156251154	23.332410764404308	2.15
C 	30.004657224214	23.61308418774267	2.15
C 	30.45757944341726	24.95891532995628	2.15
C 	31.849564511380102	25.23958875329464	2.15
C 	32.30248673058336	26.585419895508252	2.15
C 	33.6944717985462	26.866093318846605	2.15
C 	34.14739401774946	28.21192446106022	2.15
C 	35.53937908571231	28.49259788439858	2.15
C 	35.99230130491557	29.838429026612193	2.15
C 	37.384286372878414	30.119102449950546	2.15
C 	37.83720859208167	31.46493359216416	2.15
C 	39.22919366004452	31.745607015502518	2.15
C 	39.68211587924778	33.091438157716134	2.15
C 	41.074100947210624	33.3721115810545	2.15
C 	41.52702316641388	34.71794272326811	2.15
C 	42.919008234376726	34.99861614660646	2.15
C 	43.371930453579985	36.34444728882008	2.15
C 	44.763915521542835	36.625120712158434	2.15
C 	45.216837740746094	37.970951854372046	2.15
C 	46.608822808708936	38.2516252777104	2.15
C 	47.0617450279122	39.59745641992402	2.15
C 	48.453730095875045	39.87812984326237	2.15
C 	48.906652315078304	41.22396098547598	2.15
C 	50.29863738304115	41.50463440881435	2.15
C 	50.75155960224441	42.85046555102796	2.15
C 	52.14354467020726	43.131138974366316	2.15
C 	52.59646688941052	44.476970116579935	2.15
C 	53.98845195737336	44.757643539918284	2.15
C 	54.441374176576616	46.103474682131896	2.15
C 	55.833359244539466	46.38414810547026	2.15
C 	1.8449072871661045	1.6265045655519708	2.15
C 	2.297829506369364	2.9723357077655828	2.15
C 	3.689814574332209	3.2530091311039415	2.15
C 	4.142736793535469	4.5988402733175535	2.15
C 	5.534721861498314	4.879513696655913	2.15
C 	5.987644080701573	6.225344838869524	2.15
C 	7.379629148664418	6.506018262207883	2.15
C 	7.832551367867677	7.851849404421495	2.15
C 	9.224536435830522	8.132522827759853	2.15
C 	9.677458655033782	9.478353969973465	2.15
C 	11.069443722996628	9.759027393311825	2.15
C 	11.522365942199887	11.104858535525437	2.15
C 	12.914351010162733	11.385531958863796	2.15
C 	13.367273229365992	12.731363101077406	2.15
C 	14.759258297328836	13.012036524415766	2.15
C 	15.212180516532095	14.35786766662938	2.15
C 	16.60416558449494	14.638541089967736	2.15
C 	17.0570878036982	15.984372232181347	2.15
C 	18.449072871661045	16.265045655519707	2.15
C 	18.901995090864304	17.61087679773332	2.15
C 	20.29398015882715	17.89155022107168	2.15
C 	20.74690237803041	19.237381363285294	2.15
C 	22.138887445993255	19.51805478662365	2.15
C 	22.591809665196514	20.86388592883726	2.15
C 	23.983794733159357	21.14455935217562	2.15
C 	24.43671695236262	22.490390494389235	2.15
C 	25.828702020325466	22.77106391772759	2.15
C 	26.281624239528725	24.116895059941207	2.15
C 	27.673609307491567	24.397568483279564	2.15
C 	28.126531526694826	25.743399625493172	2.15
C 	29.518516594657672	26.024073048831532	2.15
C 	29.97143881386093	27.369904191045148	2.15
C 	31.363423881823778	27.650577614383508	2.15
C 	31.81634610102704	28.99640875659712	2.15
C 	33.20833116898988	29.277082179935473	2.15
C 	33.66125338819314	30.622913322149085	2.15
C 	35.05323845615599	30.90358674548745	2.15
C 	35.50616067535925	32.249417887701064	2.15
C 	36.89814574332209	32.53009131103941	2.15
C 	37.35106796252535	33.875922453253025	2.15
C 	38.74305303048819	34.15659587659139	2.15
C 	39.19597524969145	35.502427018805	2.15
C 	40.5879603176543	35.78310044214336	2.15
C 	41.04088253685756	37.12893158435698	2.15
C 	42.4328676048204	37.409605007695326	2.15
C 	42.88578982402366	38.75543614990894	2.15
C 	44.27777489198651	39.0361095732473	2.15
C 	44.73069711118977	40.381940715460914	2.15
C 	46.12268217915262	40.66261413879927	2.15
C 	46.57560439835588	42.00844528101288	2.15
C 	47.967589466318714	42.28911870435124	2.15
C 	48.42051168552198	43.63494984656485	2.15
C 	49.81249675348482	43.915623269903215	2.15
C 	50.26541897268808	45.26145441211683	2.15
C 	51.65740404065093	45.54212783545518	2.15
C 	3.2036739447758826	5.663997992192806	2.15
C 	3.6565961639791422	7.009829134406417	2.15
C 	5.048581231941988	7.290502557744777	2.15
C 	5.501503451145247	8.636333699958389	2.15
C 	6.893488519108092	8.917007123296747	2.15
C 	7.346410738311352	10.26283826551036	2.15
C 	8.738395806274196	10.543511688848717	2.15
C 	9.191318025477456	11.889342831062331	2.15
C 	10.583303093440302	12.17001625440069	2.15
C 	11.03622531264356	13.5158473966143	2.15
C 	12.428210380606405	13.79652081995266	2.15
C 	12.881132599809666	15.142351962166273	2.15
C 	14.27311766777251	15.42302538550463	2.15
C 	14.72603988697577	16.768856527718242	2.15
C 	16.118024954938615	17.0495299510566	2.15
C 	16.570947174141875	18.395361093270214	2.15
C 	17.962932242104717	18.67603451660857	2.15
C 	18.415854461307976	20.021865658822183	2.15
C 	19.807839529270822	20.302539082160543	2.15
C 	20.260761748474085	21.64837022437416	2.15
C 	21.652746816436927	21.929043647712515	2.15
C 	22.10566903564019	23.274874789926127	2.15
C 	23.497654103603033	23.555548213264483	2.15
C 	23.950576322806292	24.901379355478095	2.15
C 	25.342561390769138	25.182052778816455	2.15
C 	25.795483609972397	26.527883921030067	2.15
C 	27.187468677935243	26.808557344368428	2.15
C 	27.640390897138502	28.15438848658204	2.15
C 	29.032375965101345	28.4350619099204	2.15
C 	29.485298184304604	29.780893052134008	2.15
C 	30.877283252267453	30.06156647547237	2.15
C 	31.33020547147071	31.40739761768598	2.15
C 	32.722190539433555	31.68807104102434	2.15
C 	33.175112758636814	33.03390218323795	2.15
C 	34.56709782659966	33.31457560657631	2.15
C 	35.020020045802916	34.66040674878992	2.15
C 	36.412005113765765	34.94108017212828	2.15
C 	36.864927332969025	36.286911314341886	2.15
C 	38.25691240093187	36.56758473768026	2.15
C 	38.709834620135126	37.91341587989386	2.15
C 	40.101819688097976	38.194089303232225	2.15
C 	40.55474190730123	39.53992044544584	2.15
C 	41.94672697526408	39.820593868784194	2.15
C 	42.39964919446734	41.1664250109978	2.15
C 	43.791634262430186	41.44709843433617	2.15
C 	44.24455648163344	42.792929576549774	2.15
C 	45.63654154959629	43.07360299988814	2.15
C 	46.08946376879955	44.41943414210175	2.15
C 	47.4814488367624	44.700107565440106	2.15
C 	47.93437105596565	46.04593870765371	2.15
C 	49.32635612392849	46.32661213099208	2.15
C 	8.25225517671787	12.954500549937583	2.15
C 	8.70517739592113	14.300331692151195	2.15
C 	10.097162463883976	14.581005115489553	2.15
C 	10.550084683087235	15.926836257703167	2.15
C 	11.94206975105008	16.207509681041525	2.15
C 	12.394991970253338	17.553340823255137	2.15
C 	13.786977038216184	17.834014246593494	2.15
C 	14.239899257419443	19.179845388807106	2.15
C 	15.63188432538229	19.460518812145466	2.15
C 	16.084806544585547	20.806349954359078	2.15
C 	17.476791612548393	21.087023377697435	2.15
C 	17.929713831751652	22.432854519911047	2.15
C 	19.321698899714495	22.713527943249407	2.15
C 	19.774621118917757	24.059359085463022	2.15
C 	21.166606186880603	24.34003250880138	2.15
C 	21.619528406083862	25.68586365101499	2.15
C 	23.01151347404671	25.966537074353347	2.15
C 	23.464435693249968	27.31236821656696	2.15
C 	24.85642076121281	27.59304163990532	2.15
C 	25.309342980416073	28.938872782118935	2.15
C 	26.701328048378915	29.219546205457295	2.15
C 	27.154250267582174	30.5653773476709	2.15
C 	28.54623533554502	30.84605077100926	2.15
C 	28.99915755474828	32.19188191322287	2.15
C 	30.391142622711122	32.472555336561236	2.15
C 	30.844064841914385	33.81838647877485	2.15
C 	32.23604990987723	34.0990599021132	2.15
C 	32.68897212908049	35.444891044326816	2.15
C 	34.08095719704333	35.72556446766517	2.15
C 	34.53387941624659	37.071395609878785	2.15
C 	35.925864484209434	37.35206903321714	2.15
C 	36.37878670341269	38.69790017543075	2.15
C 	37.77077177137554	38.97857359876912	2.15
C 	38.2236939905788	40.32440474098273	2.15
C 	39.615679058541645	40.605078164321085	2.15
C 	40.06860127774491	41.950909306534705	2.15
C 	41.460586345707746	42.231582729873054	2.15
C 	41.913508564911005	43.577413872086666	2.15
C 	43.305493632873855	43.85808729542503	2.15
C 	43.75841585207712	45.20391843763864	2.15
C 	45.150400920039964	45.484591860977	2.15
C 	11.455929121493753	18.61849854213039	2.15
C 	11.908851340697012	19.964329684344	2.15
C 	13.300836408659858	20.24500310768236	2.15
C 	13.753758627863117	21.59083424989597	2.15
C 	15.145743695825962	21.87150767323433	2.15
C 	15.59866591502922	23.217338815447942	2.15
C 	16.990650982992065	23.498012238786302	2.15
C 	17.443573202195324	24.84384338099991	2.15
C 	18.83555827015817	25.124516804338274	2.15
C 	19.28848048936143	26.470347946551886	2.15
C 	20.680465557324275	26.751021369890243	2.15
C 	21.133387776527535	28.096852512103855	2.15
C 	22.52537284449038	28.377525935442215	2.15
C 	22.97829506369364	29.723357077655827	2.15
C 	24.370280131656486	30.004030500994187	2.15
C 	24.82320235085975	31.349861643207802	2.15
C 	26.215187418822588	31.630535066546155	2.15
C 	26.66810963802585	32.976366208759764	2.15
C 	28.060094705988693	33.25703963209813	2.15
C 	28.513016925191955	34.60287077431174	2.15
C 	29.9050019931548	34.8835441976501	2.15
C 	30.35792421235806	36.229375339863715	2.15
C 	31.7499092803209	36.510048763202064	2.15
C 	32.20283149952416	37.855879905415684	2.15
C 	33.59481656748701	38.13655332875404	2.15
C 	34.04773878669027	39.48238447096765	2.15
C 	35.43972385465311	39.76305789430601	2.15
C 	35.89264607385637	41.10888903651962	2.15
C 	37.28463114181921	41.38956245985798	2.15
C 	37.73755336102248	42.735393602071596	2.15
C 	39.12953842898532	43.01606702540995	2.15
C 	39.58246064818858	44.361898167623565	2.15
C 	40.97444571615142	44.64257159096192	2.15
C 	41.42736793535469	45.98840273317553	2.15
C 	42.81935300331753	46.26907615651389	2.15
C 	14.659603066269636	24.282496534323194	2.15
C 	15.112525285472895	25.62832767653681	2.15
C 	16.50451035343574	25.909001099875166	2.15
C 	16.957432572638997	27.254832242088774	2.15
C 	18.349417640601843	27.535505665427138	2.15
C 	18.8023398598051	28.881336807640746	2.15
C 	20.19432492776795	29.162010230979106	2.15
C 	20.64724714697121	30.507841373192722	2.15
C 	22.039232214934053	30.788514796531075	2.15
C 	22.492154434137312	32.13434593874469	2.15
C 	23.88413950210016	32.41501936208305	2.15
C 	24.337061721303417	33.76085050429666	2.15
C 	25.729046789266263	34.04152392763502	2.15
C 	26.181969008469526	35.38735506984863	2.15
C 	27.57395407643237	35.66802849318699	2.15
C 	28.026876295635628	37.0138596354006	2.15
C 	29.418861363598474	37.29453305873897	2.15
C 	29.871783582801733	38.640364200952575	2.15
C 	31.26376865076458	38.92103762429093	2.15
C 	31.716690869967834	40.266868766504544	2.15
C 	33.10867593793068	40.5475421898429	2.15
C 	33.561598157133936	41.89337333205651	2.15
C 	34.953583225096786	42.17404675539487	2.15
C 	35.406505444300045	43.51987789760848	2.15
C 	36.798490512262894	43.800551320946845	2.15
C 	37.25141273146615	45.14638246316046	2.15
C 	38.64339779942899	45.42705588649881	2.15
C 	17.86327701104552	29.946494526516002	2.15
C 	18.316199230248777	31.292325668729614	2.15
C 	19.708184298211624	31.572999092067967	2.15
C 	20.161106517414883	32.91883023428158	2.15
C 	21.55309158537773	33.19950365761994	2.15
C 	22.006013804580988	34.545334799833554	2.15
C 	23.397998872543834	34.82600822317191	2.15
C 	23.850921091747093	36.17183936538553	2.15
C 	25.242906159709936	36.45251278872388	2.15
C 	25.695828378913195	37.79834393093749	2.15
C 	27.08781344687604	38.079017354275855	2.15
C 	27.540735666079303	39.42484849648947	2.15
C 	28.932720734042146	39.70552191982783	2.15
C 	29.38564295324541	41.05135306204144	2.15
C 	30.77762802120825	41.33202648537979	2.15
C 	31.23055024041151	42.677857627593404	2.15
C 	32.62253530837435	42.95853105093177	2.15
C 	33.07545752757762	44.30436219314538	2.15
C 	34.467442595540454	44.58503561648374	2.15
C 	34.920364814743714	45.93086675869735	2.15
C 	36.31234988270656	46.211540182035705	2.15
C 	21.0669509558214	35.61049251870881	2.15
C 	21.519873175024664	36.95632366092242	2.15
C 	22.911858242987506	37.23699708426078	2.15
C 	23.364780462190765	38.58282822647439	2.15
C 	24.756765530153608	38.86350164981275	2.15
C 	25.20968774935687	40.20933279202636	2.15
C 	26.601672817319717	40.49000621536472	2.15
C 	27.054595036522976	41.835837357578335	2.15
C 	28.44658010448582	42.11651078091669	2.15
C 	28.899502323689077	43.4623419231303	2.15
C 	30.291487391651923	43.74301534646866	2.15
C 	30.74440961085518	45.08884648868227	2.15
C 	32.13639467881803	45.369519912020635	2.15
C 	24.270624900597284	41.274490510901614	2.15
C 	24.723547119800546	42.62032165311523	2.15
C 	26.11553218776339	42.90099507645358	2.15
C 	26.568454406966648	44.246826218667195	2.15
C 	27.960439474929498	44.52749964200556	2.15
C 	28.413361694132753	45.87333078421917	2.15
C 	29.8053467620956	46.15400420755753	2.15
H 	52.64742216651241	-1.6379374899602317	2.15
H 	55.10790281481293	-1.1418175656086271	2.15
H 	55.90849068115109	1.2370811435154392	2.15
H 	50.316374249789995	-0.8534531944233414	2.15
H 	56.46666947242271	2.8956758610322044	2.15
H 	58.311576759588824	4.522180426584181	2.15
H 	59.11216462592698	6.901079135708243	2.15
H 	46.140419045901446	-1.6954734644384195	2.15
H 	48.60089969420196	-1.1993535400868063	2.15
H 	59.67034341719861	8.559673853225021	2.15
H 	61.5152507043647	10.186178418776986	2.15
H 	62.31583857070286	12.565077127901043	2.15
H 	43.80937112917902	-0.9109891689015256	2.15
H 	62.874017361974495	14.223671845417824	2.15
H 	64.71892464914058	15.850176410969798	2.15
H 	65.51951251547875	18.229075120093864	2.15
H 	39.633415925290485	-1.7530094389165993	2.15
H 	42.093896573591	-1.2568895145649945	2.15
H 	66.07769130675037	19.887669837610627	2.15
H 	67.92259859391648	21.514174403162592	2.15
H 	68.72318646025464	23.893073112286658	2.15
H 	37.30236800856805	-0.9685251433797037	2.15
H 	69.28136525152622	25.551667829803428	2.15
H 	71.12627253869235	27.1781723953554	2.15
H 	71.92686040503051	29.55707110447946	2.15
H 	33.12641280467952	-1.8105454133947814	2.15
H 	35.586893452980036	-1.3144254890431755	2.15
H 	72.48503919630211	31.21566582199623	2.15
H 	74.32994648346823	32.842170387548215	2.15
H 	75.1305343498064	35.22106909667229	2.15
H 	30.795364887957096	-1.0260611178578856	2.15
H 	75.688713141078	36.87966381418904	2.15
H 	77.53362042824412	38.50616837974102	2.15
H 	78.33420829458228	40.885067088865085	2.15
H 	26.619409684068547	-1.8680813878729647	2.15
H 	29.07989033236908	-1.3719614635213575	2.15
H 	77.84806766502595	43.29605594995394	2.15
H 	24.288361767346128	-1.0835970923360727	2.15
H 	77.36192703546962	45.70704481104279	2.15
H 	20.112406563457586	-1.9256173623511517	2.15
H 	22.57288721175811	-1.4294974379995444	2.15
H 	73.24155360520676	47.09370367146367	2.15
H 	75.70203425350726	47.589823595815254	2.15
H 	17.781358646735157	-1.1411330668142567	2.15
H 	71.52607904961873	46.747803325800184	2.15
H 	13.605403442846626	-1.9831533368293337	2.15
H 	16.065884091147144	-1.4870334124777265	2.15
H 	66.73455048459577	47.036167696985466	2.15
H 	69.19503113289632	47.532287621337076	2.15
H 	11.27435552612419	-1.1986690412924412	2.15
H 	65.01907592900776	46.69026735132201	2.15
H 	8.94330760940176	-0.41418474575554676	2.15
H 	60.227547363984804	46.978631722507295	2.15
H 	62.688028012285336	47.474751646858884	2.15
H 	4.767352405513223	-1.2562050157706235	2.15
H 	7.227833053813746	-0.7600850914190177	2.15
H 	58.51207280839679	46.63273137684382	2.15
H 	2.4363044887907943	-0.47172072023373013	2.15
H 	53.72054424337384	46.921095748029096	2.15
H 	56.18102489167436	47.417215672380706	2.15
H 	0.7764117068284278	1.411058064538723	2.15
H 	1.5769995731665831	3.7899567736627837	2.15
H 	52.00506968778583	46.57519540236563	2.15
H 	2.1351783644382056	5.448551491179559	2.15
H 	2.9357662307763612	7.827450200303618	2.15
H 	4.780673517942467	9.45395476585559	2.15
H 	6.625580805108574	11.080459331407564	2.15
H 	47.213541122762855	46.863559773550904	2.15
H 	49.67402177106339	47.35967969790253	2.15
H 	7.1837595963801935	12.739054048924334	2.15
H 	7.984347462718349	15.117952758048395	2.15
H 	9.829254749884456	16.74445732360037	2.15
H 	45.49806656717486	46.517659427887445	2.15
H 	10.387433541156076	18.403052041117142	2.15
H 	11.188021407494233	20.7819507502412	2.15
H 	13.032928694660336	22.40845531579317	2.15
H 	40.706538002151916	46.80602379907274	2.15
H 	43.16701865045243	47.30214372342434	2.15
H 	13.59110748593196	24.067050033309943	2.15
H 	14.391695352270117	26.445948742434013	2.15
H 	16.23660263943621	28.07245330798597	2.15
H 	38.99106344656388	46.46012345340927	2.15
H 	16.79478143070784	29.731048025502755	2.15
H 	17.595369297046	32.10994673462682	2.15
H 	19.440276584212103	33.73645130017878	2.15
H 	34.199534881540934	46.74848782459455	2.15
H 	36.66001552984147	47.24460774894615	2.15
H 	19.998455375483722	35.39504601769556	2.15
H 	20.799043241821888	37.77394472681963	2.15
H 	22.643950528987986	39.40044929237159	2.15
H 	32.484060325952925	46.40258747893108	2.15
H 	23.202129320259605	41.05904400988837	2.15
H 	24.002717186597767	43.437942719012426	2.15
H 	25.84762447376386	45.06444728456439	2.15
H 	27.69253176092997	46.69095185011637	2.15
H 	30.1530124092305	47.187071774467974	2.15
