2324

C 	0.0	0.0	0.0
C 	1.2297560733739028	0.7099999999999999	0.0
C 	2.4595121467478056	-2.3647750424515833e-16	0.0
C 	3.689268220121708	0.7099999999999995	0.0
C 	4.919024293495611	-4.729550084903167e-16	0.0
C 	6.148780366869514	0.7099999999999993	0.0
C 	7.378536440243416	-7.09432512735475e-16	0.0
C 	8.60829251361732	0.7099999999999991	0.0
C 	9.838048586991222	-9.459100169806333e-16	0.0
C 	11.067804660365125	0.7099999999999989	0.0
C 	12.297560733739026	-1.1823875212257916e-15	0.0
C 	13.527316807112928	0.7099999999999986	0.0
C 	14.757072880486833	-1.41886502547095e-15	0.0
C 	15.986828953860735	0.7099999999999984	0.0
C 	17.21658502723464	-7.671641100159832e-16	0.0
C 	18.44634110060854	0.7099999999999982	0.0
C 	19.676097173982445	-1.8918200339612667e-15	0.0
C 	20.905853247356347	0.7099999999999989	0.0
C 	22.135609320730246	-2.128297538206425e-15	0.0
C 	23.36536539410415	0.7099999999999967	0.0
C 	24.59512146747805	-2.364775042451583e-15	0.0
C 	25.824877540851954	0.7099999999999983	0.0
C 	27.05463361422586	-8.248957072964913e-16	0.0
C 	28.284389687599763	0.7099999999999999	0.0
C 	29.514145760973665	-2.8377300509419e-15	0.0
C 	30.743901834347565	0.7099999999999961	0.0
C 	31.97365790772147	-3.0742075551870582e-15	0.0
C 	33.20341398109537	0.7099999999999976	0.0
C 	34.43317005446928	-1.5343282200319664e-15	0.0
C 	35.66292612784318	0.7099999999999992	0.0
C 	36.892682201217085	-1.7708057242771246e-15	0.0
C 	38.122438274590984	0.7099999999999972	0.0
C 	39.35219434796489	-3.783640067922533e-15	0.0
C 	40.58195042133879	0.7099999999999969	0.0
C 	41.811706494712695	-4.67403893367191e-16	0.0
C 	43.0414625680866	0.7100000000000002	0.0
C 	44.27121864146049	-4.25659507641285e-15	0.0
C 	45.5009747148344	0.7099999999999964	0.0
C 	46.730730788208305	-9.403589018575075e-16	0.0
C 	47.96048686158221	0.7099999999999997	0.0
C 	49.1902429349561	-4.729550084903166e-15	0.0
C 	50.41999900833001	0.709999999999996	0.0
C 	51.64975508170391	-1.413313910347824e-15	0.0
C 	52.879511155077815	0.7099999999999993	0.0
C 	54.10926722845172	-1.6497914145929826e-15	0.0
C 	55.33902330182562	0.7099999999999991	0.0
C 	56.56877937519952	-5.438982597638641e-15	0.0
C 	57.798535448573425	0.7099999999999953	0.0
C 	59.02829152194733	-5.6754601018838e-15	0.0
C 	60.25804759532124	0.709999999999995	0.0
C 	1.2297560733739028	2.1299999999999994	0.0
C 	2.4595121467478056	2.8399999999999994	0.0
C 	3.689268220121708	2.1299999999999994	0.0
C 	4.919024293495611	2.8399999999999994	0.0
C 	6.148780366869514	2.129999999999999	0.0
C 	7.378536440243416	2.839999999999999	0.0
C 	8.60829251361732	2.1299999999999986	0.0
C 	9.838048586991222	2.8399999999999985	0.0
C 	11.067804660365123	2.129999999999998	0.0
C 	12.297560733739028	2.839999999999999	0.0
C 	13.527316807112928	2.1299999999999977	0.0
C 	14.757072880486833	2.839999999999998	0.0
C 	15.986828953860735	2.129999999999998	0.0
C 	17.216585027234636	2.839999999999997	0.0
C 	18.446341100608542	2.129999999999998	0.0
C 	19.676097173982445	2.8399999999999985	0.0
C 	20.905853247356344	2.1299999999999977	0.0
C 	22.13560932073025	2.8399999999999985	0.0
C 	23.36536539410415	2.129999999999997	0.0
C 	24.595121467478055	2.839999999999997	0.0
C 	25.824877540851954	2.1299999999999963	0.0
C 	27.05463361422586	2.839999999999997	0.0
C 	28.284389687599763	2.129999999999998	0.0
C 	29.514145760973665	2.8399999999999985	0.0
C 	30.743901834347568	2.129999999999996	0.0
C 	31.97365790772147	2.8399999999999967	0.0
C 	33.20341398109537	2.129999999999996	0.0
C 	34.43317005446928	2.8399999999999963	0.0
C 	35.66292612784318	2.1299999999999972	0.0
C 	36.89268220121708	2.8399999999999963	0.0
C 	38.122438274590984	2.129999999999997	0.0
C 	39.35219434796489	2.8399999999999976	0.0
C 	40.58195042133879	2.1299999999999986	0.0
C 	41.81170649471269	2.839999999999996	0.0
C 	43.0414625680866	2.129999999999998	0.0
C 	44.2712186414605	2.8399999999999954	0.0
C 	45.5009747148344	2.129999999999998	0.0
C 	46.7307307882083	2.8399999999999954	0.0
C 	47.96048686158221	2.1299999999999977	0.0
C 	49.19024293495611	2.839999999999995	0.0
C 	50.41999900833001	2.1299999999999977	0.0
C 	51.64975508170391	2.8399999999999945	0.0
C 	52.879511155077815	2.1299999999999972	0.0
C 	54.10926722845171	2.8399999999999945	0.0
C 	55.33902330182563	2.130000000000001	0.0
C 	56.56877937519952	2.8399999999999976	0.0
C 	57.798535448573425	2.129999999999997	0.0
C 	59.028291521947324	2.839999999999994	0.0
C 	60.25804759532124	2.129999999999997	0.0
C 	61.487803668695136	2.8399999999999936	0.0
C 	2.4595121467478056	4.259999999999999	0.0
C 	3.689268220121708	4.969999999999999	0.0
C 	4.919024293495611	4.259999999999999	0.0
C 	6.148780366869514	4.969999999999999	0.0
C 	7.378536440243416	4.259999999999999	0.0
C 	8.60829251361732	4.969999999999999	0.0
C 	9.83804858699122	4.259999999999998	0.0
C 	11.067804660365125	4.969999999999999	0.0
C 	12.297560733739028	4.259999999999998	0.0
C 	13.52731680711293	4.969999999999998	0.0
C 	14.757072880486831	4.259999999999998	0.0
C 	15.986828953860735	4.969999999999998	0.0
C 	17.21658502723464	4.259999999999997	0.0
C 	18.446341100608542	4.969999999999998	0.0
C 	19.676097173982445	4.259999999999999	0.0
C 	20.905853247356347	4.969999999999997	0.0
C 	22.135609320730246	4.259999999999996	0.0
C 	23.365365394104153	4.969999999999997	0.0
C 	24.595121467478055	4.259999999999998	0.0
C 	25.824877540851958	4.969999999999997	0.0
C 	27.054633614225857	4.259999999999995	0.0
C 	28.28438968759976	4.969999999999996	0.0
C 	29.514145760973665	4.259999999999997	0.0
C 	30.743901834347568	4.969999999999997	0.0
C 	31.97365790772147	4.259999999999996	0.0
C 	33.20341398109537	4.969999999999995	0.0
C 	34.43317005446927	4.2599999999999945	0.0
C 	35.66292612784318	4.969999999999995	0.0
C 	36.892682201217085	4.259999999999996	0.0
C 	38.122438274590984	4.969999999999997	0.0
C 	39.35219434796489	4.259999999999997	0.0
C 	40.58195042133879	4.969999999999994	0.0
C 	41.81170649471269	4.259999999999995	0.0
C 	43.041462568086594	4.969999999999996	0.0
C 	44.2712186414605	4.259999999999997	0.0
C 	45.500974714834406	4.969999999999998	0.0
C 	46.7307307882083	4.259999999999994	0.0
C 	47.960486861582204	4.9699999999999935	0.0
C 	49.19024293495611	4.259999999999996	0.0
C 	50.41999900833001	4.969999999999997	0.0
C 	51.64975508170391	4.259999999999993	0.0
C 	52.879511155077815	4.9699999999999935	0.0
C 	54.10926722845171	4.259999999999996	0.0
C 	55.33902330182562	4.969999999999997	0.0
C 	56.568779375199526	4.259999999999996	0.0
C 	57.798535448573425	4.969999999999996	0.0
C 	59.028291521947324	4.259999999999995	0.0
C 	60.25804759532123	4.969999999999996	0.0
C 	61.487803668695136	4.259999999999992	0.0
C 	62.717559742069035	4.969999999999993	0.0
C 	3.6892682201217086	6.389999999999999	0.0
C 	4.919024293495611	7.099999999999999	0.0
C 	6.148780366869514	6.389999999999999	0.0
C 	7.378536440243416	7.099999999999999	0.0
C 	8.608292513617318	6.389999999999998	0.0
C 	9.838048586991222	7.099999999999999	0.0
C 	11.067804660365125	6.389999999999998	0.0
C 	12.297560733739028	7.099999999999998	0.0
C 	13.52731680711293	6.389999999999999	0.0
C 	14.757072880486833	7.099999999999998	0.0
C 	15.986828953860735	6.389999999999998	0.0
C 	17.216585027234636	7.099999999999997	0.0
C 	18.44634110060854	6.389999999999997	0.0
C 	19.676097173982445	7.099999999999998	0.0
C 	20.905853247356347	6.389999999999998	0.0
C 	22.13560932073025	7.099999999999997	0.0
C 	23.365365394104153	6.389999999999998	0.0
C 	24.59512146747805	7.099999999999997	0.0
C 	25.824877540851958	6.389999999999998	0.0
C 	27.054633614225857	7.099999999999997	0.0
C 	28.28438968759976	6.389999999999999	0.0
C 	29.514145760973662	7.099999999999997	0.0
C 	30.743901834347568	6.389999999999999	0.0
C 	31.97365790772147	7.099999999999998	0.0
C 	33.20341398109537	6.389999999999995	0.0
C 	34.43317005446928	7.099999999999994	0.0
C 	35.66292612784318	6.389999999999995	0.0
C 	36.892682201217085	7.099999999999996	0.0
C 	38.122438274590984	6.389999999999996	0.0
C 	39.35219434796489	7.099999999999997	0.0
C 	40.58195042133879	6.389999999999994	0.0
C 	41.811706494712695	7.099999999999995	0.0
C 	43.041462568086594	6.389999999999996	0.0
C 	44.2712186414605	7.099999999999997	0.0
C 	45.500974714834406	6.389999999999998	0.0
C 	46.730730788208305	7.099999999999998	0.0
C 	47.960486861582204	6.389999999999995	0.0
C 	49.19024293495611	7.099999999999996	0.0
C 	50.41999900833001	6.389999999999995	0.0
C 	51.649755081703915	7.099999999999996	0.0
C 	52.879511155077815	6.389999999999995	0.0
C 	54.10926722845172	7.099999999999996	0.0
C 	55.33902330182562	6.389999999999995	0.0
C 	56.568779375199526	7.099999999999995	0.0
C 	57.79853544857343	6.389999999999998	0.0
C 	59.02829152194733	7.099999999999999	0.0
C 	60.25804759532123	6.389999999999994	0.0
C 	61.487803668695136	7.099999999999995	0.0
C 	62.71755974206904	6.389999999999994	0.0
C 	63.94731581544294	7.099999999999995	0.0
C 	4.919024293495611	8.519999999999998	0.0
C 	6.148780366869514	9.229999999999999	0.0
C 	7.378536440243416	8.519999999999998	0.0
C 	8.60829251361732	9.229999999999999	0.0
C 	9.838048586991222	8.519999999999998	0.0
C 	11.067804660365125	9.229999999999999	0.0
C 	12.297560733739028	8.519999999999998	0.0
C 	13.52731680711293	9.229999999999997	0.0
C 	14.757072880486833	8.519999999999998	0.0
C 	15.986828953860737	9.229999999999999	0.0
C 	17.216585027234636	8.519999999999998	0.0
C 	18.44634110060854	9.229999999999997	0.0
C 	19.67609717398244	8.519999999999996	0.0
C 	20.905853247356347	9.229999999999997	0.0
C 	22.13560932073025	8.519999999999998	0.0
C 	23.365365394104153	9.229999999999999	0.0
C 	24.595121467478055	8.519999999999996	0.0
C 	25.824877540851954	9.229999999999995	0.0
C 	27.05463361422586	8.519999999999996	0.0
C 	28.284389687599763	9.229999999999997	0.0
C 	29.514145760973662	8.519999999999996	0.0
C 	30.743901834347565	9.229999999999995	0.0
C 	31.97365790772147	8.52	0.0
C 	33.20341398109537	9.229999999999997	0.0
C 	34.43317005446928	8.519999999999994	0.0
C 	35.66292612784318	9.229999999999995	0.0
C 	36.89268220121708	8.519999999999992	0.0
C 	38.122438274590984	9.229999999999993	0.0
C 	39.35219434796489	8.519999999999998	0.0
C 	40.58195042133879	9.229999999999995	0.0
C 	41.811706494712695	8.519999999999994	0.0
C 	43.0414625680866	9.229999999999995	0.0
C 	44.27121864146049	8.519999999999992	0.0
C 	45.5009747148344	9.229999999999993	0.0
C 	46.730730788208305	8.519999999999998	0.0
C 	47.960486861582204	9.229999999999995	0.0
C 	49.19024293495611	8.519999999999996	0.0
C 	50.41999900833001	9.229999999999993	0.0
C 	51.64975508170391	8.519999999999994	0.0
C 	52.879511155077815	9.229999999999995	0.0
C 	54.10926722845171	8.51999999999999	0.0
C 	55.33902330182562	9.229999999999992	0.0
C 	56.568779375199526	8.519999999999998	0.0
C 	57.798535448573425	9.229999999999995	0.0
C 	59.02829152194733	8.519999999999994	0.0
C 	60.25804759532123	9.229999999999993	0.0
C 	61.48780366869513	8.519999999999992	0.0
C 	62.717559742069035	9.229999999999993	0.0
C 	63.94731581544294	8.519999999999992	0.0
C 	65.17707188881684	9.22999999999999	0.0
C 	6.148780366869514	10.649999999999997	0.0
C 	7.378536440243416	11.359999999999998	0.0
C 	8.608292513617318	10.649999999999997	0.0
C 	9.838048586991222	11.359999999999998	0.0
C 	11.067804660365125	10.649999999999997	0.0
C 	12.297560733739028	11.359999999999996	0.0
C 	13.52731680711293	10.649999999999997	0.0
C 	14.757072880486831	11.359999999999996	0.0
C 	15.986828953860735	10.649999999999997	0.0
C 	17.216585027234636	11.359999999999996	0.0
C 	18.44634110060854	10.649999999999997	0.0
C 	19.676097173982445	11.359999999999998	0.0
C 	20.905853247356347	10.649999999999997	0.0
C 	22.13560932073025	11.359999999999996	0.0
C 	23.365365394104153	10.649999999999997	0.0
C 	24.595121467478055	11.359999999999996	0.0
C 	25.824877540851958	10.649999999999997	0.0
C 	27.05463361422586	11.359999999999996	0.0
C 	28.284389687599763	10.649999999999995	0.0
C 	29.514145760973662	11.359999999999994	0.0
C 	30.743901834347565	10.649999999999995	0.0
C 	31.97365790772147	11.359999999999996	0.0
C 	33.20341398109537	10.649999999999997	0.0
C 	34.43317005446928	11.359999999999998	0.0
C 	35.66292612784318	10.649999999999991	0.0
C 	36.89268220121708	11.359999999999992	0.0
C 	38.122438274590984	10.649999999999993	0.0
C 	39.35219434796489	11.359999999999994	0.0
C 	40.58195042133879	10.649999999999993	0.0
C 	41.811706494712695	11.359999999999994	0.0
C 	43.041462568086594	10.649999999999991	0.0
C 	44.2712186414605	11.359999999999992	0.0
C 	45.5009747148344	10.649999999999993	0.0
C 	46.730730788208305	11.359999999999994	0.0
C 	47.960486861582204	10.649999999999995	0.0
C 	49.19024293495611	11.359999999999996	0.0
C 	50.41999900833001	10.649999999999993	0.0
C 	51.649755081703915	11.359999999999994	0.0
C 	52.879511155077815	10.649999999999995	0.0
C 	54.10926722845172	11.359999999999996	0.0
C 	55.33902330182562	10.649999999999993	0.0
C 	56.568779375199526	11.359999999999994	0.0
C 	57.798535448573425	10.649999999999993	0.0
C 	59.02829152194733	11.359999999999992	0.0
C 	60.25804759532124	10.649999999999995	0.0
C 	61.487803668695136	11.359999999999996	0.0
C 	62.717559742069035	10.649999999999991	0.0
C 	63.94731581544294	11.359999999999992	0.0
C 	65.17707188881684	10.649999999999991	0.0
C 	66.40682796219075	11.359999999999992	0.0
C 	7.378536440243417	12.779999999999998	0.0
C 	8.60829251361732	13.489999999999998	0.0
C 	9.838048586991222	12.78	0.0
C 	11.067804660365125	13.489999999999997	0.0
C 	12.297560733739028	12.779999999999998	0.0
C 	13.527316807112932	13.489999999999998	0.0
C 	14.757072880486833	12.779999999999998	0.0
C 	15.986828953860737	13.489999999999997	0.0
C 	17.216585027234636	12.779999999999996	0.0
C 	18.446341100608542	13.489999999999997	0.0
C 	19.676097173982445	12.779999999999998	0.0
C 	20.905853247356347	13.489999999999997	0.0
C 	22.13560932073025	12.779999999999996	0.0
C 	23.36536539410415	13.489999999999995	0.0
C 	24.595121467478055	12.779999999999996	0.0
C 	25.824877540851958	13.489999999999997	0.0
C 	27.05463361422586	12.779999999999998	0.0
C 	28.284389687599763	13.489999999999997	0.0
C 	29.514145760973662	12.779999999999996	0.0
C 	30.743901834347568	13.489999999999997	0.0
C 	31.97365790772147	12.779999999999996	0.0
C 	33.20341398109537	13.489999999999997	0.0
C 	34.43317005446928	12.779999999999998	0.0
C 	35.66292612784318	13.489999999999995	0.0
C 	36.89268220121708	12.779999999999994	0.0
C 	38.122438274590984	13.489999999999995	0.0
C 	39.35219434796489	12.779999999999996	0.0
C 	40.581950421338796	13.489999999999997	0.0
C 	41.811706494712695	12.779999999999996	0.0
C 	43.041462568086594	13.489999999999993	0.0
C 	44.2712186414605	12.779999999999994	0.0
C 	45.5009747148344	13.489999999999995	0.0
C 	46.730730788208305	12.779999999999996	0.0
C 	47.96048686158221	13.489999999999997	0.0
C 	49.19024293495611	12.779999999999998	0.0
C 	50.41999900833001	13.489999999999995	0.0
C 	51.649755081703915	12.779999999999996	0.0
C 	52.879511155077815	13.489999999999993	0.0
C 	54.10926722845172	12.779999999999998	0.0
C 	55.33902330182563	13.489999999999998	0.0
C 	56.56877937519952	12.779999999999998	0.0
C 	57.798535448573425	13.489999999999997	0.0
C 	59.02829152194733	12.779999999999994	0.0
C 	60.25804759532123	13.489999999999991	0.0
C 	61.487803668695136	12.779999999999998	0.0
C 	62.71755974206904	13.489999999999998	0.0
C 	63.94731581544294	12.779999999999994	0.0
C 	65.17707188881684	13.489999999999995	0.0
C 	66.40682796219075	12.77999999999999	0.0
C 	67.63658403556465	13.489999999999988	0.0
C 	8.60829251361732	14.909999999999998	0.0
C 	9.838048586991222	15.619999999999996	0.0
C 	11.067804660365125	14.909999999999997	0.0
C 	12.297560733739026	15.619999999999996	0.0
C 	13.527316807112934	14.909999999999998	0.0
C 	14.757072880486831	15.619999999999996	0.0
C 	15.986828953860737	14.909999999999998	0.0
C 	17.21658502723464	15.619999999999997	0.0
C 	18.446341100608542	14.909999999999997	0.0
C 	19.676097173982445	15.619999999999996	0.0
C 	20.905853247356347	14.909999999999997	0.0
C 	22.135609320730246	15.619999999999996	0.0
C 	23.365365394104153	14.909999999999995	0.0
C 	24.595121467478055	15.619999999999996	0.0
C 	25.824877540851958	14.909999999999997	0.0
C 	27.05463361422586	15.619999999999996	0.0
C 	28.284389687599763	14.909999999999997	0.0
C 	29.514145760973665	15.619999999999996	0.0
C 	30.743901834347568	14.909999999999997	0.0
C 	31.973657907721474	15.619999999999997	0.0
C 	33.203413981095366	14.909999999999993	0.0
C 	34.43317005446927	15.619999999999994	0.0
C 	35.662926127843185	14.909999999999998	0.0
C 	36.892682201217085	15.619999999999996	0.0
C 	38.122438274590984	14.909999999999995	0.0
C 	39.35219434796489	15.619999999999996	0.0
C 	40.58195042133879	14.909999999999993	0.0
C 	41.811706494712695	15.619999999999994	0.0
C 	43.0414625680866	14.909999999999998	0.0
C 	44.2712186414605	15.619999999999996	0.0
C 	45.5009747148344	14.909999999999995	0.0
C 	46.730730788208305	15.619999999999996	0.0
C 	47.960486861582204	14.909999999999993	0.0
C 	49.19024293495611	15.619999999999994	0.0
C 	50.41999900833002	14.909999999999998	0.0
C 	51.649755081703915	15.619999999999996	0.0
C 	52.87951115507782	14.909999999999997	0.0
C 	54.10926722845171	15.619999999999994	0.0
C 	55.33902330182562	14.909999999999995	0.0
C 	56.568779375199526	15.619999999999994	0.0
C 	57.798535448573425	14.909999999999991	0.0
C 	59.028291521947324	15.619999999999992	0.0
C 	60.25804759532124	14.909999999999998	0.0
C 	61.487803668695136	15.619999999999996	0.0
C 	62.717559742069035	14.909999999999993	0.0
C 	63.94731581544294	15.619999999999994	0.0
C 	65.17707188881684	14.909999999999993	0.0
C 	66.40682796219075	15.619999999999994	0.0
C 	67.63658403556465	14.909999999999997	0.0
C 	68.86634010893854	15.61999999999999	0.0
C 	9.838048586991222	17.039999999999996	0.0
C 	11.067804660365127	17.749999999999996	0.0
C 	12.297560733739028	17.039999999999996	0.0
C 	13.527316807112932	17.749999999999996	0.0
C 	14.757072880486833	17.039999999999996	0.0
C 	15.986828953860735	17.749999999999996	0.0
C 	17.21658502723464	17.039999999999996	0.0
C 	18.446341100608546	17.749999999999996	0.0
C 	19.676097173982445	17.039999999999996	0.0
C 	20.905853247356347	17.749999999999996	0.0
C 	22.13560932073025	17.039999999999996	0.0
C 	23.365365394104153	17.749999999999996	0.0
C 	24.595121467478055	17.039999999999996	0.0
C 	25.82487754085196	17.749999999999996	0.0
C 	27.05463361422586	17.039999999999996	0.0
C 	28.28438968759977	17.75	0.0
C 	29.514145760973665	17.039999999999996	0.0
C 	30.74390183434757	17.749999999999996	0.0
C 	31.973657907721467	17.039999999999992	0.0
C 	33.20341398109537	17.749999999999993	0.0
C 	34.43317005446927	17.039999999999996	0.0
C 	35.66292612784318	17.749999999999996	0.0
C 	36.892682201217085	17.039999999999996	0.0
C 	38.122438274590984	17.749999999999996	0.0
C 	39.35219434796488	17.039999999999992	0.0
C 	40.58195042133879	17.749999999999993	0.0
C 	41.811706494712695	17.039999999999992	0.0
C 	43.041462568086594	17.749999999999993	0.0
C 	44.2712186414605	17.039999999999996	0.0
C 	45.500974714834406	17.749999999999996	0.0
C 	46.7307307882083	17.039999999999992	0.0
C 	47.960486861582204	17.749999999999993	0.0
C 	49.19024293495611	17.039999999999992	0.0
C 	50.41999900833002	17.749999999999993	0.0
C 	51.649755081703915	17.039999999999996	0.0
C 	52.87951115507782	17.749999999999996	0.0
C 	54.10926722845172	17.039999999999992	0.0
C 	55.33902330182562	17.749999999999993	0.0
C 	56.568779375199526	17.039999999999996	0.0
C 	57.79853544857343	17.749999999999996	0.0
C 	59.028291521947324	17.039999999999992	0.0
C 	60.25804759532123	17.749999999999993	0.0
C 	61.487803668695136	17.039999999999996	0.0
C 	62.71755974206904	17.749999999999996	0.0
C 	63.94731581544294	17.04	0.0
C 	65.17707188881684	17.749999999999993	0.0
C 	66.40682796219075	17.039999999999996	0.0
C 	67.63658403556464	17.74999999999999	0.0
C 	68.86634010893856	17.03999999999999	0.0
C 	70.09609618231246	17.74999999999999	0.0
C 	11.067804660365125	19.169999999999995	0.0
C 	12.297560733739026	19.879999999999995	0.0
C 	13.52731680711293	19.169999999999995	0.0
C 	14.757072880486831	19.879999999999995	0.0
C 	15.986828953860737	19.169999999999998	0.0
C 	17.216585027234636	19.879999999999992	0.0
C 	18.446341100608542	19.169999999999995	0.0
C 	19.676097173982445	19.879999999999995	0.0
C 	20.905853247356347	19.169999999999995	0.0
C 	22.135609320730246	19.879999999999995	0.0
C 	23.365365394104153	19.169999999999995	0.0
C 	24.59512146747805	19.879999999999995	0.0
C 	25.824877540851958	19.169999999999995	0.0
C 	27.05463361422586	19.879999999999995	0.0
C 	28.284389687599763	19.169999999999995	0.0
C 	29.51414576097367	19.879999999999995	0.0
C 	30.743901834347565	19.16999999999999	0.0
C 	31.97365790772147	19.879999999999992	0.0
C 	33.20341398109537	19.169999999999995	0.0
C 	34.43317005446927	19.879999999999992	0.0
C 	35.66292612784318	19.169999999999995	0.0
C 	36.89268220121708	19.879999999999992	0.0
C 	38.122438274590984	19.169999999999995	0.0
C 	39.35219434796488	19.879999999999992	0.0
C 	40.58195042133879	19.16999999999999	0.0
C 	41.81170649471269	19.87999999999999	0.0
C 	43.0414625680866	19.169999999999995	0.0
C 	44.27121864146049	19.879999999999992	0.0
C 	45.5009747148344	19.16999999999999	0.0
C 	46.730730788208305	19.879999999999992	0.0
C 	47.960486861582204	19.169999999999995	0.0
C 	49.1902429349561	19.879999999999992	0.0
C 	50.41999900833002	19.169999999999995	0.0
C 	51.649755081703915	19.879999999999992	0.0
C 	52.879511155077815	19.16999999999999	0.0
C 	54.10926722845172	19.879999999999992	0.0
C 	55.33902330182562	19.16999999999999	0.0
C 	56.56877937519952	19.879999999999992	0.0
C 	57.79853544857343	19.169999999999995	0.0
C 	59.02829152194733	19.879999999999992	0.0
C 	60.25804759532123	19.169999999999995	0.0
C 	61.48780366869513	19.879999999999992	0.0
C 	62.717559742069035	19.16999999999999	0.0
C 	63.94731581544294	19.879999999999992	0.0
C 	65.17707188881684	19.169999999999995	0.0
C 	66.40682796219075	19.87999999999999	0.0
C 	67.63658403556465	19.169999999999995	0.0
C 	68.86634010893854	19.87999999999999	0.0
C 	70.09609618231245	19.16999999999999	0.0
C 	71.32585225568636	19.879999999999992	0.0
C 	12.297560733739028	21.299999999999994	0.0
C 	13.527316807112932	22.009999999999994	0.0
C 	14.757072880486831	21.299999999999994	0.0
C 	15.986828953860735	22.009999999999994	0.0
C 	17.216585027234636	21.299999999999994	0.0
C 	18.44634110060854	22.009999999999994	0.0
C 	19.676097173982445	21.299999999999994	0.0
C 	20.905853247356347	22.009999999999994	0.0
C 	22.13560932073025	21.299999999999994	0.0
C 	23.365365394104153	22.009999999999994	0.0
C 	24.595121467478055	21.299999999999994	0.0
C 	25.824877540851958	22.009999999999994	0.0
C 	27.05463361422586	21.299999999999994	0.0
C 	28.284389687599766	22.009999999999994	0.0
C 	29.514145760973662	21.29999999999999	0.0
C 	30.743901834347568	22.00999999999999	0.0
C 	31.97365790772147	21.299999999999994	0.0
C 	33.20341398109537	22.009999999999994	0.0
C 	34.43317005446928	21.299999999999994	0.0
C 	35.662926127843185	22.009999999999994	0.0
C 	36.89268220121708	21.299999999999994	0.0
C 	38.122438274590984	22.009999999999994	0.0
C 	39.35219434796489	21.299999999999994	0.0
C 	40.58195042133879	22.009999999999994	0.0
C 	41.811706494712695	21.299999999999994	0.0
C 	43.0414625680866	22.009999999999994	0.0
C 	44.2712186414605	21.29999999999999	0.0
C 	45.5009747148344	22.00999999999999	0.0
C 	46.730730788208305	21.299999999999994	0.0
C 	47.96048686158221	22.009999999999994	0.0
C 	49.19024293495611	21.299999999999994	0.0
C 	50.41999900833002	22.009999999999994	0.0
C 	51.649755081703915	21.299999999999994	0.0
C 	52.879511155077815	22.00999999999999	0.0
C 	54.10926722845172	21.299999999999994	0.0
C 	55.33902330182563	22.009999999999994	0.0
C 	56.568779375199526	21.29999999999999	0.0
C 	57.798535448573425	22.00999999999999	0.0
C 	59.02829152194733	21.299999999999994	0.0
C 	60.25804759532124	22.009999999999994	0.0
C 	61.48780366869513	21.29999999999999	0.0
C 	62.717559742069035	22.00999999999999	0.0
C 	63.94731581544294	21.299999999999994	0.0
C 	65.17707188881684	22.009999999999987	0.0
C 	66.40682796219075	21.299999999999994	0.0
C 	67.63658403556465	22.009999999999994	0.0
C 	68.86634010893854	21.29999999999999	0.0
C 	70.09609618231245	22.00999999999999	0.0
C 	71.32585225568636	21.299999999999983	0.0
C 	72.55560832906026	22.00999999999999	0.0
C 	13.527316807112932	23.429999999999996	0.0
C 	14.757072880486836	24.139999999999997	0.0
C 	15.986828953860737	23.429999999999996	0.0
C 	17.216585027234643	24.139999999999997	0.0
C 	18.446341100608542	23.429999999999996	0.0
C 	19.676097173982445	24.139999999999997	0.0
C 	20.90585324735635	23.429999999999996	0.0
C 	22.135609320730254	24.139999999999997	0.0
C 	23.365365394104156	23.429999999999993	0.0
C 	24.595121467478062	24.139999999999997	0.0
C 	25.824877540851958	23.429999999999993	0.0
C 	27.054633614225864	24.139999999999993	0.0
C 	28.284389687599766	23.429999999999996	0.0
C 	29.514145760973673	24.139999999999997	0.0
C 	30.743901834347575	23.429999999999996	0.0
C 	31.973657907721478	24.139999999999997	0.0
C 	33.20341398109537	23.429999999999993	0.0
C 	34.43317005446928	24.139999999999993	0.0
C 	35.66292612784318	23.429999999999993	0.0
C 	36.892682201217085	24.139999999999993	0.0
C 	38.122438274590984	23.429999999999993	0.0
C 	39.35219434796489	24.139999999999993	0.0
C 	40.58195042133879	23.429999999999996	0.0
C 	41.811706494712695	24.139999999999993	0.0
C 	43.041462568086594	23.42999999999999	0.0
C 	44.2712186414605	24.13999999999999	0.0
C 	45.5009747148344	23.429999999999993	0.0
C 	46.730730788208305	24.139999999999993	0.0
C 	47.96048686158221	23.429999999999993	0.0
C 	49.19024293495611	24.139999999999993	0.0
C 	50.41999900833001	23.429999999999993	0.0
C 	51.649755081703915	24.13999999999999	0.0
C 	52.87951115507782	23.429999999999993	0.0
C 	54.10926722845172	24.139999999999993	0.0
C 	55.33902330182563	23.429999999999993	0.0
C 	56.56877937519953	24.139999999999993	0.0
C 	57.798535448573425	23.429999999999993	0.0
C 	59.02829152194733	24.139999999999993	0.0
C 	60.25804759532124	23.429999999999993	0.0
C 	61.487803668695136	24.13999999999999	0.0
C 	62.71755974206904	23.429999999999993	0.0
C 	63.947315815442934	24.139999999999986	0.0
C 	65.17707188881684	23.429999999999993	0.0
C 	66.40682796219075	24.139999999999993	0.0
C 	67.63658403556464	23.42999999999999	0.0
C 	68.86634010893856	24.139999999999997	0.0
C 	70.09609618231245	23.42999999999999	0.0
C 	71.32585225568636	24.139999999999997	0.0
C 	72.55560832906026	23.42999999999999	0.0
C 	73.78536440243417	24.13999999999999	0.0
C 	14.757072880486835	25.559999999999995	0.0
C 	15.986828953860735	26.269999999999996	0.0
C 	17.21658502723464	25.559999999999995	0.0
C 	18.44634110060854	26.269999999999996	0.0
C 	19.676097173982445	25.56	0.0
C 	20.905853247356344	26.269999999999996	0.0
C 	22.13560932073025	25.56	0.0
C 	23.365365394104153	26.269999999999996	0.0
C 	24.595121467478055	25.559999999999995	0.0
C 	25.824877540851958	26.269999999999996	0.0
C 	27.054633614225857	25.559999999999995	0.0
C 	28.28438968759976	26.269999999999996	0.0
C 	29.514145760973665	25.559999999999995	0.0
C 	30.743901834347568	26.269999999999996	0.0
C 	31.973657907721474	25.559999999999995	0.0
C 	33.20341398109538	26.269999999999996	0.0
C 	34.43317005446927	25.55999999999999	0.0
C 	35.66292612784318	26.269999999999992	0.0
C 	36.892682201217085	25.559999999999995	0.0
C 	38.12243827459098	26.269999999999992	0.0
C 	39.35219434796489	25.559999999999995	0.0
C 	40.58195042133879	26.269999999999992	0.0
C 	41.81170649471269	25.55999999999999	0.0
C 	43.041462568086594	26.269999999999992	0.0
C 	44.2712186414605	25.55999999999999	0.0
C 	45.5009747148344	26.26999999999999	0.0
C 	46.730730788208305	25.559999999999995	0.0
C 	47.960486861582204	26.269999999999992	0.0
C 	49.19024293495611	25.55999999999999	0.0
C 	50.41999900833001	26.269999999999992	0.0
C 	51.649755081703915	25.559999999999995	0.0
C 	52.879511155077815	26.269999999999992	0.0
C 	54.10926722845172	25.559999999999995	0.0
C 	55.33902330182562	26.269999999999992	0.0
C 	56.568779375199526	25.55999999999999	0.0
C 	57.79853544857343	26.269999999999992	0.0
C 	59.028291521947324	25.55999999999999	0.0
C 	60.25804759532123	26.269999999999992	0.0
C 	61.487803668695136	25.559999999999995	0.0
C 	62.717559742069035	26.26999999999999	0.0
C 	63.94731581544294	25.55999999999999	0.0
C 	65.17707188881683	26.269999999999985	0.0
C 	66.40682796219075	25.55999999999999	0.0
C 	67.63658403556465	26.269999999999992	0.0
C 	68.86634010893856	25.559999999999995	0.0
C 	70.09609618231246	26.269999999999996	0.0
C 	71.32585225568636	25.559999999999995	0.0
C 	72.55560832906026	26.269999999999996	0.0
C 	73.78536440243415	25.559999999999988	0.0
C 	75.01512047580806	26.26999999999999	0.0
C 	15.986828953860735	27.689999999999994	0.0
C 	17.21658502723464	28.399999999999995	0.0
C 	18.446341100608542	27.689999999999994	0.0
C 	19.676097173982445	28.399999999999995	0.0
C 	20.905853247356344	27.689999999999994	0.0
C 	22.13560932073025	28.399999999999995	0.0
C 	23.365365394104153	27.689999999999994	0.0
C 	24.59512146747806	28.399999999999995	0.0
C 	25.824877540851954	27.689999999999994	0.0
C 	27.054633614225857	28.399999999999995	0.0
C 	28.284389687599763	27.689999999999994	0.0
C 	29.514145760973665	28.399999999999995	0.0
C 	30.74390183434757	27.689999999999994	0.0
C 	31.973657907721474	28.399999999999995	0.0
C 	33.20341398109537	27.68999999999999	0.0
C 	34.43317005446928	28.39999999999999	0.0
C 	35.66292612784318	27.689999999999994	0.0
C 	36.892682201217085	28.399999999999995	0.0
C 	38.122438274590984	27.689999999999994	0.0
C 	39.35219434796489	28.399999999999995	0.0
C 	40.58195042133879	27.689999999999994	0.0
C 	41.811706494712695	28.399999999999995	0.0
C 	43.041462568086594	27.689999999999994	0.0
C 	44.2712186414605	28.399999999999995	0.0
C 	45.500974714834406	27.689999999999994	0.0
C 	46.730730788208305	28.399999999999995	0.0
C 	47.960486861582204	27.68999999999999	0.0
C 	49.19024293495611	28.39999999999999	0.0
C 	50.41999900833002	27.689999999999994	0.0
C 	51.649755081703915	28.399999999999995	0.0
C 	52.87951115507782	27.689999999999994	0.0
C 	54.10926722845173	28.399999999999995	0.0
C 	55.33902330182562	27.68999999999999	0.0
C 	56.568779375199526	28.39999999999999	0.0
C 	57.79853544857343	27.689999999999994	0.0
C 	59.02829152194733	28.39999999999999	0.0
C 	60.25804759532124	27.689999999999994	0.0
C 	61.48780366869513	28.399999999999988	0.0
C 	62.717559742069035	27.689999999999994	0.0
C 	63.94731581544294	28.399999999999995	0.0
C 	65.17707188881684	27.68999999999999	0.0
C 	66.40682796219075	28.39999999999999	0.0
C 	67.63658403556464	27.689999999999987	0.0
C 	68.86634010893856	28.399999999999995	0.0
C 	70.09609618231245	27.689999999999994	0.0
C 	71.32585225568636	28.399999999999995	0.0
C 	72.55560832906026	27.68999999999999	0.0
C 	73.78536440243415	28.39999999999999	0.0
C 	75.01512047580808	27.689999999999994	0.0
C 	76.24487654918197	28.399999999999984	0.0
C 	17.21658502723464	29.819999999999997	0.0
C 	18.446341100608546	30.529999999999998	0.0
C 	19.676097173982445	29.819999999999997	0.0
C 	20.905853247356355	30.529999999999998	0.0
C 	22.13560932073025	29.819999999999993	0.0
C 	23.365365394104156	30.529999999999994	0.0
C 	24.59512146747806	29.819999999999997	0.0
C 	25.82487754085196	30.529999999999998	0.0
C 	27.054633614225867	29.819999999999997	0.0
C 	28.28438968759977	30.529999999999998	0.0
C 	29.514145760973665	29.819999999999997	0.0
C 	30.74390183434757	30.529999999999998	0.0
C 	31.973657907721474	29.819999999999997	0.0
C 	33.20341398109538	30.529999999999998	0.0
C 	34.43317005446928	29.819999999999997	0.0
C 	35.662926127843185	30.529999999999998	0.0
C 	36.892682201217085	29.819999999999993	0.0
C 	38.12243827459099	30.529999999999994	0.0
C 	39.35219434796488	29.819999999999993	0.0
C 	40.58195042133879	30.529999999999994	0.0
C 	41.811706494712695	29.819999999999993	0.0
C 	43.0414625680866	30.529999999999994	0.0
C 	44.2712186414605	29.819999999999993	0.0
C 	45.500974714834406	30.529999999999994	0.0
C 	46.730730788208305	29.81999999999999	0.0
C 	47.960486861582204	30.52999999999999	0.0
C 	49.19024293495611	29.819999999999993	0.0
C 	50.41999900833002	30.529999999999994	0.0
C 	51.649755081703915	29.819999999999993	0.0
C 	52.87951115507782	30.529999999999994	0.0
C 	54.10926722845172	29.819999999999993	0.0
C 	55.33902330182563	30.52999999999999	0.0
C 	56.568779375199526	29.819999999999993	0.0
C 	57.798535448573425	30.52999999999999	0.0
C 	59.02829152194734	29.819999999999993	0.0
C 	60.25804759532124	30.529999999999994	0.0
C 	61.487803668695136	29.819999999999993	0.0
C 	62.71755974206904	30.529999999999994	0.0
C 	63.947315815442934	29.81999999999999	0.0
C 	65.17707188881685	30.529999999999998	0.0
C 	66.40682796219073	29.819999999999986	0.0
C 	67.63658403556465	30.529999999999994	0.0
C 	68.86634010893856	29.819999999999993	0.0
C 	70.09609618231245	30.529999999999994	0.0
C 	71.32585225568637	29.819999999999997	0.0
C 	72.55560832906026	30.52999999999999	0.0
C 	73.78536440243417	29.819999999999997	0.0
C 	75.01512047580806	30.529999999999987	0.0
C 	76.24487654918197	29.81999999999999	0.0
C 	77.47463262255587	30.52999999999999	0.0
C 	18.446341100608542	31.949999999999996	0.0
C 	19.676097173982445	32.65999999999999	0.0
C 	20.905853247356347	31.949999999999992	0.0
C 	22.135609320730254	32.66	0.0
C 	23.365365394104156	31.949999999999996	0.0
C 	24.595121467478055	32.65999999999999	0.0
C 	25.824877540851958	31.949999999999992	0.0
C 	27.05463361422586	32.66	0.0
C 	28.284389687599766	31.949999999999996	0.0
C 	29.51414576097367	32.66	0.0
C 	30.743901834347568	31.949999999999992	0.0
C 	31.97365790772147	32.66	0.0
C 	33.20341398109537	31.949999999999992	0.0
C 	34.43317005446928	32.66	0.0
C 	35.66292612784318	31.949999999999996	0.0
C 	36.892682201217085	32.66	0.0
C 	38.122438274590984	31.949999999999992	0.0
C 	39.35219434796489	32.65999999999999	0.0
C 	40.58195042133879	31.949999999999992	0.0
C 	41.81170649471269	32.65999999999999	0.0
C 	43.0414625680866	31.949999999999996	0.0
C 	44.2712186414605	32.65999999999999	0.0
C 	45.5009747148344	31.949999999999992	0.0
C 	46.730730788208305	32.65999999999999	0.0
C 	47.96048686158221	31.949999999999992	0.0
C 	49.1902429349561	32.65999999999999	0.0
C 	50.41999900833002	31.949999999999992	0.0
C 	51.649755081703915	32.65999999999999	0.0
C 	52.879511155077815	31.949999999999992	0.0
C 	54.10926722845172	32.65999999999999	0.0
C 	55.33902330182563	31.949999999999992	0.0
C 	56.568779375199526	32.65999999999999	0.0
C 	57.79853544857343	31.949999999999992	0.0
C 	59.028291521947324	32.65999999999999	0.0
C 	60.25804759532124	31.949999999999992	0.0
C 	61.487803668695136	32.65999999999999	0.0
C 	62.717559742069035	31.94999999999999	0.0
C 	63.94731581544294	32.65999999999999	0.0
C 	65.17707188881685	31.949999999999992	0.0
C 	66.40682796219076	32.66	0.0
C 	67.63658403556465	31.949999999999992	0.0
C 	68.86634010893856	32.65999999999999	0.0
C 	70.09609618231245	31.94999999999999	0.0
C 	71.32585225568636	32.65999999999999	0.0
C 	72.55560832906026	31.949999999999996	0.0
C 	73.78536440243415	32.65999999999999	0.0
C 	75.01512047580806	31.949999999999992	0.0
C 	76.24487654918195	32.65999999999998	0.0
C 	77.47463262255587	31.949999999999985	0.0
C 	78.70438869592978	32.65999999999999	0.0
C 	19.676097173982445	34.07999999999999	0.0
C 	20.90585324735635	34.78999999999999	0.0
C 	22.135609320730254	34.07999999999999	0.0
C 	23.365365394104156	34.78999999999999	0.0
C 	24.595121467478055	34.07999999999999	0.0
C 	25.824877540851958	34.78999999999999	0.0
C 	27.054633614225864	34.07999999999999	0.0
C 	28.284389687599766	34.78999999999999	0.0
C 	29.514145760973665	34.07999999999999	0.0
C 	30.743901834347568	34.78999999999999	0.0
C 	31.97365790772147	34.07999999999999	0.0
C 	33.20341398109537	34.78999999999999	0.0
C 	34.43317005446928	34.07999999999999	0.0
C 	35.662926127843185	34.78999999999999	0.0
C 	36.89268220121708	34.07999999999999	0.0
C 	38.122438274590984	34.78999999999999	0.0
C 	39.35219434796489	34.07999999999999	0.0
C 	40.581950421338796	34.78999999999999	0.0
C 	41.811706494712695	34.07999999999999	0.0
C 	43.0414625680866	34.78999999999999	0.0
C 	44.2712186414605	34.07999999999999	0.0
C 	45.5009747148344	34.78999999999999	0.0
C 	46.730730788208305	34.07999999999999	0.0
C 	47.96048686158221	34.78999999999999	0.0
C 	49.19024293495611	34.07999999999999	0.0
C 	50.41999900833002	34.78999999999999	0.0
C 	51.649755081703915	34.07999999999999	0.0
C 	52.87951115507782	34.78999999999999	0.0
C 	54.10926722845172	34.07999999999999	0.0
C 	55.33902330182562	34.78999999999999	0.0
C 	56.56877937519953	34.07999999999999	0.0
C 	57.79853544857343	34.78999999999999	0.0
C 	59.02829152194733	34.07999999999999	0.0
C 	60.25804759532124	34.78999999999999	0.0
C 	61.487803668695136	34.07999999999999	0.0
C 	62.71755974206905	34.79	0.0
C 	63.947315815442934	34.079999999999984	0.0
C 	65.17707188881685	34.78999999999999	0.0
C 	66.40682796219075	34.07999999999999	0.0
C 	67.63658403556465	34.78999999999999	0.0
C 	68.86634010893854	34.07999999999999	0.0
C 	70.09609618231245	34.78999999999999	0.0
C 	71.32585225568636	34.07999999999999	0.0
C 	72.55560832906025	34.789999999999985	0.0
C 	73.78536440243417	34.07999999999999	0.0
C 	75.01512047580808	34.78999999999999	0.0
C 	76.24487654918197	34.07999999999999	0.0
C 	77.47463262255587	34.78999999999999	0.0
C 	78.70438869592977	34.079999999999984	0.0
C 	79.93414476930369	34.78999999999999	0.0
C 	20.90585324735635	36.209999999999994	0.0
C 	22.135609320730254	36.919999999999995	0.0
C 	23.36536539410416	36.209999999999994	0.0
C 	24.595121467478062	36.919999999999995	0.0
C 	25.82487754085196	36.209999999999994	0.0
C 	27.054633614225864	36.919999999999995	0.0
C 	28.284389687599766	36.209999999999994	0.0
C 	29.514145760973673	36.919999999999995	0.0
C 	30.743901834347575	36.209999999999994	0.0
C 	31.973657907721478	36.919999999999995	0.0
C 	33.20341398109537	36.209999999999994	0.0
C 	34.43317005446928	36.919999999999995	0.0
C 	35.662926127843185	36.209999999999994	0.0
C 	36.89268220121709	36.919999999999995	0.0
C 	38.12243827459099	36.209999999999994	0.0
C 	39.3521943479649	36.919999999999995	0.0
C 	40.581950421338796	36.209999999999994	0.0
C 	41.811706494712695	36.919999999999995	0.0
C 	43.041462568086594	36.209999999999994	0.0
C 	44.2712186414605	36.919999999999995	0.0
C 	45.500974714834406	36.209999999999994	0.0
C 	46.730730788208305	36.919999999999995	0.0
C 	47.96048686158221	36.209999999999994	0.0
C 	49.19024293495612	36.919999999999995	0.0
C 	50.41999900833002	36.20999999999999	0.0
C 	51.649755081703915	36.91999999999999	0.0
C 	52.87951115507782	36.209999999999994	0.0
C 	54.10926722845172	36.91999999999999	0.0
C 	55.33902330182563	36.209999999999994	0.0
C 	56.56877937519953	36.919999999999995	0.0
C 	57.79853544857343	36.20999999999999	0.0
C 	59.02829152194733	36.91999999999999	0.0
C 	60.25804759532123	36.20999999999999	0.0
C 	61.48780366869515	36.919999999999995	0.0
C 	62.71755974206904	36.209999999999994	0.0
C 	63.94731581544295	36.919999999999995	0.0
C 	65.17707188881684	36.209999999999994	0.0
C 	66.40682796219075	36.919999999999995	0.0
C 	67.63658403556467	36.209999999999994	0.0
C 	68.86634010893856	36.91999999999999	0.0
C 	70.09609618231246	36.209999999999994	0.0
C 	71.32585225568636	36.91999999999999	0.0
C 	72.55560832906026	36.209999999999994	0.0
C 	73.78536440243417	36.919999999999995	0.0
C 	75.01512047580806	36.20999999999999	0.0
C 	76.24487654918198	36.919999999999995	0.0
C 	77.47463262255586	36.20999999999999	0.0
C 	78.70438869592978	36.919999999999995	0.0
C 	79.93414476930369	36.20999999999999	0.0
C 	81.16390084267759	36.91999999999999	0.0
C 	22.13560932073025	38.33999999999999	0.0
C 	23.365365394104153	39.04999999999999	0.0
C 	24.59512146747806	38.33999999999999	0.0
C 	25.82487754085196	39.04999999999999	0.0
C 	27.05463361422586	38.33999999999999	0.0
C 	28.284389687599763	39.04999999999999	0.0
C 	29.514145760973665	38.33999999999999	0.0
C 	30.74390183434757	39.04999999999999	0.0
C 	31.973657907721474	38.339999999999996	0.0
C 	33.20341398109538	39.04999999999999	0.0
C 	34.43317005446927	38.33999999999999	0.0
C 	35.66292612784318	39.04999999999999	0.0
C 	36.892682201217085	38.33999999999999	0.0
C 	38.12243827459099	39.04999999999999	0.0
C 	39.35219434796489	38.33999999999999	0.0
C 	40.581950421338796	39.04999999999999	0.0
C 	41.811706494712695	38.33999999999999	0.0
C 	43.0414625680866	39.04999999999999	0.0
C 	44.27121864146049	38.33999999999999	0.0
C 	45.5009747148344	39.04999999999999	0.0
C 	46.730730788208305	38.33999999999999	0.0
C 	47.960486861582204	39.04999999999999	0.0
C 	49.19024293495611	38.33999999999999	0.0
C 	50.41999900833002	39.04999999999999	0.0
C 	51.649755081703915	38.33999999999999	0.0
C 	52.879511155077815	39.04999999999999	0.0
C 	54.10926722845173	38.33999999999999	0.0
C 	55.33902330182562	39.04999999999998	0.0
C 	56.568779375199526	38.33999999999999	0.0
C 	57.79853544857343	39.04999999999999	0.0
C 	59.02829152194733	38.33999999999999	0.0
C 	60.25804759532123	39.04999999999999	0.0
C 	61.48780366869513	38.33999999999998	0.0
C 	62.71755974206905	39.04999999999999	0.0
C 	63.94731581544294	38.33999999999999	0.0
C 	65.17707188881685	39.04999999999999	0.0
C 	66.40682796219075	38.33999999999999	0.0
C 	67.63658403556465	39.04999999999999	0.0
C 	68.86634010893856	38.33999999999999	0.0
C 	70.09609618231245	39.04999999999998	0.0
C 	71.32585225568636	38.33999999999999	0.0
C 	72.55560832906025	39.04999999999998	0.0
C 	73.78536440243415	38.33999999999999	0.0
C 	75.01512047580806	39.04999999999999	0.0
C 	76.24487654918197	38.33999999999999	0.0
C 	77.47463262255587	39.05	0.0
C 	78.70438869592977	38.33999999999998	0.0
C 	79.93414476930369	39.04999999999999	0.0
C 	81.16390084267758	38.33999999999998	0.0
C 	82.39365691605148	39.04999999999998	0.0
C 	23.365365394104156	40.46999999999999	0.0
C 	24.59512146747806	41.17999999999999	0.0
C 	25.82487754085196	40.46999999999999	0.0
C 	27.054633614225867	41.17999999999999	0.0
C 	28.284389687599763	40.46999999999999	0.0
C 	29.51414576097367	41.17999999999999	0.0
C 	30.74390183434757	40.46999999999999	0.0
C 	31.973657907721474	41.17999999999999	0.0
C 	33.20341398109537	40.46999999999999	0.0
C 	34.43317005446928	41.17999999999999	0.0
C 	35.66292612784318	40.46999999999999	0.0
C 	36.892682201217085	41.17999999999999	0.0
C 	38.12243827459099	40.46999999999999	0.0
C 	39.3521943479649	41.17999999999999	0.0
C 	40.58195042133879	40.46999999999999	0.0
C 	41.811706494712695	41.17999999999999	0.0
C 	43.0414625680866	40.46999999999999	0.0
C 	44.2712186414605	41.17999999999999	0.0
C 	45.500974714834406	40.46999999999999	0.0
C 	46.73073078820831	41.17999999999999	0.0
C 	47.960486861582204	40.46999999999999	0.0
C 	49.19024293495611	41.17999999999999	0.0
C 	50.41999900833002	40.46999999999999	0.0
C 	51.649755081703915	41.179999999999986	0.0
C 	52.87951115507782	40.46999999999999	0.0
C 	54.10926722845173	41.17999999999999	0.0
C 	55.33902330182563	40.46999999999999	0.0
C 	56.568779375199526	41.17999999999999	0.0
C 	57.798535448573425	40.469999999999985	0.0
C 	59.028291521947345	41.17999999999999	0.0
C 	60.25804759532124	40.46999999999999	0.0
C 	61.48780366869514	41.17999999999999	0.0
C 	62.71755974206904	40.46999999999999	0.0
C 	63.94731581544295	41.17999999999999	0.0
C 	65.17707188881685	40.46999999999999	0.0
C 	66.40682796219075	41.179999999999986	0.0
C 	67.63658403556465	40.46999999999999	0.0
C 	68.86634010893854	41.179999999999986	0.0
C 	70.09609618231246	40.46999999999999	0.0
C 	71.32585225568636	41.17999999999999	0.0
C 	72.55560832906026	40.469999999999985	0.0
C 	73.78536440243417	41.179999999999986	0.0
C 	75.01512047580806	40.469999999999985	0.0
C 	76.24487654918198	41.17999999999999	0.0
C 	77.47463262255587	40.46999999999999	0.0
C 	78.70438869592978	41.17999999999999	0.0
C 	79.93414476930367	40.469999999999985	0.0
C 	81.16390084267758	41.179999999999986	0.0
C 	82.3936569160515	40.46999999999999	0.0
C 	83.62341298942539	41.179999999999986	0.0
C 	24.595121467478055	42.59999999999999	0.0
C 	25.82487754085196	43.30999999999999	0.0
C 	27.05463361422586	42.59999999999999	0.0
C 	28.284389687599766	43.30999999999999	0.0
C 	29.514145760973662	42.59999999999999	0.0
C 	30.743901834347568	43.30999999999999	0.0
C 	31.97365790772147	42.59999999999999	0.0
C 	33.20341398109537	43.30999999999999	0.0
C 	34.43317005446927	42.59999999999999	0.0
C 	35.66292612784318	43.30999999999999	0.0
C 	36.89268220121708	42.59999999999999	0.0
C 	38.122438274590984	43.30999999999999	0.0
C 	39.35219434796489	42.59999999999999	0.0
C 	40.581950421338796	43.30999999999999	0.0
C 	41.81170649471269	42.59999999999999	0.0
C 	43.041462568086594	43.30999999999999	0.0
C 	44.2712186414605	42.59999999999999	0.0
C 	45.5009747148344	43.30999999999999	0.0
C 	46.730730788208305	42.59999999999999	0.0
C 	47.96048686158221	43.30999999999999	0.0
C 	49.19024293495611	42.59999999999999	0.0
C 	50.41999900833001	43.30999999999999	0.0
C 	51.64975508170392	42.599999999999994	0.0
C 	52.879511155077815	43.30999999999999	0.0
C 	54.10926722845172	42.59999999999999	0.0
C 	55.33902330182563	43.30999999999999	0.0
C 	56.568779375199526	42.59999999999999	0.0
C 	57.798535448573425	43.30999999999999	0.0
C 	59.028291521947324	42.59999999999998	0.0
C 	60.258047595321244	43.30999999999999	0.0
C 	61.487803668695136	42.59999999999999	0.0
C 	62.71755974206904	43.30999999999999	0.0
C 	63.94731581544294	42.59999999999999	0.0
C 	65.17707188881684	43.30999999999999	0.0
C 	66.40682796219076	42.599999999999994	0.0
C 	67.63658403556465	43.30999999999999	0.0
C 	68.86634010893856	42.59999999999999	0.0
C 	70.09609618231245	43.30999999999998	0.0
C 	71.32585225568636	42.59999999999999	0.0
C 	72.55560832906026	43.30999999999999	0.0
C 	73.78536440243415	42.59999999999999	0.0
C 	75.01512047580806	43.30999999999999	0.0
C 	76.24487654918197	42.59999999999998	0.0
C 	77.47463262255587	43.30999999999999	0.0
C 	78.70438869592978	42.59999999999999	0.0
C 	79.93414476930367	43.30999999999999	0.0
C 	81.16390084267758	42.59999999999999	0.0
C 	82.39365691605148	43.30999999999999	0.0
C 	83.62341298942539	42.59999999999999	0.0
C 	84.85316906279928	43.30999999999998	0.0
C 	25.82487754085196	44.72999999999999	0.0
C 	27.054633614225864	45.43999999999999	0.0
C 	28.284389687599766	44.72999999999999	0.0
C 	29.514145760973673	45.43999999999999	0.0
C 	30.743901834347568	44.72999999999999	0.0
C 	31.97365790772147	45.43999999999999	0.0
C 	33.20341398109537	44.72999999999999	0.0
C 	34.43317005446928	45.43999999999999	0.0
C 	35.662926127843185	44.72999999999999	0.0
C 	36.892682201217085	45.43999999999999	0.0
C 	38.122438274590984	44.72999999999999	0.0
C 	39.35219434796489	45.43999999999999	0.0
C 	40.581950421338796	44.72999999999999	0.0
C 	41.811706494712695	45.43999999999999	0.0
C 	43.0414625680866	44.72999999999999	0.0
C 	44.27121864146051	45.43999999999999	0.0
C 	45.500974714834406	44.72999999999999	0.0
C 	46.730730788208305	45.43999999999999	0.0
C 	47.960486861582204	44.72999999999999	0.0
C 	49.19024293495611	45.43999999999998	0.0
C 	50.41999900833002	44.72999999999999	0.0
C 	51.64975508170391	45.43999999999998	0.0
C 	52.87951115507782	44.72999999999999	0.0
C 	54.10926722845172	45.43999999999999	0.0
C 	55.33902330182562	44.72999999999998	0.0
C 	56.568779375199526	45.43999999999998	0.0
C 	57.798535448573425	44.72999999999998	0.0
C 	59.02829152194734	45.43999999999999	0.0
C 	60.25804759532124	44.72999999999999	0.0
C 	61.48780366869514	45.43999999999999	0.0
C 	62.717559742069035	44.72999999999998	0.0
C 	63.94731581544294	45.43999999999998	0.0
C 	65.17707188881685	44.72999999999999	0.0
C 	66.40682796219075	45.43999999999998	0.0
C 	67.63658403556465	44.72999999999999	0.0
C 	68.86634010893856	45.43999999999999	0.0
C 	70.09609618231245	44.72999999999999	0.0
C 	71.32585225568636	45.43999999999998	0.0
C 	72.55560832906026	44.72999999999998	0.0
C 	73.78536440243417	45.43999999999999	0.0
C 	75.01512047580806	44.72999999999998	0.0
C 	76.24487654918198	45.43999999999999	0.0
C 	77.47463262255587	44.72999999999999	0.0
C 	78.70438869592978	45.43999999999999	0.0
C 	79.93414476930369	44.72999999999999	0.0
C 	81.16390084267758	45.43999999999998	0.0
C 	82.39365691605148	44.72999999999999	0.0
C 	83.62341298942538	45.43999999999998	0.0
C 	84.8531690627993	44.72999999999998	0.0
C 	86.08292513617319	45.43999999999998	0.0
C 	27.054633614225864	46.85999999999999	0.0
C 	28.28438968759977	47.56999999999999	0.0
C 	29.514145760973673	46.85999999999999	0.0
C 	30.74390183434758	47.56999999999999	0.0
C 	31.973657907721474	46.85999999999999	0.0
C 	33.20341398109538	47.56999999999999	0.0
C 	34.43317005446928	46.85999999999999	0.0
C 	35.662926127843185	47.56999999999999	0.0
C 	36.892682201217085	46.85999999999999	0.0
C 	38.122438274590984	47.56999999999999	0.0
C 	39.35219434796489	46.85999999999999	0.0
C 	40.581950421338796	47.56999999999999	0.0
C 	41.8117064947127	46.85999999999999	0.0
C 	43.0414625680866	47.56999999999999	0.0
C 	44.2712186414605	46.85999999999999	0.0
C 	45.500974714834406	47.56999999999999	0.0
C 	46.73073078820831	46.859999999999985	0.0
C 	47.960486861582204	47.569999999999986	0.0
C 	49.19024293495612	46.85999999999999	0.0
C 	50.41999900833002	47.56999999999999	0.0
C 	51.649755081703915	46.859999999999985	0.0
C 	52.87951115507782	47.569999999999986	0.0
C 	54.10926722845172	46.859999999999985	0.0
C 	55.339023301825634	47.56999999999999	0.0
C 	56.56877937519953	46.85999999999999	0.0
C 	57.79853544857344	47.56999999999999	0.0
C 	59.02829152194733	46.859999999999985	0.0
C 	60.25804759532124	47.569999999999986	0.0
C 	61.48780366869515	46.85999999999999	0.0
C 	62.71755974206904	47.569999999999986	0.0
C 	63.94731581544295	46.85999999999999	0.0
C 	65.17707188881685	47.56999999999999	0.0
C 	66.40682796219075	46.859999999999985	0.0
C 	67.63658403556465	47.569999999999986	0.0
C 	68.86634010893856	46.859999999999985	0.0
C 	70.09609618231246	47.56999999999999	0.0
C 	71.32585225568636	46.859999999999985	0.0
C 	72.55560832906028	47.56999999999999	0.0
C 	73.78536440243417	46.859999999999985	0.0
C 	75.01512047580808	47.569999999999986	0.0
C 	76.24487654918197	46.859999999999985	0.0
C 	77.47463262255587	47.569999999999986	0.0
C 	78.70438869592978	46.85999999999999	0.0
C 	79.93414476930367	47.569999999999986	0.0
C 	81.16390084267758	46.85999999999999	0.0
C 	82.39365691605148	47.56999999999999	0.0
C 	83.62341298942539	46.859999999999985	0.0
C 	84.8531690627993	47.569999999999986	0.0
C 	86.08292513617319	46.85999999999998	0.0
C 	87.31268120954711	47.569999999999986	0.0
C 	28.284389687599763	48.98999999999999	0.0
C 	29.51414576097367	49.69999999999999	0.0
C 	30.74390183434757	48.98999999999999	0.0
C 	31.973657907721478	49.69999999999999	0.0
C 	33.20341398109537	48.98999999999999	0.0
C 	34.43317005446928	49.69999999999999	0.0
C 	35.66292612784318	48.98999999999999	0.0
C 	36.892682201217085	49.69999999999999	0.0
C 	38.122438274590984	48.98999999999999	0.0
C 	39.35219434796488	49.69999999999999	0.0
C 	40.58195042133879	48.98999999999999	0.0
C 	41.811706494712695	49.69999999999999	0.0
C 	43.041462568086594	48.98999999999999	0.0
C 	44.2712186414605	49.69999999999999	0.0
C 	45.5009747148344	48.98999999999999	0.0
C 	46.730730788208305	49.69999999999998	0.0
C 	47.96048686158221	48.98999999999999	0.0
C 	49.1902429349561	49.69999999999998	0.0
C 	50.41999900833002	48.98999999999999	0.0
C 	51.64975508170392	49.69999999999999	0.0
C 	52.879511155077815	48.98999999999999	0.0
C 	54.10926722845172	49.69999999999999	0.0
C 	55.33902330182562	48.98999999999998	0.0
C 	56.56877937519953	49.69999999999999	0.0
C 	57.79853544857343	48.98999999999999	0.0
C 	59.02829152194734	49.69999999999999	0.0
C 	60.25804759532124	48.98999999999999	0.0
C 	61.487803668695136	49.69999999999999	0.0
C 	62.71755974206905	48.98999999999999	0.0
C 	63.94731581544294	49.69999999999998	0.0
C 	65.17707188881685	48.98999999999999	0.0
C 	66.40682796219075	49.69999999999999	0.0
C 	67.63658403556465	48.98999999999999	0.0
C 	68.86634010893856	49.69999999999999	0.0
C 	70.09609618231245	48.98999999999998	0.0
C 	71.32585225568637	49.69999999999999	0.0
C 	72.55560832906025	48.98999999999998	0.0
C 	73.78536440243417	49.69999999999999	0.0
C 	75.01512047580806	48.98999999999999	0.0
C 	76.24487654918197	49.69999999999999	0.0
C 	77.47463262255587	48.98999999999998	0.0
C 	78.70438869592978	49.69999999999998	0.0
C 	79.93414476930369	48.98999999999999	0.0
C 	81.16390084267758	49.69999999999998	0.0
C 	82.39365691605148	48.98999999999999	0.0
C 	83.62341298942539	49.69999999999999	0.0
C 	84.85316906279928	48.98999999999998	0.0
C 	86.08292513617319	49.69999999999998	0.0
C 	87.3126812095471	48.98999999999998	0.0
C 	88.542437282921	49.69999999999999	0.0
C 	29.51414576097367	51.11999999999999	0.0
C 	30.74390183434757	51.82999999999999	0.0
C 	31.973657907721474	51.11999999999999	0.0
C 	33.20341398109538	51.82999999999999	0.0
C 	34.43317005446928	51.11999999999999	0.0
C 	35.66292612784318	51.82999999999999	0.0
C 	36.892682201217085	51.11999999999999	0.0
C 	38.12243827459099	51.82999999999999	0.0
C 	39.35219434796489	51.12	0.0
C 	40.581950421338796	51.83	0.0
C 	41.811706494712695	51.11999999999999	0.0
C 	43.041462568086594	51.82999999999999	0.0
C 	44.2712186414605	51.12	0.0
C 	45.5009747148344	51.82999999999999	0.0
C 	46.73073078820831	51.11999999999999	0.0
C 	47.96048686158221	51.82999999999999	0.0
C 	49.19024293495611	51.11999999999999	0.0
C 	50.41999900833002	51.82999999999999	0.0
C 	51.649755081703915	51.11999999999998	0.0
C 	52.879511155077815	51.829999999999984	0.0
C 	54.10926722845171	51.11999999999999	0.0
C 	55.33902330182563	51.83	0.0
C 	56.568779375199526	51.11999999999999	0.0
C 	57.79853544857343	51.82999999999999	0.0
C 	59.02829152194733	51.11999999999999	0.0
C 	60.25804759532124	51.82999999999999	0.0
C 	61.48780366869514	51.11999999999999	0.0
C 	62.717559742069035	51.829999999999984	0.0
C 	63.94731581544295	51.11999999999999	0.0
C 	65.17707188881685	51.82999999999999	0.0
C 	66.40682796219075	51.11999999999999	0.0
C 	67.63658403556465	51.82999999999999	0.0
C 	68.86634010893854	51.11999999999998	0.0
C 	70.09609618231246	51.82999999999999	0.0
C 	71.32585225568636	51.11999999999999	0.0
C 	72.55560832906026	51.82999999999999	0.0
C 	73.78536440243417	51.11999999999999	0.0
C 	75.01512047580806	51.82999999999999	0.0
C 	76.24487654918198	51.11999999999999	0.0
C 	77.47463262255587	51.829999999999984	0.0
C 	78.70438869592978	51.11999999999999	0.0
C 	79.93414476930367	51.829999999999984	0.0
C 	81.16390084267758	51.11999999999999	0.0
C 	82.39365691605148	51.82999999999999	0.0
C 	83.62341298942538	51.11999999999998	0.0
C 	84.8531690627993	51.82999999999999	0.0
C 	86.08292513617319	51.11999999999998	0.0
C 	87.3126812095471	51.82999999999999	0.0
C 	88.542437282921	51.11999999999998	0.0
C 	89.7721933562949	51.829999999999984	0.0
C 	51.83764896167054	-0.8481451094110999	2.15
C 	53.205339806523206	-0.46627896413742387	2.15
C 	53.558479446297305	0.9091091246652342	2.15
C 	54.92617029114998	1.2909752699389119	2.15
C 	55.27930993092408	2.6663633587415703	2.15
C 	56.64700077577675	3.0482295040152407	2.15
C 	57.000140415550845	4.423617592817899	2.15
C 	49.45540691173929	-0.23648931115580082	2.15
C 	50.823097756591956	0.14537683411787183	2.15
C 	51.17623739636605	1.52076492292053	2.15
C 	52.54392824121873	1.9026310681942076	2.15
C 	52.89706788099282	3.2780191569968657	2.15
C 	54.26475872584549	3.6598853022705433	2.15
C 	54.61789836561958	5.0352733910732015	2.15
C 	55.98558921047226	5.417139536346872	2.15
C 	56.338728850246355	6.792527625149531	2.15
C 	57.70641969509903	7.17439377042321	2.15
C 	58.05955933487312	8.549781859225869	2.15
C 	59.4272501797258	8.931648004499547	2.15
C 	59.780389819499895	10.307036093302203	2.15
C 	47.073164861808024	0.37516648709950173	2.15
C 	48.4408557066607	0.7570326323731795	2.15
C 	48.7939953464348	2.1324207211758375	2.15
C 	50.16168619128747	2.5142868664495084	2.15
C 	50.514825831061565	3.8896749552521666	2.15
C 	51.882516675914246	4.271541100525845	2.15
C 	52.23565631568834	5.646929189328502	2.15
C 	53.60334716054101	6.028795334602182	2.15
C 	53.956486800315105	7.40418342340484	2.15
C 	55.32417764516777	7.786049568678511	2.15
C 	55.677317284941864	9.16143765748117	2.15
C 	57.045008129794546	9.543303802754847	2.15
C 	57.39814776956864	10.918691891557504	2.15
C 	58.76583861442132	11.300558036831182	2.15
C 	59.11897825419541	12.67594612563384	2.15
C 	60.48666909904807	13.057812270907515	2.15
C 	60.83980873882217	14.433200359710174	2.15
C 	62.207499583674846	14.81506650498385	2.15
C 	62.560639223448945	16.19045459378651	2.15
C 	63.92833006830162	16.572320739060185	2.15
C 	64.28146970807572	17.947708827862844	2.15
C 	42.97009232725001	-0.7704319487215333	2.15
C 	44.337783172102675	-0.38856580344785896	2.15
C 	44.69092281187677	0.9868222853547957	2.15
C 	46.05861365672944	1.3686884306284768	2.15
C 	46.411753296503534	2.7440765194311316	2.15
C 	47.77944414135621	3.1259426647048145	2.15
C 	48.1325837811303	4.501330753507469	2.15
C 	49.50027462598298	4.883196898781144	2.15
C 	49.853414265757074	6.258584987583798	2.15
C 	51.221105110609756	6.640451132857479	2.15
C 	51.57424475038385	8.015839221660134	2.15
C 	52.94193559523653	8.397705366933815	2.15
C 	53.29507523501062	9.77309345573647	2.15
C 	54.662766079863296	10.154959601010146	2.15
C 	55.01590571963739	11.530347689812801	2.15
C 	56.38359656449005	11.912213835086481	2.15
C 	56.73673620426415	13.287601923889136	2.15
C 	58.10442704911682	13.669468069162818	2.15
C 	58.45756668889092	15.044856157965473	2.15
C 	59.82525753374359	15.42672230323915	2.15
C 	60.17839717351768	16.802110392041804	2.15
C 	61.54608801837036	17.183976537315484	2.15
C 	61.899227658144454	18.55936462611814	2.15
C 	63.26691850299713	18.94123077139182	2.15
C 	63.62005814277122	20.316618860194477	2.15
C 	64.9877489876239	20.698485005468147	2.15
C 	65.340888627398	22.073873094270805	2.15
C 	66.70857947225068	22.455739239544474	2.15
C 	67.06171911202476	23.831127328347133	2.15
C 	68.42940995687744	24.21299347362082	2.15
C 	68.78254959665153	25.58838156242348	2.15
C 	40.58785027731875	-0.15877615046623247	2.15
C 	41.95554112217142	0.22308999480744707	2.15
C 	42.30868076194552	1.5984780836101051	2.15
C 	43.67637160679819	1.980344228883776	2.15
C 	44.029511246572284	3.355732317686434	2.15
C 	45.39720209142496	3.737598462960112	2.15
C 	45.75034173119905	5.11298655176277	2.15
C 	47.118032576051725	5.494852697036448	2.15
C 	47.47117221582582	6.870240785839106	2.15
C 	48.83886306067849	7.252106931112778	2.15
C 	49.19200270045258	8.627495019915436	2.15
C 	50.559693545305265	9.009361165189114	2.15
C 	50.91283318507936	10.384749253991773	2.15
C 	52.28052402993204	10.76661539926545	2.15
C 	52.63366366970613	12.142003488068108	2.15
C 	54.001354514558805	12.523869633341778	2.15
C 	54.354494154332905	13.899257722144437	2.15
C 	55.722184999185565	14.281123867418119	2.15
C 	56.075324638959664	15.656511956220777	2.15
C 	57.44301548381233	16.03837810149445	2.15
C 	57.79615512358643	17.41376619029711	2.15
C 	59.163845968439105	17.795632335570783	2.15
C 	59.5169856082132	19.171020424373438	2.15
C 	60.88467645306588	19.552886569647118	2.15
C 	61.23781609283997	20.928274658449777	2.15
C 	62.60550693769264	21.310140803723456	2.15
C 	62.95864657746673	22.685528892526115	2.15
C 	64.32633742231941	23.067395037799784	2.15
C 	64.6794770620935	24.442783126602443	2.15
C 	66.04716790694619	24.824649271876112	2.15
C 	66.40030754672027	26.20003736067877	2.15
C 	67.76799839157296	26.581903505952457	2.15
C 	68.12113803134704	27.957291594755112	2.15
C 	69.48882887619972	28.339157740028785	2.15
C 	69.84196851597382	29.714545828831444	2.15
C 	71.20965936082648	30.096411974105116	2.15
C 	71.56279900060058	31.471800062907775	2.15
C 	72.93048984545325	31.85366620818146	2.15
C 	73.28362948522735	33.22905429698412	2.15
C 	38.20560822738749	0.45287964778907697	2.15
C 	39.57329907224017	0.8347457930627461	2.15
C 	39.92643871201427	2.210133881865404	2.15
C 	41.294129556866935	2.5920000271390835	2.15
C 	41.647269196641034	3.9673881159417417	2.15
C 	43.0149600414937	4.349254261215415	2.15
C 	43.36809968126779	5.7246423500180725	2.15
C 	44.735790526120475	6.1065084952917505	2.15
C 	45.08893016589457	7.481896584094408	2.15
C 	46.45662101074724	7.863762729368086	2.15
C 	46.80976065052133	9.239150818170744	2.15
C 	48.17745149537401	9.621016963444415	2.15
C 	48.5305911351481	10.996405052247074	2.15
C 	49.89828198000078	11.378271197520752	2.15
C 	50.251421619774874	12.753659286323408	2.15
C 	51.61911246462755	13.135525431597088	2.15
C 	51.97225210440164	14.510913520399747	2.15
C 	53.339942949254315	14.892779665673418	2.15
C 	53.693082589028414	16.268167754476075	2.15
C 	55.06077343388108	16.650033899749754	2.15
C 	55.41391307365518	18.025421988552413	2.15
C 	56.781603918507855	18.407288133826093	2.15
C 	57.134743558281954	19.782676222628748	2.15
C 	58.502434403134615	20.16454236790242	2.15
C 	58.85557404290871	21.53993045670508	2.15
C 	60.22326488776139	21.921796601978755	2.15
C 	60.57640452753548	23.297184690781414	2.15
C 	61.944095372388155	23.679050836055094	2.15
C 	62.29723501216225	25.054438924857752	2.15
C 	63.66492585701493	25.43630507013142	2.15
C 	64.01806549678902	26.81169315893408	2.15
C 	65.3857563416417	27.193559304207753	2.15
C 	65.7388959814158	28.568947393010408	2.15
C 	67.10658682626847	28.950813538284095	2.15
C 	67.45972646604255	30.326201627086753	2.15
C 	68.82741731089524	30.708067772360423	2.15
C 	69.18055695066933	32.08345586116308	2.15
C 	70.548247795522	32.46532200643676	2.15
C 	70.9013874352961	33.84071009523941	2.15
C 	72.26907828014878	34.2225762405131	2.15
C 	72.62221791992286	35.59796432931576	2.15
C 	73.98990876477554	35.97983047458943	2.15
C 	74.34304840454963	37.355218563392086	2.15
C 	75.71073924940231	37.737084708665755	2.15
C 	76.0638788891764	39.11247279746841	2.15
C 	34.10253569282947	-0.6927187880319633	2.15
C 	35.47022653768214	-0.3108526427582837	2.15
C 	35.823366177456236	1.064535446044371	2.15
C 	37.191057022308904	1.446401591318054	2.15
C 	37.544196662083	2.8217896801207085	2.15
C 	38.91188750693568	3.203655825394383	2.15
C 	39.26502714670977	4.579043914197038	2.15
C 	40.63271799156245	4.9609100594707165	2.15
C 	40.98585763133654	6.336298148273372	2.15
C 	42.35354847618922	6.718164293547048	2.15
C 	42.70668811596331	8.093552382349703	2.15
C 	44.074378960815984	8.475418527623384	2.15
C 	44.427518600590076	9.85080661642604	2.15
C 	45.79520944544276	10.232672761699721	2.15
C 	46.14834908521685	11.608060850502376	2.15
C 	47.516039930069525	11.98992699577605	2.15
C 	47.86917956984362	13.365315084578706	2.15
C 	49.23687041469629	13.747181229852384	2.15
C 	49.59001005447039	15.122569318655039	2.15
C 	50.95770089932306	15.504435463928722	2.15
C 	51.31084053909716	16.879823552731377	2.15
C 	52.678531383949824	17.261689698005053	2.15
C 	53.031671023723916	18.63707778680771	2.15
C 	54.3993618685766	19.01894393208139	2.15
C 	54.75250150835069	20.394332020884043	2.15
C 	56.12019235320337	20.77619816615772	2.15
C 	56.473331992977464	22.151586254960378	2.15
C 	57.84102283783013	22.533452400234054	2.15
C 	58.19416247760422	23.908840489036713	2.15
C 	59.5618533224569	24.290706634310393	2.15
C 	59.91499296223099	25.666094723113044	2.15
C 	61.28268380708367	26.047960868386724	2.15
C 	61.63582344685776	27.423348957189383	2.15
C 	63.00351429171044	27.805215102463052	2.15
C 	63.35665393148454	29.18060319126571	2.15
C 	64.72434477633722	29.56246933653938	2.15
C 	65.0774844161113	30.937857425342038	2.15
C 	66.44517526096398	31.31972357061573	2.15
C 	66.79831490073806	32.69511165941839	2.15
C 	68.16600574559075	33.076977804692056	2.15
C 	68.51914538536484	34.452365893494715	2.15
C 	69.88683623021751	34.834232038768384	2.15
C 	70.23997586999161	36.20962012757104	2.15
C 	71.60766671484429	36.591486272844726	2.15
C 	71.96080635461838	37.966874361647385	2.15
C 	73.32849719947104	38.34874050692106	2.15
C 	73.68163683924513	39.72412859572372	2.15
C 	75.04932768409782	40.10599474099739	2.15
C 	75.4024673238719	41.48138282980005	2.15
C 	31.72029364289821	-0.08106298977665635	2.15
C 	33.08798448775089	0.30080315549701797	2.15
C 	33.44112412752498	1.676191244299676	2.15
C 	34.80881497237765	2.058057389573351	2.15
C 	35.161954612151746	3.4334454783760093	2.15
C 	36.52964545700442	3.815311623649687	2.15
C 	36.88278509677852	5.1906997124523455	2.15
C 	38.25047594163119	5.572565857726018	2.15
C 	38.60361558140528	6.947953946528676	2.15
C 	39.97130642625796	7.329820091802354	2.15
C 	40.32444606603205	8.705208180605013	2.15
C 	41.69213691088473	9.087074325878683	2.15
C 	42.04527655065882	10.46246241468134	2.15
C 	43.4129673955115	10.844328559955018	2.15
C 	43.76610703528559	12.219716648757677	2.15
C 	45.13379788013827	12.601582794031357	2.15
C 	45.48693751991236	13.976970882834014	2.15
C 	46.854628364765034	14.358837028107684	2.15
C 	47.20776800453913	15.734225116910343	2.15
C 	48.5754588493918	16.11609126218402	2.15
C 	48.9285984891659	17.49147935098668	2.15
C 	50.29628933401857	17.873345496260356	2.15
C 	50.649428973792666	19.248733585063015	2.15
C 	52.01711981864534	19.630599730336687	2.15
C 	52.37025945841943	21.005987819139342	2.15
C 	53.73795030327211	21.387853964413022	2.15
C 	54.0910899430462	22.76324205321568	2.15
C 	55.45878078789888	23.14510819848936	2.15
C 	55.81192042767297	24.520496287292016	2.15
C 	57.17961127252565	24.90236243256569	2.15
C 	57.53275091229974	26.277750521368347	2.15
C 	58.90044175715242	26.659616666642027	2.15
C 	59.25358139692651	28.035004755444685	2.15
C 	60.62127224177918	28.41687090071836	2.15
C 	60.97441188155327	29.79225898952102	2.15
C 	62.34210272640595	30.17412513479469	2.15
C 	62.69524236618005	31.549513223597348	2.15
C 	64.06293321103273	31.93137936887102	2.15
C 	64.41607285080681	33.30676745767368	2.15
C 	65.78376369565949	33.68863360294736	2.15
C 	66.13690333543359	35.06402169175002	2.15
C 	67.50459418028626	35.44588783702369	2.15
C 	67.85773382006036	36.82127592582635	2.15
C 	69.22542466491302	37.203142071100025	2.15
C 	69.57856430468712	38.57853015990268	2.15
C 	70.9462551495398	38.96039630517637	2.15
C 	71.2993947893139	40.335784393979026	2.15
C 	72.66708563416657	40.717650539252695	2.15
C 	73.02022527394065	42.09303862805535	2.15
C 	74.38791611879333	42.47490477332902	2.15
C 	74.74105575856743	43.85029286213168	2.15
C 	29.338051592966956	0.5305928084786453	2.15
C 	30.705742437819634	0.9124589537523222	2.15
C 	31.05888207759373	2.28784704255498	2.15
C 	32.4265729224464	2.6697131878286564	2.15
C 	32.77971256222049	4.045101276631314	2.15
C 	34.14740340707317	4.426967421904989	2.15
C 	34.50054304684726	5.802355510707647	2.15
C 	35.86823389169993	6.184221655981325	2.15
C 	36.22137353147403	7.559609744783984	2.15
C 	37.589064376326704	7.941475890057655	2.15
C 	37.942204016100796	9.316863978860313	2.15
C 	39.30989486095347	9.698730124133991	2.15
C 	39.66303450072756	11.07411821293665	2.15
C 	41.030725345580244	11.455984358210321	2.15
C 	41.383864985354336	12.83137244701298	2.15
C 	42.75155583020701	13.213238592286658	2.15
C 	43.1046954699811	14.588626681089314	2.15
C 	44.472386314833784	14.970492826362992	2.15
C 	44.825525954607876	16.34588091516565	2.15
C 	46.193216799460544	16.727747060439324	2.15
C 	46.54635643923464	18.103135149241982	2.15
C 	47.91404728408732	18.48500129451566	2.15
C 	48.267186923861416	19.860389383318317	2.15
C 	49.634877768714084	20.242255528591997	2.15
C 	49.98801740848818	21.617643617394652	2.15
C 	51.35570825334085	21.999509762668325	2.15
C 	51.70884789311494	23.374897851470983	2.15
C 	53.07653873796762	23.756763996744663	2.15
C 	53.42967837774171	25.132152085547318	2.15
C 	54.79736922259439	25.514018230820998	2.15
C 	55.15050886236848	26.889406319623657	2.15
C 	56.51819970722116	27.27127246489733	2.15
C 	56.87133934699525	28.646660553699988	2.15
C 	58.23903019184793	29.028526698973664	2.15
C 	58.59216983162202	30.403914787776323	2.15
C 	59.9598606764747	30.785780933050003	2.15
C 	60.31300031624879	32.16116902185266	2.15
C 	61.68069116110146	32.54303516712633	2.15
C 	62.033830800875556	33.918423255928985	2.15
C 	63.40152164572823	34.30028940120266	2.15
C 	63.75466128550232	35.67567749000531	2.15
C 	65.122352130355	36.057543635279	2.15
C 	65.4754917701291	37.43293172408166	2.15
C 	66.84318261498177	37.81479786935533	2.15
C 	67.19632225475587	39.19018595815799	2.15
C 	68.56401309960853	39.57205210343166	2.15
C 	68.91715273938263	40.94744019223432	2.15
C 	70.2848435842353	41.329306337508	2.15
C 	70.6379832240094	42.70469442631066	2.15
C 	72.00567406886208	43.086560571584336	2.15
C 	72.35881370863616	44.461948660386994	2.15
C 	73.72650455348885	44.843814805660664	2.15
C 	25.234979058408932	-0.6150056273423897	2.15
C 	26.602669903261603	-0.23313948206871193	2.15
C 	26.9558095430357	1.1422486067339428	2.15
C 	28.323500387888377	1.5241147520076204	2.15
C 	28.67664002766247	2.899502840810275	2.15
C 	30.044330872515143	3.281368986083958	2.15
C 	30.397470512289235	4.656757074886613	2.15
C 	31.765161357141917	5.038623220160289	2.15
C 	32.118300996916005	6.4140113089629445	2.15
C 	33.48599184176868	6.795877454236623	2.15
C 	33.83913148154277	8.17126554303928	2.15
C 	35.206822326395454	8.55313168831296	2.15
C 	35.559961966169546	9.928519777115614	2.15
C 	36.92765281102221	10.310385922389289	2.15
C 	37.280792450796305	11.685774011191944	2.15
C 	38.64848329564899	12.067640156465625	2.15
C 	39.00162293542308	13.44302824526828	2.15
C 	40.36931378027575	13.824894390541957	2.15
C 	40.722453420049845	15.200282479344612	2.15
C 	42.09014426490252	15.582148624618291	2.15
C 	42.44328390467662	16.957536713420946	2.15
C 	43.81097474952929	17.339402858694626	2.15
C 	44.164114389303386	18.71479094749728	2.15
C 	45.53180523415606	19.096657092770958	2.15
C 	45.88494487393015	20.472045181573613	2.15
C 	47.252635718782834	20.853911326847292	2.15
C 	47.605775358556926	22.229299415649947	2.15
C 	48.9734662034096	22.611165560923627	2.15
C 	49.32660584318369	23.986553649726286	2.15
C 	50.69429668803637	24.368419794999955	2.15
C 	51.04743632781046	25.743807883802614	2.15
C 	52.415127172663134	26.125674029076297	2.15
C 	52.768266812437226	27.50106211787895	2.15
C 	54.13595765728991	27.88292826315263	2.15
C 	54.489097297064	29.258316351955287	2.15
C 	55.85678814191667	29.64018249722896	2.15
C 	56.209927781690766	31.015570586031615	2.15
C 	57.57761862654345	31.3974367313053	2.15
C 	57.93075826631754	32.77282482010795	2.15
C 	59.29844911117021	33.15469096538163	2.15
C 	59.651588750944306	34.53007905418429	2.15
C 	61.01927959579698	34.91194519945796	2.15
C 	61.37241923557107	36.28733328826062	2.15
C 	62.74011008042375	36.66919943353429	2.15
C 	63.09324972019784	38.04458752233695	2.15
C 	64.4609405650505	38.42645366761063	2.15
C 	64.8140802048246	39.80184175641329	2.15
C 	66.18177104967728	40.18370790168696	2.15
C 	66.53491068945138	41.55909599048962	2.15
C 	67.90260153430405	41.94096213576329	2.15
C 	68.25574117407814	43.31635022456595	2.15
C 	69.62343201893083	43.698216369839635	2.15
C 	69.97657165870491	45.07360445864229	2.15
C 	71.34426250355759	45.45547060391596	2.15
C 	22.852737008477675	-0.0033498290870906076	2.15
C 	24.22042785333035	0.37851631618658976	2.15
C 	24.573567493104445	1.753904404989246	2.15
C 	25.941258337957123	2.1357705502629223	2.15
C 	26.294397977731215	3.5111586390655787	2.15
C 	27.662088822583886	3.8930247843392554	2.15
C 	28.015228462357978	5.268412873141912	2.15
C 	29.38291930721066	5.650279018415591	2.15
C 	29.736058946984752	7.025667107218248	2.15
C 	31.103749791837423	7.407533252491925	2.15
C 	31.45688943161152	8.78292134129458	2.15
C 	32.8245802764642	9.164787486568256	2.15
C 	33.17771991623829	10.540175575370915	2.15
C 	34.545410761090956	10.922041720644595	2.15
C 	34.898550400865055	12.297429809447253	2.15
C 	36.26624124571773	12.679295954720924	2.15
C 	36.61938088549182	14.054684043523581	2.15
C 	37.987071730344496	14.436550188797261	2.15
C 	38.34021137011859	15.811938277599918	2.15
C 	39.70790221497126	16.19380442287359	2.15
C 	40.06104185474536	17.56919251167625	2.15
C 	41.42873269959803	17.951058656949925	2.15
C 	41.78187233937213	19.326446745752584	2.15
C 	43.1495631842248	19.708312891026264	2.15
C 	43.5027028239989	21.083700979828922	2.15
C 	44.87039366885157	21.46556712510259	2.15
C 	45.22353330862566	22.84095521390525	2.15
C 	46.59122415347834	23.222821359178926	2.15
C 	46.944363793252435	24.598209447981585	2.15
C 	48.31205463810512	24.980075593255265	2.15
C 	48.66519427787921	26.35546368205792	2.15
C 	50.032885122731884	26.737329827331592	2.15
C 	50.386024762505976	28.11271791613425	2.15
C 	51.75371560735864	28.49458406140793	2.15
C 	52.106855247132735	29.86997215021059	2.15
C 	53.47454609198542	30.251838295484266	2.15
C 	53.82768573175951	31.627226384286924	2.15
C 	55.195376576612176	32.0090925295606	2.15
C 	55.548516216386275	33.384480618363256	2.15
C 	56.91620706123895	33.76634676363693	2.15
C 	57.26934670101305	35.14173485243959	2.15
C 	58.63703754586572	35.52360099771327	2.15
C 	58.990177185639816	36.898989086515925	2.15
C 	60.35786803049249	37.2808552317896	2.15
C 	60.71100767026658	38.65624332059226	2.15
C 	62.078698515119264	39.03810946586593	2.15
C 	62.431838154893356	40.41349755466859	2.15
C 	63.79952899974602	40.79536369994227	2.15
C 	64.15266863952012	42.17075178874493	2.15
C 	65.52035948437279	42.5526179340186	2.15
C 	65.87349912414689	43.92800602282126	2.15
C 	67.24118996899956	44.309872168094934	2.15
C 	67.59432960877365	45.685260256897585	2.15
C 	68.96202045362634	46.067126402171276	2.15
C 	20.47049495854642	0.6083059691682111	2.15
C 	21.838185803399096	0.990172114441888	2.15
C 	22.19132544317319	2.365560203244544	2.15
C 	23.559016288025862	2.747426348518224	2.15
C 	23.912155927799954	4.12281443732088	2.15
C 	25.279846772652633	4.504680582594557	2.15
C 	25.632986412426725	5.880068671397214	2.15
C 	27.000677257279403	6.261934816670889	2.15
C 	27.3538168970535	7.637322905473546	2.15
C 	28.721507741906166	8.019189050747226	2.15
C 	29.07464738168026	9.394577139549881	2.15
C 	30.44233822653294	9.776443284823559	2.15
C 	30.795477866307035	11.151831373626218	2.15
C 	32.163168711159706	11.533697518899892	2.15
C 	32.5163083509338	12.909085607702547	2.15
C 	33.88399919578648	13.290951752976229	2.15
C 	34.23713883556057	14.666339841778882	2.15
C 	35.60482968041324	15.048205987052558	2.15
C 	35.95796932018733	16.423594075855213	2.15
C 	37.32566016504001	16.805460221128893	2.15
C 	37.678799804814105	18.180848309931548	2.15
C 	39.04649064966677	18.562714455205224	2.15
C 	39.399630289440864	19.93810254400788	2.15
C 	40.767321134293546	20.31996868928156	2.15
C 	41.12046077406764	21.695356778084214	2.15
C 	42.48815161892031	22.077222923357898	2.15
C 	42.841291258694405	23.452611012160553	2.15
C 	44.208982103547086	23.83447715743423	2.15
C 	44.56212174332118	25.20986524623688	2.15
C 	45.92981258817386	25.591731391510557	2.15
C 	46.28295222794795	26.967119480313215	2.15
C 	47.65064307280063	27.348985625586902	2.15
C 	48.00378271257472	28.724373714389554	2.15
C 	49.3714735574274	29.10623985966323	2.15
C 	49.72461319720149	30.48162794846588	2.15
C 	51.09230404205416	30.86349409373956	2.15
C 	51.44544368182826	32.23888218254222	2.15
C 	52.81313452668093	32.6207483278159	2.15
C 	53.166274166455025	33.996136416618555	2.15
C 	54.53396501130769	34.37800256189223	2.15
C 	54.887104651081785	35.75339065069488	2.15
C 	56.25479549593447	36.135256795968566	2.15
C 	56.60793513570856	37.51064488477122	2.15
C 	57.97562598056123	37.89251103004491	2.15
C 	58.328765620335325	39.26789911884756	2.15
C 	59.69645646518801	39.649765264121235	2.15
C 	60.0495961049621	41.02515335292389	2.15
C 	61.41728694981478	41.40701949819756	2.15
C 	61.77042658958887	42.782407587000215	2.15
C 	63.13811743444155	43.16427373227391	2.15
C 	63.49125707421564	44.539661821076564	2.15
C 	64.85894791906831	44.92152796635023	2.15
C 	65.2120875588424	46.296916055152884	2.15
C 	66.57977840369507	46.67878220042657	2.15
C 	16.367422423988398	-0.5372924666528184	2.15
C 	17.73511326884107	-0.15542632137914186	2.15
C 	18.088252908615164	1.2199617674235146	2.15
C 	19.45594375346784	1.6018279126971915	2.15
C 	19.809083393241934	2.9772160014998477	2.15
C 	21.17677423809461	3.359082146773524	2.15
C 	21.5299138778687	4.73447023557618	2.15
C 	22.89760472272138	5.1163363808498605	2.15
C 	23.25074436249547	6.491724469652517	2.15
C 	24.618435207348146	6.873590614926192	2.15
C 	24.97157484712224	8.248978703728849	2.15
C 	26.339265691974912	8.630844849002527	2.15
C 	26.692405331749008	10.006232937805184	2.15
C 	28.060096176601686	10.38809908307886	2.15
C 	28.41323581637578	11.763487171881518	2.15
C 	29.78092666122845	12.145353317155196	2.15
C 	30.13406630100254	13.520741405957851	2.15
C 	31.50175714585522	13.902607551231526	2.15
C 	31.854896785629315	15.277995640034185	2.15
C 	33.22258763048199	15.659861785307864	2.15
C 	33.57572727025608	17.035249874110523	2.15
C 	34.943418115108756	17.417116019384192	2.15
C 	35.296557754882855	18.79250410818685	2.15
C 	36.66424859973552	19.17437025346053	2.15
C 	37.017388239509614	20.54975834226319	2.15
C 	38.385079084362296	20.93162448753686	2.15
C 	38.73821872413639	22.307012576339517	2.15
C 	40.105909568989055	22.688878721613197	2.15
C 	40.45904920876315	24.06426681041585	2.15
C 	41.82674005361583	24.44613295568953	2.15
C 	42.17987969338992	25.82152104449219	2.15
C 	43.547570538242596	26.203387189765863	2.15
C 	43.90071017801669	27.57877527856852	2.15
C 	45.26840102286937	27.960641423842198	2.15
C 	45.62154066264346	29.336029512644856	2.15
C 	46.98923150749614	29.717895657918532	2.15
C 	47.342371147270235	31.09328374672119	2.15
C 	48.7100619921229	31.475149891994864	2.15
C 	49.063201631897	32.85053798079752	2.15
C 	50.43089247674967	33.2324041260712	2.15
C 	50.78403211652377	34.60779221487386	2.15
C 	52.15172296137644	34.98965836014754	2.15
C 	52.50486260115054	36.365046448950196	2.15
C 	53.8725534460032	36.746912594223865	2.15
C 	54.225693085777294	38.12230068302652	2.15
C 	55.593383930629976	38.5041668283002	2.15
C 	55.94652357040407	39.87955491710286	2.15
C 	57.31421441525674	40.26142106237654	2.15
C 	57.667354055030835	41.63680915117919	2.15
C 	59.035044899883516	42.01867529645287	2.15
C 	59.38818453965761	43.39406338525553	2.15
C 	60.75587538451028	43.7759295305292	2.15
C 	61.10901502428438	45.151317619331856	2.15
C 	62.47670586913706	45.53318376460554	2.15
C 	13.985180374057142	0.0743633316024829	2.15
C 	15.352871218909817	0.4562294768761611	2.15
C 	15.70601085868391	1.8316175656788174	2.15
C 	17.073701703536585	2.2134837109524943	2.15
C 	17.426841343310677	3.5888717997551507	2.15
C 	18.794532188163352	3.9707379450288274	2.15
C 	19.147671827937444	5.346126033831483	2.15
C 	20.515362672790122	5.7279921791051605	2.15
C 	20.868502312564214	7.103380267907817	2.15
C 	22.236193157416892	7.485246413181496	2.15
C 	22.589332797190984	8.860634501984153	2.15
C 	23.95702364204366	9.24250064725783	2.15
C 	24.310163281817754	10.617888736060484	2.15
C 	25.677854126670425	10.999754881334162	2.15
C 	26.03099376644452	12.375142970136821	2.15
C 	27.398684611297195	12.757009115410499	2.15
C 	27.75182425107129	14.132397204213158	2.15
C 	29.119515095923965	14.514263349486832	2.15
C 	29.472654735698057	15.889651438289487	2.15
C 	30.84034558055073	16.271517583563163	2.15
C 	31.193485220324824	17.646905672365822	2.15
C 	32.5611760651775	18.0287718176395	2.15
C 	32.91431570495159	19.40415990644216	2.15
C 	34.282006549804265	19.78602605171583	2.15
C 	34.635146189578364	21.161414140518488	2.15
C 	36.00283703443104	21.543280285792168	2.15
C 	36.35597667420513	22.918668374594827	2.15
C 	37.723667519057805	23.300534519868496	2.15
C 	38.0768071588319	24.675922608671154	2.15
C 	39.44449800368457	25.057788753944834	2.15
C 	39.797637643458664	26.433176842747493	2.15
C 	41.16532848831134	26.81504298802117	2.15
C 	41.51846812808543	28.190431076823828	2.15
C 	42.88615897293811	28.572297222097497	2.15
C 	43.239298612712204	29.947685310900155	2.15
C 	44.606989457564886	30.329551456173835	2.15
C 	44.96012909733898	31.704939544976494	2.15
C 	46.32781994219165	32.08680569025017	2.15
C 	46.680959581965745	33.46219377905283	2.15
C 	48.04865042681842	33.8440599243265	2.15
C 	48.40179006659252	35.21944801312916	2.15
C 	49.769480911445186	35.601314158402836	2.15
C 	50.122620551219285	36.976702247205495	2.15
C 	51.49031139607196	37.35856839247917	2.15
C 	51.84345103584606	38.73395648128183	2.15
C 	53.211141880698726	39.115822626555506	2.15
C 	53.56428152047282	40.491210715358164	2.15
C 	54.93197236532549	40.87307686063184	2.15
C 	55.285112005099585	42.2484649494345	2.15
C 	56.65280284995226	42.630331094708175	2.15
C 	57.00594248972635	44.005719183510834	2.15
C 	58.37363333457903	44.3875853287845	2.15
C 	58.726772974353125	45.76297341758716	2.15
C 	60.0944638192058	46.14483956286083	2.15
C 	11.602938324125883	0.6860191298577829	2.15
C 	12.970629168978562	1.0678852751314611	2.15
C 	13.323768808752655	2.4432733639341175	2.15
C 	14.69145965360533	2.8251395092077956	2.15
C 	15.044599293379424	4.200527598010452	2.15
C 	16.4122901382321	4.582393743284128	2.15
C 	16.76542977800619	5.957781832086785	2.15
C 	18.133120622858865	6.339647977360462	2.15
C 	18.48626026263296	7.715036066163118	2.15
C 	19.85395110748563	8.096902211436795	2.15
C 	20.207090747259727	9.47229030023945	2.15
C 	21.5747815921124	9.854156445513132	2.15
C 	21.927921231886497	11.229544534315787	2.15
C 	23.29561207673917	11.611410679589463	2.15
C 	23.648751716513267	12.986798768392122	2.15
C 	25.016442561365942	13.368664913665796	2.15
C 	25.369582201140034	14.744053002468451	2.15
C 	26.73727304599271	15.125919147742133	2.15
C 	27.0904126857668	16.501307236544786	2.15
C 	28.458103530619475	16.883173381818466	2.15
C 	28.81124317039357	18.258561470621125	2.15
C 	30.178934015246245	18.6404276158948	2.15
C 	30.532073655020337	20.015815704697456	2.15
C 	31.89976449987301	20.397681849971136	2.15
C 	32.25290413964711	21.77306993877379	2.15
C 	33.62059498449978	22.154936084047467	2.15
C 	33.973734624273874	23.53032417285012	2.15
C 	35.34142546912655	23.912190318123802	2.15
C 	35.69456510890064	25.287578406926457	2.15
C 	37.062255953753315	25.669444552200133	2.15
C 	37.415395593527414	27.044832641002785	2.15
C 	38.78308643838008	27.426698786276464	2.15
C 	39.13622607815418	28.802086875079123	2.15
C 	40.503916923006855	29.183953020352806	2.15
C 	40.85705656278095	30.559341109155458	2.15
C 	42.22474740763362	30.941207254429138	2.15
C 	42.577887047407714	32.31659534323179	2.15
C 	43.94557789226039	32.698461488505465	2.15
C 	44.29871753203449	34.073849577308124	2.15
C 	45.66640837688717	34.45571572258181	2.15
C 	46.01954801666126	35.83110381138446	2.15
C 	47.38723886151393	36.21296995665814	2.15
C 	47.74037850128802	37.588358045460794	2.15
C 	49.108069346140695	37.97022419073447	2.15
C 	49.46120898591479	39.34561227953713	2.15
C 	50.82889983076747	39.72747842481081	2.15
C 	51.18203947054156	41.10286651361346	2.15
C 	52.549730315394235	41.48473265888714	2.15
C 	52.90286995516833	42.86012074768979	2.15
C 	54.27056080002101	43.24198689296347	2.15
C 	54.6237004397951	44.617374981766126	2.15
C 	55.99139128464777	44.99924112703982	2.15
C 	56.34453092442186	46.37462921584247	2.15
C 	57.71222176927454	46.756495361116144	2.15
C 	7.4998657895678615	-0.4595793059632485	2.15
C 	8.867556634420534	-0.07771316068957093	2.15
C 	9.220696274194628	1.2976749281130855	2.15
C 	10.588387119047304	1.679541073386762	2.15
C 	10.941526758821398	3.0549291621894183	2.15
C 	12.309217603674073	3.436795307463096	2.15
C 	12.662357243448167	4.812183396265753	2.15
C 	14.030048088300843	5.19404954153943	2.15
C 	14.383187728074937	6.5694376303420885	2.15
C 	15.75087857292761	6.951303775615763	2.15
C 	16.104018212701703	8.326691864418422	2.15
C 	17.471709057554378	8.708558009692096	2.15
C 	17.824848697328473	10.083946098494755	2.15
C 	19.192539542181148	10.46581224376843	2.15
C 	19.54567918195524	11.841200332571088	2.15
C 	20.913370026807915	12.223066477844766	2.15
C 	21.26650966658201	13.598454566647424	2.15
C 	22.634200511434685	13.980320711921099	2.15
C 	22.987340151208777	15.355708800723757	2.15
C 	24.35503099606145	15.737574945997432	2.15
C 	24.708170635835547	17.11296303480009	2.15
C 	26.07586148068822	17.49482918007377	2.15
C 	26.429001120462317	18.870217268876427	2.15
C 	27.796691965314988	19.2520834141501	2.15
C 	28.149831605089084	20.62747150295276	2.15
C 	29.517522449941758	21.009337648226435	2.15
C 	29.87066208971585	22.384725737029093	2.15
C 	31.23835293456853	22.76659188230277	2.15
C 	31.59149257434262	24.141979971105428	2.15
C 	32.95918341919529	24.5238461163791	2.15
C 	33.31232305896938	25.899234205181756	2.15
C 	34.68001390382206	26.281100350455436	2.15
C 	35.03315354359616	27.656488439258094	2.15
C 	36.40084438844883	28.038354584531767	2.15
C 	36.75398402822292	29.413742673334426	2.15
C 	38.1216748730756	29.795608818608102	2.15
C 	38.47481451284969	31.17099690741076	2.15
C 	39.842505357702365	31.55286305268444	2.15
C 	40.19564499747646	32.928251141487095	2.15
C 	41.56333584232913	33.31011728676077	2.15
C 	41.91647548210323	34.68550537556342	2.15
C 	43.284166326955905	35.0673715208371	2.15
C 	43.637305966730004	36.44275960963976	2.15
C 	45.00499681158267	36.82462575491344	2.15
C 	45.35813645135677	38.2000138437161	2.15
C 	46.725827296209445	38.58187998898977	2.15
C 	47.07896693598354	39.95726807779243	2.15
C 	48.44665778083621	40.339134223066104	2.15
C 	48.799797420610304	41.71452231186876	2.15
C 	50.167488265462985	42.09638845714244	2.15
C 	50.52062790523708	43.4717765459451	2.15
C 	51.88831875008975	43.853642691218774	2.15
C 	52.241458389863844	45.22903078002143	2.15
C 	53.609149234716526	45.61089692529511	2.15
C 	5.117623739636605	0.1520764922920532	2.15
C 	6.485314584489281	0.5339426375657306	2.15
C 	6.838454224263375	1.909330726368387	2.15
C 	8.20614506911605	2.291196871642064	2.15
C 	8.559284708890143	3.6665849604447205	2.15
C 	9.926975553742816	4.048451105718398	2.15
C 	10.28011519351691	5.423839194521054	2.15
C 	11.647806038369586	5.805705339794732	2.15
C 	12.00094567814368	7.181093428597388	2.15
C 	13.368636522996354	7.562959573871066	2.15
C 	13.721776162770448	8.938347662673722	2.15
C 	15.089467007623123	9.3202138079474	2.15
C 	15.442606647397216	10.695601896750055	2.15
C 	16.81029749224989	11.077468042023733	2.15
C 	17.163437132023983	12.452856130826389	2.15
C 	18.531127976876657	12.834722276100067	2.15
C 	18.884267616650753	14.210110364902722	2.15
C 	20.251958461503428	14.591976510176403	2.15
C 	20.60509810127752	15.967364598979058	2.15
C 	21.972788946130194	16.349230744252733	2.15
C 	22.32592858590429	17.72461883305539	2.15
C 	23.693619430756964	18.10648497832907	2.15
C 	24.04675907053106	19.481873067131723	2.15
C 	25.414449915383734	19.863739212405406	2.15
C 	25.76758955515783	21.23912730120806	2.15
C 	27.135280400010505	21.620993446481734	2.15
C 	27.488420039784597	22.996381535284392	2.15
C 	28.85611088463727	23.378247680558072	2.15
C 	29.209250524411363	24.753635769360727	2.15
C 	30.57694136926404	25.135501914634407	2.15
C 	30.930081009038133	26.510890003437066	2.15
C 	32.29777185389081	26.89275614871074	2.15
C 	32.6509114936649	28.268144237513397	2.15
C 	34.018602338517574	28.650010382787073	2.15
C 	34.371741978291666	30.025398471589725	2.15
C 	35.73943282314434	30.407264616863404	2.15
C 	36.09257246291843	31.782652705666056	2.15
C 	37.460263307771115	32.16451885093974	2.15
C 	37.81340294754521	33.5399069397424	2.15
C 	39.18109379239788	33.92177308501608	2.15
C 	39.53423343217197	35.29716117381873	2.15
C 	40.90192427702465	35.679027319092405	2.15
C 	41.25506391679874	37.05441540789506	2.15
C 	42.62275476165142	37.43628155316874	2.15
C 	42.97589440142551	38.8116696419714	2.15
C 	44.34358524627819	39.193535787245075	2.15
C 	44.69672488605228	40.56892387604773	2.15
C 	46.064415730904955	40.95079002132141	2.15
C 	46.41755537067905	42.32617811012406	2.15
C 	47.78524621553172	42.708044255397745	2.15
C 	48.13838585530581	44.0834323442004	2.15
C 	49.506076700158495	44.46529848947408	2.15
C 	49.85921633993259	45.84068657827673	2.15
C 	51.22690718478526	46.22255272355041	2.15
C 	2.3822420499312558	-0.6116557982553016	2.15
C 	2.7353816897053496	0.7637322905473548	2.15
C 	4.103072534558025	1.145598435821032	2.15
C 	4.456212174332118	2.5209865246236887	2.15
C 	5.823903019184793	2.902852669897366	2.15
C 	6.177042658958887	4.278240758700022	2.15
C 	7.544733503811561	4.6601069039737	2.15
C 	7.897873143585655	6.035494992776356	2.15
C 	9.265563988438329	6.417361138050033	2.15
C 	9.618703628212423	7.792749226852688	2.15
C 	10.986394473065097	8.174615372126366	2.15
C 	11.339534112839193	9.550003460929025	2.15
C 	12.707224957691867	9.931869606202703	2.15
C 	13.060364597465961	11.307257695005358	2.15
C 	14.428055442318636	11.689123840279036	2.15
C 	14.781195082092728	13.064511929081691	2.15
C 	16.148885926945404	13.44637807435537	2.15
C 	16.502025566719496	14.821766163158024	2.15
C 	17.86971641157217	15.203632308431702	2.15
C 	18.222856051346266	16.579020397234355	2.15
C 	19.59054689619894	16.96088654250804	2.15
C 	19.943686535973033	18.336274631310694	2.15
C 	21.31137738082571	18.71814077658437	2.15
C 	21.664517020599803	20.093528865387025	2.15
C 	23.032207865452477	20.475395010660705	2.15
C 	23.38534750522657	21.85078309946336	2.15
C 	24.753038350079247	22.23264924473704	2.15
C 	25.10617798985334	23.608037333539695	2.15
C 	26.473868834706018	23.98990347881337	2.15
C 	26.82700847448011	25.365291567616026	2.15
C 	28.194699319332784	25.747157712889706	2.15
C 	28.54783895910688	27.12254580169236	2.15
C 	29.91552980395955	27.504411946966037	2.15
C 	30.268669443733646	28.879800035768696	2.15
C 	31.636360288586317	29.26166618104237	2.15
C 	31.989499928360413	30.637054269845027	2.15
C 	33.35719077321309	31.018920415118703	2.15
C 	33.71033041298718	32.394308503921366	2.15
C 	35.07802125783985	32.776174649195035	2.15
C 	35.43116089761395	34.15156273799769	2.15
C 	36.798851742466624	34.53342888327137	2.15
C 	37.151991382240716	35.90881697207403	2.15
C 	38.51968222709339	36.290683117347704	2.15
C 	38.87282186686749	37.66607120615036	2.15
C 	40.240512711720164	38.04793735142404	2.15
C 	40.593652351494256	39.4233254402267	2.15
C 	41.96134319634693	39.805191585500374	2.15
C 	42.31448283612102	41.18057967430303	2.15
C 	43.6821736809737	41.56244581957671	2.15
C 	44.0353133207478	42.93783390837937	2.15
C 	45.40300416560047	43.31970005365304	2.15
C 	45.75614380537456	44.695088142455695	2.15
C 	47.12383465022724	45.07695428772937	2.15
C 	47.47697429000133	46.45234237653203	2.15
C 	48.84466513485401	46.834208521805714	2.15
C 	1.7208304846267686	1.7572542340763337	2.15
C 	2.073970124400862	3.1326423228789904	2.15
C 	3.441660969253537	3.5145084681526675	2.15
C 	3.794800609027631	4.889896556955324	2.15
C 	5.162491453880306	5.271762702229001	2.15
C 	5.5156310936544	6.647150791031658	2.15
C 	6.883321938507074	7.029016936305335	2.15
C 	7.236461578281168	8.404405025107991	2.15
C 	8.604152423133842	8.786271170381669	2.15
C 	8.957292062907936	10.161659259184324	2.15
C 	10.324982907760612	10.543525404458002	2.15
C 	10.678122547534706	11.918913493260659	2.15
C 	12.04581339238738	12.300779638534337	2.15
C 	12.398953032161472	13.676167727336992	2.15
C 	13.766643877014149	14.05803387261067	2.15
C 	14.119783516788242	15.433421961413329	2.15
C 	15.487474361640915	15.815288106687003	2.15
C 	15.840614001415009	17.190676195489658	2.15
C 	17.208304846267684	17.572542340763338	2.15
C 	17.56144448604178	18.947930429565993	2.15
C 	18.929135330894454	19.329796574839673	2.15
C 	19.282274970668546	20.70518466364233	2.15
C 	20.649965815521224	21.087050808916004	2.15
C 	21.003105455295316	22.46243889771866	2.15
C 	22.37079630014799	22.84430504299234	2.15
C 	22.723935939922086	24.219693131794997	2.15
C 	24.09162678477476	24.601559277068674	2.15
C 	24.444766424548853	25.976947365871332	2.15
C 	25.812457269401527	26.35881351114501	2.15
C 	26.165596909175623	27.734201599947664	2.15
C 	27.533287754028297	28.11606774522134	2.15
C 	27.886427393802393	29.491455834024	2.15
C 	29.254118238655067	29.87332197929768	2.15
C 	29.607257878429163	31.248710068100333	2.15
C 	30.97494872328183	31.630576213374006	2.15
C 	31.328088363055926	33.005964302176665	2.15
C 	32.6957792079086	33.38783044745034	2.15
C 	33.04891884768269	34.763218536253	2.15
C 	34.41660969253537	35.145084681526676	2.15
C 	34.769749332309466	36.52047277032933	2.15
C 	36.137440177162134	36.90233891560301	2.15
C 	36.49057981693623	38.27772700440567	2.15
C 	37.85827066178891	38.659593149679345	2.15
C 	38.211410301563	40.034981238482004	2.15
C 	39.579101146415674	40.41684738375567	2.15
C 	39.932240786189766	41.79223547255833	2.15
C 	41.29993163104245	42.17410161783201	2.15
C 	41.65307127081654	43.54948970663467	2.15
C 	43.020762115669214	43.93135585190835	2.15
C 	43.373901755443306	45.306743940711	2.15
C 	44.74159260029598	45.68861008598468	2.15
C 	4.501079888575819	7.640672734560637	2.15
C 	4.854219528349913	9.016060823363294	2.15
C 	6.221910373202587	9.39792696863697	2.15
C 	6.575050012976681	10.773315057439628	2.15
C 	7.942740857829355	11.155181202713303	2.15
C 	8.295880497603449	12.530569291515961	2.15
C 	9.663571342456125	12.91243543678964	2.15
C 	10.016710982230219	14.287823525592293	2.15
C 	11.384401827082893	14.66968967086597	2.15
C 	11.737541466856987	16.04507775966863	2.15
C 	13.10523231170966	16.426943904942306	2.15
C 	13.458371951483755	17.802331993744964	2.15
C 	14.82606279633643	18.184198139018637	2.15
C 	15.179202436110524	19.559586227821296	2.15
C 	16.546893280963197	19.94145237309497	2.15
C 	16.900032920737292	21.316840461897627	2.15
C 	18.267723765589967	21.698706607171307	2.15
C 	18.620863405364062	23.074094695973965	2.15
C 	19.988554250216737	23.455960841247638	2.15
C 	20.34169388999083	24.831348930050297	2.15
C 	21.709384734843503	25.213215075323973	2.15
C 	22.0625243746176	26.58860316412663	2.15
C 	23.430215219470274	26.970469309400308	2.15
C 	23.783354859244366	28.345857398202963	2.15
C 	25.15104570409704	28.727723543476642	2.15
C 	25.504185343871136	30.1031116322793	2.15
C 	26.87187618872381	30.484977777552977	2.15
C 	27.225015828497902	31.86036586635563	2.15
C 	28.59270667335058	32.24223201162931	2.15
C 	28.945846313124672	33.617620100431964	2.15
C 	30.313537157977347	33.99948624570565	2.15
C 	30.66667679775144	35.3748743345083	2.15
C 	32.03436764260412	35.75674047978198	2.15
C 	32.38750728237821	37.13212856858463	2.15
C 	33.755198127230884	37.51399471385831	2.15
C 	34.108337767004976	38.88938280266096	2.15
C 	35.47602861185765	39.271248947934644	2.15
C 	35.82916825163174	40.646637036737296	2.15
C 	37.19685909648442	41.02850318201098	2.15
C 	37.54999873625851	42.40389127081363	2.15
C 	38.91768958111118	42.785757416087314	2.15
C 	39.27082922088528	44.161145504889966	2.15
C 	40.63852006573796	44.54301165016365	2.15
C 	40.991659705512056	45.9183997389663	2.15
C 	42.35935055036473	46.300265884239984	2.15
C 	9.002159777151638	15.281345469121273	2.15
C 	9.355299416925732	16.656733557923932	2.15
C 	10.722990261778406	17.038599703197608	2.15
C 	11.0761299015525	18.413987792000263	2.15
C 	12.443820746405175	18.79585393727394	2.15
C 	12.796960386179268	20.171242026076598	2.15
C 	14.164651231031943	20.553108171350274	2.15
C 	14.517790870806035	21.92849626015293	2.15
C 	15.88548171565871	22.310362405426606	2.15
C 	16.238621355432805	23.685750494229264	2.15
C 	17.60631220028548	24.06761663950294	2.15
C 	17.95945184005957	25.4430047283056	2.15
C 	19.32714268491225	25.82487087357928	2.15
C 	19.680282324686342	27.200258962381934	2.15
C 	21.047973169539016	27.582125107655607	2.15
C 	21.401112809313112	28.957513196458265	2.15
C 	22.768803654165787	29.33937934173194	2.15
C 	23.121943293939882	30.7147674305346	2.15
C 	24.489634138792553	31.09663357580828	2.15
C 	24.84277377856665	32.47202166461093	2.15
C 	26.21046462341932	32.85388780988461	2.15
C 	26.563604263193415	34.22927589868727	2.15
C 	27.93129510804609	34.611142043960946	2.15
C 	28.284434747820185	35.986530132763605	2.15
C 	29.65212559267286	36.368396278037274	2.15
C 	30.005265232446952	37.74378436683993	2.15
C 	31.37295607729963	38.12565051211361	2.15
C 	31.726095717073722	39.50103860091627	2.15
C 	33.09378656192639	39.88290474618994	2.15
C 	33.446926201700485	41.2582928349926	2.15
C 	34.81461704655317	41.64015898026628	2.15
C 	35.16775668632726	43.01554706906894	2.15
C 	36.53544753117993	43.39741321434261	2.15
C 	36.888587170954025	44.77280130314527	2.15
C 	38.2562780158067	45.15466744841894	2.15
C 	38.60941765558079	46.5300555372216	2.15
C 	39.977108500433474	46.911921682495276	2.15
C 	13.503239665727454	22.922018203681912	2.15
C 	13.856379305501548	24.297406292484563	2.15
C 	15.22407015035422	24.679272437758243	2.15
C 	15.577209790128315	26.054660526560898	2.15
C 	16.944900634980993	26.436526671834578	2.15
C 	17.298040274755085	27.811914760637233	2.15
C 	18.665731119607763	28.193780905910913	2.15
C 	19.018870759381855	29.569168994713568	2.15
C 	20.38656160423453	29.951035139987244	2.15
C 	20.739701244008625	31.326423228789903	2.15
C 	22.1073920888613	31.708289374063582	2.15
C 	22.460531728635395	33.08367746286624	2.15
C 	23.828222573488066	33.46554360813991	2.15
C 	24.18136221326216	34.84093169694257	2.15
C 	25.549053058114836	35.222797842216245	2.15
C 	25.90219269788893	36.598185931018904	2.15
C 	27.269883542741603	36.98005207629259	2.15
C 	27.6230231825157	38.35544016509524	2.15
C 	28.990714027368373	38.737306310368915	2.15
C 	29.343853667142465	40.11269439917157	2.15
C 	30.711544511995143	40.49456054444525	2.15
C 	31.064684151769235	41.86994863324791	2.15
C 	32.43237499662191	42.25181477852158	2.15
C 	32.785514636396	43.627202867324236	2.15
C 	34.153205481248676	44.00906901259791	2.15
C 	34.50634512102277	45.38445710140057	2.15
C 	35.87403596587544	45.766323246674254	2.15
C 	18.004319554303276	30.562690938242547	2.15
C 	18.35745919407737	31.938079027045205	2.15
C 	19.725150038930042	32.319945172318874	2.15
C 	20.078289678704138	33.69533326112153	2.15
C 	21.445980523556813	34.077199406395216	2.15
C 	21.799120163330905	35.45258749519787	2.15
C 	23.16681100818358	35.83445364047155	2.15
C 	23.519950647957675	37.20984172927421	2.15
C 	24.88764149281035	37.59170787454788	2.15
C 	25.24078113258444	38.96709596335054	2.15
C 	26.60847197743712	39.34896210862422	2.15
C 	26.96161161721121	40.72435019742687	2.15
C 	28.329302462063886	41.10621634270055	2.15
C 	28.682442101837978	42.4816044315032	2.15
C 	30.050132946690653	42.86347057677688	2.15
C 	30.403272586464748	44.23885866557954	2.15
C 	31.77096343131742	44.62072481085321	2.15
C 	32.12410307109152	45.99611289965587	2.15
C 	33.49179391594419	46.37797904492955	2.15
C 	22.505399442879092	38.20336367280318	2.15
C 	22.858539082653188	39.57875176160584	2.15
C 	24.226229927505862	39.96061790687951	2.15
C 	24.579369567279954	41.33600599568217	2.15
C 	25.947060412132632	41.717872140955855	2.15
C 	26.300200051906724	43.09326022975851	2.15
C 	27.6678908967594	43.47512637503218	2.15
C 	28.02103053653349	44.85051446383484	2.15
C 	29.388721381386166	45.23238060910852	2.15
H 	51.56657698466085	-1.9039007550413092	2.15
H 	53.98411502732296	-1.2289120052969955	2.15
H 	55.70494551194973	0.5283422287793407	2.15
H 	57.425775996576505	2.2855964628556666	2.15
H 	58.049987613360294	4.716740197288544	2.15
H 	49.18433493472961	-1.292244956786013	2.15
H 	58.48519491589879	6.411760729263645	2.15
H 	60.20602540052556	8.169014963339981	2.15
H 	60.830237017309344	10.600158697772844	2.15
H 	46.80209288479833	-0.6805891585307051	2.15
H 	61.265444319847816	12.295179229747937	2.15
H 	62.9862748044746	14.05243346382428	2.15
H 	64.70710528910138	15.809687697900614	2.15
H 	65.33131690588516	18.240831432333486	2.15
H 	42.699020350240325	-1.826187594351743	2.15
H 	45.11655839290243	-1.15119884460743	2.15
H 	65.76652420842366	19.93585196430858	2.15
H 	67.48735469305043	21.693106198384907	2.15
H 	69.2081851776772	23.450360432461256	2.15
H 	69.83239679446098	25.881504166894114	2.15
H 	40.31677830030907	-1.2145317960964421	2.15
H 	70.26760409699946	27.576524698869207	2.15
H 	71.98843458162622	29.333778932945535	2.15
H 	73.70926506625301	31.091033167021894	2.15
H 	74.33347668303679	33.522176901454756	2.15
H 	37.9345362503778	-0.6028759978411321	2.15
H 	74.76868398557528	35.217197433429845	2.15
H 	76.48951447020207	36.97445166750619	2.15
H 	77.11372608698584	39.40559540193905	2.15
H 	33.83146371581979	-1.7484744336621731	2.15
H 	36.24900175848189	-1.0734856839178581	2.15
H 	76.45231452168134	41.7745054342707	2.15
H 	31.44922166588851	-1.136818635406862	2.15
H 	75.79090295637687	44.14341546660232	2.15
H 	29.06697961595726	-0.5251628371515613	2.15
H 	73.99757653049856	45.89957045129086	2.15
H 	24.963907081399245	-1.6707612729725994	2.15
H 	27.381445124061358	-0.9957725232282815	2.15
H 	71.61533448056728	46.51122624954617	2.15
H 	22.58166503146798	-1.0591054747172977	2.15
H 	69.23309243063603	47.12288204780148	2.15
H 	20.19942298153673	-0.4474496764619973	2.15
H 	64.43331233804263	47.059549096312445	2.15
H 	66.85085038070477	47.734537846056774	2.15
H 	16.096350446978708	-1.593048112283027	2.15
H 	18.513888489640824	-0.9180593625387126	2.15
H 	62.74777784614674	46.588939410235746	2.15
H 	13.714108397047449	-0.9813923140277249	2.15
H 	60.3655357962155	47.20059520849104	2.15
H 	11.331866347116188	-0.36973651577242417	2.15
H 	55.5657557036221	47.13726225700203	2.15
H 	57.98329374628424	47.81225100674635	2.15
H 	7.228793812558171	-1.5153349515934569	2.15
H 	9.64633185522029	-0.84034620184914	2.15
H 	53.88022121172622	46.666652570925315	2.15
H 	4.8465517626269135	-0.9036791533381547	2.15
H 	51.49797916179496	47.278308369180614	2.15
H 	46.69819906920157	47.21497541769159	2.15
H 	49.11573711186371	47.88996416743592	2.15
H 	0.6709832868173213	1.4641316296056939	2.15
H 	1.2951949036011063	3.8952753640385587	2.15
H 	3.0160253882278747	5.652529598114892	2.15
H 	45.012664577305664	46.744365731614884	2.15
H 	3.4512326907663717	7.347550130089997	2.15
H 	4.075444307550159	9.778693864522863	2.15
H 	5.796274792176927	11.535948098599198	2.15
H 	7.517105276803692	13.293202332675529	2.15
H 	42.63042252737443	47.35602152987019	2.15
H 	7.95231257934219	14.988222864650634	2.15
H 	8.576524196125977	17.4193665990835	2.15
H 	10.297354680752743	19.17662083315983	2.15
H 	12.018185165379514	20.933875067236166	2.15
H 	37.83064243478103	47.29268857838116	2.15
H 	40.24818047744317	47.96767732812548	2.15
H 	12.453392467918006	22.62889559921128	2.15
H 	13.07760408470179	25.060039333644127	2.15
H 	14.798434569328556	26.817293567720466	2.15
H 	16.519265053955326	28.5745478017968	2.15
H 	36.145107942885126	46.82207889230446	2.15
H 	16.954472356493827	30.269568333771907	2.15
H 	17.57868397327762	32.70071206820478	2.15
H 	19.299514457904383	34.4579663022811	2.15
H 	21.020344942531143	36.21522053635743	2.15
H 	31.345327850291763	46.75874594081544	2.15
H 	33.76286589295389	47.43373469055976	2.15
H 	21.455552245069647	37.91024106833253	2.15
H 	22.079763861853436	40.34138480276541	2.15
H 	23.800594346480192	42.09863903684173	2.15
H 	25.521424831106973	43.85589327091809	2.15
H 	27.242255315733733	45.61314750499441	2.15
H 	29.659793358395856	46.288136254738724	2.15
