2334

C 	0.0	0.0	0.0
C 	1.2297560733739028	0.7099999999999999	0.0
C 	2.4595121467478056	-2.3647750424515833e-16	0.0
C 	3.689268220121708	0.7099999999999995	0.0
C 	4.919024293495611	-4.729550084903167e-16	0.0
C 	6.148780366869514	0.7099999999999993	0.0
C 	7.378536440243416	-7.09432512735475e-16	0.0
C 	8.60829251361732	0.7099999999999991	0.0
C 	9.838048586991222	-9.459100169806333e-16	0.0
C 	11.067804660365125	0.7099999999999989	0.0
C 	12.297560733739026	-1.1823875212257916e-15	0.0
C 	13.527316807112928	0.7099999999999986	0.0
C 	14.757072880486833	-1.41886502547095e-15	0.0
C 	15.986828953860735	0.7099999999999984	0.0
C 	17.21658502723464	-7.671641100159832e-16	0.0
C 	18.44634110060854	0.7099999999999982	0.0
C 	19.676097173982445	-1.8918200339612667e-15	0.0
C 	20.905853247356347	0.7099999999999989	0.0
C 	22.135609320730246	-2.128297538206425e-15	0.0
C 	23.36536539410415	0.7099999999999967	0.0
C 	24.59512146747805	-2.364775042451583e-15	0.0
C 	25.824877540851954	0.7099999999999983	0.0
C 	27.05463361422586	-8.248957072964913e-16	0.0
C 	28.284389687599763	0.7099999999999999	0.0
C 	29.514145760973665	-2.8377300509419e-15	0.0
C 	30.743901834347565	0.7099999999999961	0.0
C 	31.97365790772147	-3.0742075551870582e-15	0.0
C 	33.20341398109537	0.7099999999999976	0.0
C 	34.43317005446928	-1.5343282200319664e-15	0.0
C 	35.66292612784318	0.7099999999999992	0.0
C 	36.892682201217085	-1.7708057242771246e-15	0.0
C 	38.122438274590984	0.7099999999999972	0.0
C 	39.35219434796489	-3.783640067922533e-15	0.0
C 	40.58195042133879	0.7099999999999969	0.0
C 	41.811706494712695	-4.67403893367191e-16	0.0
C 	43.0414625680866	0.7100000000000002	0.0
C 	44.27121864146049	-4.25659507641285e-15	0.0
C 	45.5009747148344	0.7099999999999964	0.0
C 	46.730730788208305	-9.403589018575075e-16	0.0
C 	47.96048686158221	0.7099999999999997	0.0
C 	49.1902429349561	-4.729550084903166e-15	0.0
C 	50.41999900833001	0.709999999999996	0.0
C 	51.64975508170391	-1.413313910347824e-15	0.0
C 	52.879511155077815	0.7099999999999993	0.0
C 	54.10926722845172	-1.6497914145929826e-15	0.0
C 	55.33902330182562	0.7099999999999991	0.0
C 	56.56877937519952	-5.438982597638641e-15	0.0
C 	57.798535448573425	0.7099999999999953	0.0
C 	59.02829152194733	-5.6754601018838e-15	0.0
C 	60.25804759532124	0.709999999999995	0.0
C 	1.2297560733739028	2.1299999999999994	0.0
C 	2.4595121467478056	2.8399999999999994	0.0
C 	3.689268220121708	2.1299999999999994	0.0
C 	4.919024293495611	2.8399999999999994	0.0
C 	6.148780366869514	2.129999999999999	0.0
C 	7.378536440243416	2.839999999999999	0.0
C 	8.60829251361732	2.1299999999999986	0.0
C 	9.838048586991222	2.8399999999999985	0.0
C 	11.067804660365123	2.129999999999998	0.0
C 	12.297560733739028	2.839999999999999	0.0
C 	13.527316807112928	2.1299999999999977	0.0
C 	14.757072880486833	2.839999999999998	0.0
C 	15.986828953860735	2.129999999999998	0.0
C 	17.216585027234636	2.839999999999997	0.0
C 	18.446341100608542	2.129999999999998	0.0
C 	19.676097173982445	2.8399999999999985	0.0
C 	20.905853247356344	2.1299999999999977	0.0
C 	22.13560932073025	2.8399999999999985	0.0
C 	23.36536539410415	2.129999999999997	0.0
C 	24.595121467478055	2.839999999999997	0.0
C 	25.824877540851954	2.1299999999999963	0.0
C 	27.05463361422586	2.839999999999997	0.0
C 	28.284389687599763	2.129999999999998	0.0
C 	29.514145760973665	2.8399999999999985	0.0
C 	30.743901834347568	2.129999999999996	0.0
C 	31.97365790772147	2.8399999999999967	0.0
C 	33.20341398109537	2.129999999999996	0.0
C 	34.43317005446928	2.8399999999999963	0.0
C 	35.66292612784318	2.1299999999999972	0.0
C 	36.89268220121708	2.8399999999999963	0.0
C 	38.122438274590984	2.129999999999997	0.0
C 	39.35219434796489	2.8399999999999976	0.0
C 	40.58195042133879	2.1299999999999986	0.0
C 	41.81170649471269	2.839999999999996	0.0
C 	43.0414625680866	2.129999999999998	0.0
C 	44.2712186414605	2.8399999999999954	0.0
C 	45.5009747148344	2.129999999999998	0.0
C 	46.7307307882083	2.8399999999999954	0.0
C 	47.96048686158221	2.1299999999999977	0.0
C 	49.19024293495611	2.839999999999995	0.0
C 	50.41999900833001	2.1299999999999977	0.0
C 	51.64975508170391	2.8399999999999945	0.0
C 	52.879511155077815	2.1299999999999972	0.0
C 	54.10926722845171	2.8399999999999945	0.0
C 	55.33902330182563	2.130000000000001	0.0
C 	56.56877937519952	2.8399999999999976	0.0
C 	57.798535448573425	2.129999999999997	0.0
C 	59.028291521947324	2.839999999999994	0.0
C 	60.25804759532124	2.129999999999997	0.0
C 	61.487803668695136	2.8399999999999936	0.0
C 	2.4595121467478056	4.259999999999999	0.0
C 	3.689268220121708	4.969999999999999	0.0
C 	4.919024293495611	4.259999999999999	0.0
C 	6.148780366869514	4.969999999999999	0.0
C 	7.378536440243416	4.259999999999999	0.0
C 	8.60829251361732	4.969999999999999	0.0
C 	9.83804858699122	4.259999999999998	0.0
C 	11.067804660365125	4.969999999999999	0.0
C 	12.297560733739028	4.259999999999998	0.0
C 	13.52731680711293	4.969999999999998	0.0
C 	14.757072880486831	4.259999999999998	0.0
C 	15.986828953860735	4.969999999999998	0.0
C 	17.21658502723464	4.259999999999997	0.0
C 	18.446341100608542	4.969999999999998	0.0
C 	19.676097173982445	4.259999999999999	0.0
C 	20.905853247356347	4.969999999999997	0.0
C 	22.135609320730246	4.259999999999996	0.0
C 	23.365365394104153	4.969999999999997	0.0
C 	24.595121467478055	4.259999999999998	0.0
C 	25.824877540851958	4.969999999999997	0.0
C 	27.054633614225857	4.259999999999995	0.0
C 	28.28438968759976	4.969999999999996	0.0
C 	29.514145760973665	4.259999999999997	0.0
C 	30.743901834347568	4.969999999999997	0.0
C 	31.97365790772147	4.259999999999996	0.0
C 	33.20341398109537	4.969999999999995	0.0
C 	34.43317005446927	4.2599999999999945	0.0
C 	35.66292612784318	4.969999999999995	0.0
C 	36.892682201217085	4.259999999999996	0.0
C 	38.122438274590984	4.969999999999997	0.0
C 	39.35219434796489	4.259999999999997	0.0
C 	40.58195042133879	4.969999999999994	0.0
C 	41.81170649471269	4.259999999999995	0.0
C 	43.041462568086594	4.969999999999996	0.0
C 	44.2712186414605	4.259999999999997	0.0
C 	45.500974714834406	4.969999999999998	0.0
C 	46.7307307882083	4.259999999999994	0.0
C 	47.960486861582204	4.9699999999999935	0.0
C 	49.19024293495611	4.259999999999996	0.0
C 	50.41999900833001	4.969999999999997	0.0
C 	51.64975508170391	4.259999999999993	0.0
C 	52.879511155077815	4.9699999999999935	0.0
C 	54.10926722845171	4.259999999999996	0.0
C 	55.33902330182562	4.969999999999997	0.0
C 	56.568779375199526	4.259999999999996	0.0
C 	57.798535448573425	4.969999999999996	0.0
C 	59.028291521947324	4.259999999999995	0.0
C 	60.25804759532123	4.969999999999996	0.0
C 	61.487803668695136	4.259999999999992	0.0
C 	62.717559742069035	4.969999999999993	0.0
C 	3.6892682201217086	6.389999999999999	0.0
C 	4.919024293495611	7.099999999999999	0.0
C 	6.148780366869514	6.389999999999999	0.0
C 	7.378536440243416	7.099999999999999	0.0
C 	8.608292513617318	6.389999999999998	0.0
C 	9.838048586991222	7.099999999999999	0.0
C 	11.067804660365125	6.389999999999998	0.0
C 	12.297560733739028	7.099999999999998	0.0
C 	13.52731680711293	6.389999999999999	0.0
C 	14.757072880486833	7.099999999999998	0.0
C 	15.986828953860735	6.389999999999998	0.0
C 	17.216585027234636	7.099999999999997	0.0
C 	18.44634110060854	6.389999999999997	0.0
C 	19.676097173982445	7.099999999999998	0.0
C 	20.905853247356347	6.389999999999998	0.0
C 	22.13560932073025	7.099999999999997	0.0
C 	23.365365394104153	6.389999999999998	0.0
C 	24.59512146747805	7.099999999999997	0.0
C 	25.824877540851958	6.389999999999998	0.0
C 	27.054633614225857	7.099999999999997	0.0
C 	28.28438968759976	6.389999999999999	0.0
C 	29.514145760973662	7.099999999999997	0.0
C 	30.743901834347568	6.389999999999999	0.0
C 	31.97365790772147	7.099999999999998	0.0
C 	33.20341398109537	6.389999999999995	0.0
C 	34.43317005446928	7.099999999999994	0.0
C 	35.66292612784318	6.389999999999995	0.0
C 	36.892682201217085	7.099999999999996	0.0
C 	38.122438274590984	6.389999999999996	0.0
C 	39.35219434796489	7.099999999999997	0.0
C 	40.58195042133879	6.389999999999994	0.0
C 	41.811706494712695	7.099999999999995	0.0
C 	43.041462568086594	6.389999999999996	0.0
C 	44.2712186414605	7.099999999999997	0.0
C 	45.500974714834406	6.389999999999998	0.0
C 	46.730730788208305	7.099999999999998	0.0
C 	47.960486861582204	6.389999999999995	0.0
C 	49.19024293495611	7.099999999999996	0.0
C 	50.41999900833001	6.389999999999995	0.0
C 	51.649755081703915	7.099999999999996	0.0
C 	52.879511155077815	6.389999999999995	0.0
C 	54.10926722845172	7.099999999999996	0.0
C 	55.33902330182562	6.389999999999995	0.0
C 	56.568779375199526	7.099999999999995	0.0
C 	57.79853544857343	6.389999999999998	0.0
C 	59.02829152194733	7.099999999999999	0.0
C 	60.25804759532123	6.389999999999994	0.0
C 	61.487803668695136	7.099999999999995	0.0
C 	62.71755974206904	6.389999999999994	0.0
C 	63.94731581544294	7.099999999999995	0.0
C 	4.919024293495611	8.519999999999998	0.0
C 	6.148780366869514	9.229999999999999	0.0
C 	7.378536440243416	8.519999999999998	0.0
C 	8.60829251361732	9.229999999999999	0.0
C 	9.838048586991222	8.519999999999998	0.0
C 	11.067804660365125	9.229999999999999	0.0
C 	12.297560733739028	8.519999999999998	0.0
C 	13.52731680711293	9.229999999999997	0.0
C 	14.757072880486833	8.519999999999998	0.0
C 	15.986828953860737	9.229999999999999	0.0
C 	17.216585027234636	8.519999999999998	0.0
C 	18.44634110060854	9.229999999999997	0.0
C 	19.67609717398244	8.519999999999996	0.0
C 	20.905853247356347	9.229999999999997	0.0
C 	22.13560932073025	8.519999999999998	0.0
C 	23.365365394104153	9.229999999999999	0.0
C 	24.595121467478055	8.519999999999996	0.0
C 	25.824877540851954	9.229999999999995	0.0
C 	27.05463361422586	8.519999999999996	0.0
C 	28.284389687599763	9.229999999999997	0.0
C 	29.514145760973662	8.519999999999996	0.0
C 	30.743901834347565	9.229999999999995	0.0
C 	31.97365790772147	8.52	0.0
C 	33.20341398109537	9.229999999999997	0.0
C 	34.43317005446928	8.519999999999994	0.0
C 	35.66292612784318	9.229999999999995	0.0
C 	36.89268220121708	8.519999999999992	0.0
C 	38.122438274590984	9.229999999999993	0.0
C 	39.35219434796489	8.519999999999998	0.0
C 	40.58195042133879	9.229999999999995	0.0
C 	41.811706494712695	8.519999999999994	0.0
C 	43.0414625680866	9.229999999999995	0.0
C 	44.27121864146049	8.519999999999992	0.0
C 	45.5009747148344	9.229999999999993	0.0
C 	46.730730788208305	8.519999999999998	0.0
C 	47.960486861582204	9.229999999999995	0.0
C 	49.19024293495611	8.519999999999996	0.0
C 	50.41999900833001	9.229999999999993	0.0
C 	51.64975508170391	8.519999999999994	0.0
C 	52.879511155077815	9.229999999999995	0.0
C 	54.10926722845171	8.51999999999999	0.0
C 	55.33902330182562	9.229999999999992	0.0
C 	56.568779375199526	8.519999999999998	0.0
C 	57.798535448573425	9.229999999999995	0.0
C 	59.02829152194733	8.519999999999994	0.0
C 	60.25804759532123	9.229999999999993	0.0
C 	61.48780366869513	8.519999999999992	0.0
C 	62.717559742069035	9.229999999999993	0.0
C 	63.94731581544294	8.519999999999992	0.0
C 	65.17707188881684	9.22999999999999	0.0
C 	6.148780366869514	10.649999999999997	0.0
C 	7.378536440243416	11.359999999999998	0.0
C 	8.608292513617318	10.649999999999997	0.0
C 	9.838048586991222	11.359999999999998	0.0
C 	11.067804660365125	10.649999999999997	0.0
C 	12.297560733739028	11.359999999999996	0.0
C 	13.52731680711293	10.649999999999997	0.0
C 	14.757072880486831	11.359999999999996	0.0
C 	15.986828953860735	10.649999999999997	0.0
C 	17.216585027234636	11.359999999999996	0.0
C 	18.44634110060854	10.649999999999997	0.0
C 	19.676097173982445	11.359999999999998	0.0
C 	20.905853247356347	10.649999999999997	0.0
C 	22.13560932073025	11.359999999999996	0.0
C 	23.365365394104153	10.649999999999997	0.0
C 	24.595121467478055	11.359999999999996	0.0
C 	25.824877540851958	10.649999999999997	0.0
C 	27.05463361422586	11.359999999999996	0.0
C 	28.284389687599763	10.649999999999995	0.0
C 	29.514145760973662	11.359999999999994	0.0
C 	30.743901834347565	10.649999999999995	0.0
C 	31.97365790772147	11.359999999999996	0.0
C 	33.20341398109537	10.649999999999997	0.0
C 	34.43317005446928	11.359999999999998	0.0
C 	35.66292612784318	10.649999999999991	0.0
C 	36.89268220121708	11.359999999999992	0.0
C 	38.122438274590984	10.649999999999993	0.0
C 	39.35219434796489	11.359999999999994	0.0
C 	40.58195042133879	10.649999999999993	0.0
C 	41.811706494712695	11.359999999999994	0.0
C 	43.041462568086594	10.649999999999991	0.0
C 	44.2712186414605	11.359999999999992	0.0
C 	45.5009747148344	10.649999999999993	0.0
C 	46.730730788208305	11.359999999999994	0.0
C 	47.960486861582204	10.649999999999995	0.0
C 	49.19024293495611	11.359999999999996	0.0
C 	50.41999900833001	10.649999999999993	0.0
C 	51.649755081703915	11.359999999999994	0.0
C 	52.879511155077815	10.649999999999995	0.0
C 	54.10926722845172	11.359999999999996	0.0
C 	55.33902330182562	10.649999999999993	0.0
C 	56.568779375199526	11.359999999999994	0.0
C 	57.798535448573425	10.649999999999993	0.0
C 	59.02829152194733	11.359999999999992	0.0
C 	60.25804759532124	10.649999999999995	0.0
C 	61.487803668695136	11.359999999999996	0.0
C 	62.717559742069035	10.649999999999991	0.0
C 	63.94731581544294	11.359999999999992	0.0
C 	65.17707188881684	10.649999999999991	0.0
C 	66.40682796219075	11.359999999999992	0.0
C 	7.378536440243417	12.779999999999998	0.0
C 	8.60829251361732	13.489999999999998	0.0
C 	9.838048586991222	12.78	0.0
C 	11.067804660365125	13.489999999999997	0.0
C 	12.297560733739028	12.779999999999998	0.0
C 	13.527316807112932	13.489999999999998	0.0
C 	14.757072880486833	12.779999999999998	0.0
C 	15.986828953860737	13.489999999999997	0.0
C 	17.216585027234636	12.779999999999996	0.0
C 	18.446341100608542	13.489999999999997	0.0
C 	19.676097173982445	12.779999999999998	0.0
C 	20.905853247356347	13.489999999999997	0.0
C 	22.13560932073025	12.779999999999996	0.0
C 	23.36536539410415	13.489999999999995	0.0
C 	24.595121467478055	12.779999999999996	0.0
C 	25.824877540851958	13.489999999999997	0.0
C 	27.05463361422586	12.779999999999998	0.0
C 	28.284389687599763	13.489999999999997	0.0
C 	29.514145760973662	12.779999999999996	0.0
C 	30.743901834347568	13.489999999999997	0.0
C 	31.97365790772147	12.779999999999996	0.0
C 	33.20341398109537	13.489999999999997	0.0
C 	34.43317005446928	12.779999999999998	0.0
C 	35.66292612784318	13.489999999999995	0.0
C 	36.89268220121708	12.779999999999994	0.0
C 	38.122438274590984	13.489999999999995	0.0
C 	39.35219434796489	12.779999999999996	0.0
C 	40.581950421338796	13.489999999999997	0.0
C 	41.811706494712695	12.779999999999996	0.0
C 	43.041462568086594	13.489999999999993	0.0
C 	44.2712186414605	12.779999999999994	0.0
C 	45.5009747148344	13.489999999999995	0.0
C 	46.730730788208305	12.779999999999996	0.0
C 	47.96048686158221	13.489999999999997	0.0
C 	49.19024293495611	12.779999999999998	0.0
C 	50.41999900833001	13.489999999999995	0.0
C 	51.649755081703915	12.779999999999996	0.0
C 	52.879511155077815	13.489999999999993	0.0
C 	54.10926722845172	12.779999999999998	0.0
C 	55.33902330182563	13.489999999999998	0.0
C 	56.56877937519952	12.779999999999998	0.0
C 	57.798535448573425	13.489999999999997	0.0
C 	59.02829152194733	12.779999999999994	0.0
C 	60.25804759532123	13.489999999999991	0.0
C 	61.487803668695136	12.779999999999998	0.0
C 	62.71755974206904	13.489999999999998	0.0
C 	63.94731581544294	12.779999999999994	0.0
C 	65.17707188881684	13.489999999999995	0.0
C 	66.40682796219075	12.77999999999999	0.0
C 	67.63658403556465	13.489999999999988	0.0
C 	8.60829251361732	14.909999999999998	0.0
C 	9.838048586991222	15.619999999999996	0.0
C 	11.067804660365125	14.909999999999997	0.0
C 	12.297560733739026	15.619999999999996	0.0
C 	13.527316807112934	14.909999999999998	0.0
C 	14.757072880486831	15.619999999999996	0.0
C 	15.986828953860737	14.909999999999998	0.0
C 	17.21658502723464	15.619999999999997	0.0
C 	18.446341100608542	14.909999999999997	0.0
C 	19.676097173982445	15.619999999999996	0.0
C 	20.905853247356347	14.909999999999997	0.0
C 	22.135609320730246	15.619999999999996	0.0
C 	23.365365394104153	14.909999999999995	0.0
C 	24.595121467478055	15.619999999999996	0.0
C 	25.824877540851958	14.909999999999997	0.0
C 	27.05463361422586	15.619999999999996	0.0
C 	28.284389687599763	14.909999999999997	0.0
C 	29.514145760973665	15.619999999999996	0.0
C 	30.743901834347568	14.909999999999997	0.0
C 	31.973657907721474	15.619999999999997	0.0
C 	33.203413981095366	14.909999999999993	0.0
C 	34.43317005446927	15.619999999999994	0.0
C 	35.662926127843185	14.909999999999998	0.0
C 	36.892682201217085	15.619999999999996	0.0
C 	38.122438274590984	14.909999999999995	0.0
C 	39.35219434796489	15.619999999999996	0.0
C 	40.58195042133879	14.909999999999993	0.0
C 	41.811706494712695	15.619999999999994	0.0
C 	43.0414625680866	14.909999999999998	0.0
C 	44.2712186414605	15.619999999999996	0.0
C 	45.5009747148344	14.909999999999995	0.0
C 	46.730730788208305	15.619999999999996	0.0
C 	47.960486861582204	14.909999999999993	0.0
C 	49.19024293495611	15.619999999999994	0.0
C 	50.41999900833002	14.909999999999998	0.0
C 	51.649755081703915	15.619999999999996	0.0
C 	52.87951115507782	14.909999999999997	0.0
C 	54.10926722845171	15.619999999999994	0.0
C 	55.33902330182562	14.909999999999995	0.0
C 	56.568779375199526	15.619999999999994	0.0
C 	57.798535448573425	14.909999999999991	0.0
C 	59.028291521947324	15.619999999999992	0.0
C 	60.25804759532124	14.909999999999998	0.0
C 	61.487803668695136	15.619999999999996	0.0
C 	62.717559742069035	14.909999999999993	0.0
C 	63.94731581544294	15.619999999999994	0.0
C 	65.17707188881684	14.909999999999993	0.0
C 	66.40682796219075	15.619999999999994	0.0
C 	67.63658403556465	14.909999999999997	0.0
C 	68.86634010893854	15.61999999999999	0.0
C 	9.838048586991222	17.039999999999996	0.0
C 	11.067804660365127	17.749999999999996	0.0
C 	12.297560733739028	17.039999999999996	0.0
C 	13.527316807112932	17.749999999999996	0.0
C 	14.757072880486833	17.039999999999996	0.0
C 	15.986828953860735	17.749999999999996	0.0
C 	17.21658502723464	17.039999999999996	0.0
C 	18.446341100608546	17.749999999999996	0.0
C 	19.676097173982445	17.039999999999996	0.0
C 	20.905853247356347	17.749999999999996	0.0
C 	22.13560932073025	17.039999999999996	0.0
C 	23.365365394104153	17.749999999999996	0.0
C 	24.595121467478055	17.039999999999996	0.0
C 	25.82487754085196	17.749999999999996	0.0
C 	27.05463361422586	17.039999999999996	0.0
C 	28.28438968759977	17.75	0.0
C 	29.514145760973665	17.039999999999996	0.0
C 	30.74390183434757	17.749999999999996	0.0
C 	31.973657907721467	17.039999999999992	0.0
C 	33.20341398109537	17.749999999999993	0.0
C 	34.43317005446927	17.039999999999996	0.0
C 	35.66292612784318	17.749999999999996	0.0
C 	36.892682201217085	17.039999999999996	0.0
C 	38.122438274590984	17.749999999999996	0.0
C 	39.35219434796488	17.039999999999992	0.0
C 	40.58195042133879	17.749999999999993	0.0
C 	41.811706494712695	17.039999999999992	0.0
C 	43.041462568086594	17.749999999999993	0.0
C 	44.2712186414605	17.039999999999996	0.0
C 	45.500974714834406	17.749999999999996	0.0
C 	46.7307307882083	17.039999999999992	0.0
C 	47.960486861582204	17.749999999999993	0.0
C 	49.19024293495611	17.039999999999992	0.0
C 	50.41999900833002	17.749999999999993	0.0
C 	51.649755081703915	17.039999999999996	0.0
C 	52.87951115507782	17.749999999999996	0.0
C 	54.10926722845172	17.039999999999992	0.0
C 	55.33902330182562	17.749999999999993	0.0
C 	56.568779375199526	17.039999999999996	0.0
C 	57.79853544857343	17.749999999999996	0.0
C 	59.028291521947324	17.039999999999992	0.0
C 	60.25804759532123	17.749999999999993	0.0
C 	61.487803668695136	17.039999999999996	0.0
C 	62.71755974206904	17.749999999999996	0.0
C 	63.94731581544294	17.04	0.0
C 	65.17707188881684	17.749999999999993	0.0
C 	66.40682796219075	17.039999999999996	0.0
C 	67.63658403556464	17.74999999999999	0.0
C 	68.86634010893856	17.03999999999999	0.0
C 	70.09609618231246	17.74999999999999	0.0
C 	11.067804660365125	19.169999999999995	0.0
C 	12.297560733739026	19.879999999999995	0.0
C 	13.52731680711293	19.169999999999995	0.0
C 	14.757072880486831	19.879999999999995	0.0
C 	15.986828953860737	19.169999999999998	0.0
C 	17.216585027234636	19.879999999999992	0.0
C 	18.446341100608542	19.169999999999995	0.0
C 	19.676097173982445	19.879999999999995	0.0
C 	20.905853247356347	19.169999999999995	0.0
C 	22.135609320730246	19.879999999999995	0.0
C 	23.365365394104153	19.169999999999995	0.0
C 	24.59512146747805	19.879999999999995	0.0
C 	25.824877540851958	19.169999999999995	0.0
C 	27.05463361422586	19.879999999999995	0.0
C 	28.284389687599763	19.169999999999995	0.0
C 	29.51414576097367	19.879999999999995	0.0
C 	30.743901834347565	19.16999999999999	0.0
C 	31.97365790772147	19.879999999999992	0.0
C 	33.20341398109537	19.169999999999995	0.0
C 	34.43317005446927	19.879999999999992	0.0
C 	35.66292612784318	19.169999999999995	0.0
C 	36.89268220121708	19.879999999999992	0.0
C 	38.122438274590984	19.169999999999995	0.0
C 	39.35219434796488	19.879999999999992	0.0
C 	40.58195042133879	19.16999999999999	0.0
C 	41.81170649471269	19.87999999999999	0.0
C 	43.0414625680866	19.169999999999995	0.0
C 	44.27121864146049	19.879999999999992	0.0
C 	45.5009747148344	19.16999999999999	0.0
C 	46.730730788208305	19.879999999999992	0.0
C 	47.960486861582204	19.169999999999995	0.0
C 	49.1902429349561	19.879999999999992	0.0
C 	50.41999900833002	19.169999999999995	0.0
C 	51.649755081703915	19.879999999999992	0.0
C 	52.879511155077815	19.16999999999999	0.0
C 	54.10926722845172	19.879999999999992	0.0
C 	55.33902330182562	19.16999999999999	0.0
C 	56.56877937519952	19.879999999999992	0.0
C 	57.79853544857343	19.169999999999995	0.0
C 	59.02829152194733	19.879999999999992	0.0
C 	60.25804759532123	19.169999999999995	0.0
C 	61.48780366869513	19.879999999999992	0.0
C 	62.717559742069035	19.16999999999999	0.0
C 	63.94731581544294	19.879999999999992	0.0
C 	65.17707188881684	19.169999999999995	0.0
C 	66.40682796219075	19.87999999999999	0.0
C 	67.63658403556465	19.169999999999995	0.0
C 	68.86634010893854	19.87999999999999	0.0
C 	70.09609618231245	19.16999999999999	0.0
C 	71.32585225568636	19.879999999999992	0.0
C 	12.297560733739028	21.299999999999994	0.0
C 	13.527316807112932	22.009999999999994	0.0
C 	14.757072880486831	21.299999999999994	0.0
C 	15.986828953860735	22.009999999999994	0.0
C 	17.216585027234636	21.299999999999994	0.0
C 	18.44634110060854	22.009999999999994	0.0
C 	19.676097173982445	21.299999999999994	0.0
C 	20.905853247356347	22.009999999999994	0.0
C 	22.13560932073025	21.299999999999994	0.0
C 	23.365365394104153	22.009999999999994	0.0
C 	24.595121467478055	21.299999999999994	0.0
C 	25.824877540851958	22.009999999999994	0.0
C 	27.05463361422586	21.299999999999994	0.0
C 	28.284389687599766	22.009999999999994	0.0
C 	29.514145760973662	21.29999999999999	0.0
C 	30.743901834347568	22.00999999999999	0.0
C 	31.97365790772147	21.299999999999994	0.0
C 	33.20341398109537	22.009999999999994	0.0
C 	34.43317005446928	21.299999999999994	0.0
C 	35.662926127843185	22.009999999999994	0.0
C 	36.89268220121708	21.299999999999994	0.0
C 	38.122438274590984	22.009999999999994	0.0
C 	39.35219434796489	21.299999999999994	0.0
C 	40.58195042133879	22.009999999999994	0.0
C 	41.811706494712695	21.299999999999994	0.0
C 	43.0414625680866	22.009999999999994	0.0
C 	44.2712186414605	21.29999999999999	0.0
C 	45.5009747148344	22.00999999999999	0.0
C 	46.730730788208305	21.299999999999994	0.0
C 	47.96048686158221	22.009999999999994	0.0
C 	49.19024293495611	21.299999999999994	0.0
C 	50.41999900833002	22.009999999999994	0.0
C 	51.649755081703915	21.299999999999994	0.0
C 	52.879511155077815	22.00999999999999	0.0
C 	54.10926722845172	21.299999999999994	0.0
C 	55.33902330182563	22.009999999999994	0.0
C 	56.568779375199526	21.29999999999999	0.0
C 	57.798535448573425	22.00999999999999	0.0
C 	59.02829152194733	21.299999999999994	0.0
C 	60.25804759532124	22.009999999999994	0.0
C 	61.48780366869513	21.29999999999999	0.0
C 	62.717559742069035	22.00999999999999	0.0
C 	63.94731581544294	21.299999999999994	0.0
C 	65.17707188881684	22.009999999999987	0.0
C 	66.40682796219075	21.299999999999994	0.0
C 	67.63658403556465	22.009999999999994	0.0
C 	68.86634010893854	21.29999999999999	0.0
C 	70.09609618231245	22.00999999999999	0.0
C 	71.32585225568636	21.299999999999983	0.0
C 	72.55560832906026	22.00999999999999	0.0
C 	13.527316807112932	23.429999999999996	0.0
C 	14.757072880486836	24.139999999999997	0.0
C 	15.986828953860737	23.429999999999996	0.0
C 	17.216585027234643	24.139999999999997	0.0
C 	18.446341100608542	23.429999999999996	0.0
C 	19.676097173982445	24.139999999999997	0.0
C 	20.90585324735635	23.429999999999996	0.0
C 	22.135609320730254	24.139999999999997	0.0
C 	23.365365394104156	23.429999999999993	0.0
C 	24.595121467478062	24.139999999999997	0.0
C 	25.824877540851958	23.429999999999993	0.0
C 	27.054633614225864	24.139999999999993	0.0
C 	28.284389687599766	23.429999999999996	0.0
C 	29.514145760973673	24.139999999999997	0.0
C 	30.743901834347575	23.429999999999996	0.0
C 	31.973657907721478	24.139999999999997	0.0
C 	33.20341398109537	23.429999999999993	0.0
C 	34.43317005446928	24.139999999999993	0.0
C 	35.66292612784318	23.429999999999993	0.0
C 	36.892682201217085	24.139999999999993	0.0
C 	38.122438274590984	23.429999999999993	0.0
C 	39.35219434796489	24.139999999999993	0.0
C 	40.58195042133879	23.429999999999996	0.0
C 	41.811706494712695	24.139999999999993	0.0
C 	43.041462568086594	23.42999999999999	0.0
C 	44.2712186414605	24.13999999999999	0.0
C 	45.5009747148344	23.429999999999993	0.0
C 	46.730730788208305	24.139999999999993	0.0
C 	47.96048686158221	23.429999999999993	0.0
C 	49.19024293495611	24.139999999999993	0.0
C 	50.41999900833001	23.429999999999993	0.0
C 	51.649755081703915	24.13999999999999	0.0
C 	52.87951115507782	23.429999999999993	0.0
C 	54.10926722845172	24.139999999999993	0.0
C 	55.33902330182563	23.429999999999993	0.0
C 	56.56877937519953	24.139999999999993	0.0
C 	57.798535448573425	23.429999999999993	0.0
C 	59.02829152194733	24.139999999999993	0.0
C 	60.25804759532124	23.429999999999993	0.0
C 	61.487803668695136	24.13999999999999	0.0
C 	62.71755974206904	23.429999999999993	0.0
C 	63.947315815442934	24.139999999999986	0.0
C 	65.17707188881684	23.429999999999993	0.0
C 	66.40682796219075	24.139999999999993	0.0
C 	67.63658403556464	23.42999999999999	0.0
C 	68.86634010893856	24.139999999999997	0.0
C 	70.09609618231245	23.42999999999999	0.0
C 	71.32585225568636	24.139999999999997	0.0
C 	72.55560832906026	23.42999999999999	0.0
C 	73.78536440243417	24.13999999999999	0.0
C 	14.757072880486835	25.559999999999995	0.0
C 	15.986828953860735	26.269999999999996	0.0
C 	17.21658502723464	25.559999999999995	0.0
C 	18.44634110060854	26.269999999999996	0.0
C 	19.676097173982445	25.56	0.0
C 	20.905853247356344	26.269999999999996	0.0
C 	22.13560932073025	25.56	0.0
C 	23.365365394104153	26.269999999999996	0.0
C 	24.595121467478055	25.559999999999995	0.0
C 	25.824877540851958	26.269999999999996	0.0
C 	27.054633614225857	25.559999999999995	0.0
C 	28.28438968759976	26.269999999999996	0.0
C 	29.514145760973665	25.559999999999995	0.0
C 	30.743901834347568	26.269999999999996	0.0
C 	31.973657907721474	25.559999999999995	0.0
C 	33.20341398109538	26.269999999999996	0.0
C 	34.43317005446927	25.55999999999999	0.0
C 	35.66292612784318	26.269999999999992	0.0
C 	36.892682201217085	25.559999999999995	0.0
C 	38.12243827459098	26.269999999999992	0.0
C 	39.35219434796489	25.559999999999995	0.0
C 	40.58195042133879	26.269999999999992	0.0
C 	41.81170649471269	25.55999999999999	0.0
C 	43.041462568086594	26.269999999999992	0.0
C 	44.2712186414605	25.55999999999999	0.0
C 	45.5009747148344	26.26999999999999	0.0
C 	46.730730788208305	25.559999999999995	0.0
C 	47.960486861582204	26.269999999999992	0.0
C 	49.19024293495611	25.55999999999999	0.0
C 	50.41999900833001	26.269999999999992	0.0
C 	51.649755081703915	25.559999999999995	0.0
C 	52.879511155077815	26.269999999999992	0.0
C 	54.10926722845172	25.559999999999995	0.0
C 	55.33902330182562	26.269999999999992	0.0
C 	56.568779375199526	25.55999999999999	0.0
C 	57.79853544857343	26.269999999999992	0.0
C 	59.028291521947324	25.55999999999999	0.0
C 	60.25804759532123	26.269999999999992	0.0
C 	61.487803668695136	25.559999999999995	0.0
C 	62.717559742069035	26.26999999999999	0.0
C 	63.94731581544294	25.55999999999999	0.0
C 	65.17707188881683	26.269999999999985	0.0
C 	66.40682796219075	25.55999999999999	0.0
C 	67.63658403556465	26.269999999999992	0.0
C 	68.86634010893856	25.559999999999995	0.0
C 	70.09609618231246	26.269999999999996	0.0
C 	71.32585225568636	25.559999999999995	0.0
C 	72.55560832906026	26.269999999999996	0.0
C 	73.78536440243415	25.559999999999988	0.0
C 	75.01512047580806	26.26999999999999	0.0
C 	15.986828953860735	27.689999999999994	0.0
C 	17.21658502723464	28.399999999999995	0.0
C 	18.446341100608542	27.689999999999994	0.0
C 	19.676097173982445	28.399999999999995	0.0
C 	20.905853247356344	27.689999999999994	0.0
C 	22.13560932073025	28.399999999999995	0.0
C 	23.365365394104153	27.689999999999994	0.0
C 	24.59512146747806	28.399999999999995	0.0
C 	25.824877540851954	27.689999999999994	0.0
C 	27.054633614225857	28.399999999999995	0.0
C 	28.284389687599763	27.689999999999994	0.0
C 	29.514145760973665	28.399999999999995	0.0
C 	30.74390183434757	27.689999999999994	0.0
C 	31.973657907721474	28.399999999999995	0.0
C 	33.20341398109537	27.68999999999999	0.0
C 	34.43317005446928	28.39999999999999	0.0
C 	35.66292612784318	27.689999999999994	0.0
C 	36.892682201217085	28.399999999999995	0.0
C 	38.122438274590984	27.689999999999994	0.0
C 	39.35219434796489	28.399999999999995	0.0
C 	40.58195042133879	27.689999999999994	0.0
C 	41.811706494712695	28.399999999999995	0.0
C 	43.041462568086594	27.689999999999994	0.0
C 	44.2712186414605	28.399999999999995	0.0
C 	45.500974714834406	27.689999999999994	0.0
C 	46.730730788208305	28.399999999999995	0.0
C 	47.960486861582204	27.68999999999999	0.0
C 	49.19024293495611	28.39999999999999	0.0
C 	50.41999900833002	27.689999999999994	0.0
C 	51.649755081703915	28.399999999999995	0.0
C 	52.87951115507782	27.689999999999994	0.0
C 	54.10926722845173	28.399999999999995	0.0
C 	55.33902330182562	27.68999999999999	0.0
C 	56.568779375199526	28.39999999999999	0.0
C 	57.79853544857343	27.689999999999994	0.0
C 	59.02829152194733	28.39999999999999	0.0
C 	60.25804759532124	27.689999999999994	0.0
C 	61.48780366869513	28.399999999999988	0.0
C 	62.717559742069035	27.689999999999994	0.0
C 	63.94731581544294	28.399999999999995	0.0
C 	65.17707188881684	27.68999999999999	0.0
C 	66.40682796219075	28.39999999999999	0.0
C 	67.63658403556464	27.689999999999987	0.0
C 	68.86634010893856	28.399999999999995	0.0
C 	70.09609618231245	27.689999999999994	0.0
C 	71.32585225568636	28.399999999999995	0.0
C 	72.55560832906026	27.68999999999999	0.0
C 	73.78536440243415	28.39999999999999	0.0
C 	75.01512047580808	27.689999999999994	0.0
C 	76.24487654918197	28.399999999999984	0.0
C 	17.21658502723464	29.819999999999997	0.0
C 	18.446341100608546	30.529999999999998	0.0
C 	19.676097173982445	29.819999999999997	0.0
C 	20.905853247356355	30.529999999999998	0.0
C 	22.13560932073025	29.819999999999993	0.0
C 	23.365365394104156	30.529999999999994	0.0
C 	24.59512146747806	29.819999999999997	0.0
C 	25.82487754085196	30.529999999999998	0.0
C 	27.054633614225867	29.819999999999997	0.0
C 	28.28438968759977	30.529999999999998	0.0
C 	29.514145760973665	29.819999999999997	0.0
C 	30.74390183434757	30.529999999999998	0.0
C 	31.973657907721474	29.819999999999997	0.0
C 	33.20341398109538	30.529999999999998	0.0
C 	34.43317005446928	29.819999999999997	0.0
C 	35.662926127843185	30.529999999999998	0.0
C 	36.892682201217085	29.819999999999993	0.0
C 	38.12243827459099	30.529999999999994	0.0
C 	39.35219434796488	29.819999999999993	0.0
C 	40.58195042133879	30.529999999999994	0.0
C 	41.811706494712695	29.819999999999993	0.0
C 	43.0414625680866	30.529999999999994	0.0
C 	44.2712186414605	29.819999999999993	0.0
C 	45.500974714834406	30.529999999999994	0.0
C 	46.730730788208305	29.81999999999999	0.0
C 	47.960486861582204	30.52999999999999	0.0
C 	49.19024293495611	29.819999999999993	0.0
C 	50.41999900833002	30.529999999999994	0.0
C 	51.649755081703915	29.819999999999993	0.0
C 	52.87951115507782	30.529999999999994	0.0
C 	54.10926722845172	29.819999999999993	0.0
C 	55.33902330182563	30.52999999999999	0.0
C 	56.568779375199526	29.819999999999993	0.0
C 	57.798535448573425	30.52999999999999	0.0
C 	59.02829152194734	29.819999999999993	0.0
C 	60.25804759532124	30.529999999999994	0.0
C 	61.487803668695136	29.819999999999993	0.0
C 	62.71755974206904	30.529999999999994	0.0
C 	63.947315815442934	29.81999999999999	0.0
C 	65.17707188881685	30.529999999999998	0.0
C 	66.40682796219073	29.819999999999986	0.0
C 	67.63658403556465	30.529999999999994	0.0
C 	68.86634010893856	29.819999999999993	0.0
C 	70.09609618231245	30.529999999999994	0.0
C 	71.32585225568637	29.819999999999997	0.0
C 	72.55560832906026	30.52999999999999	0.0
C 	73.78536440243417	29.819999999999997	0.0
C 	75.01512047580806	30.529999999999987	0.0
C 	76.24487654918197	29.81999999999999	0.0
C 	77.47463262255587	30.52999999999999	0.0
C 	18.446341100608542	31.949999999999996	0.0
C 	19.676097173982445	32.65999999999999	0.0
C 	20.905853247356347	31.949999999999992	0.0
C 	22.135609320730254	32.66	0.0
C 	23.365365394104156	31.949999999999996	0.0
C 	24.595121467478055	32.65999999999999	0.0
C 	25.824877540851958	31.949999999999992	0.0
C 	27.05463361422586	32.66	0.0
C 	28.284389687599766	31.949999999999996	0.0
C 	29.51414576097367	32.66	0.0
C 	30.743901834347568	31.949999999999992	0.0
C 	31.97365790772147	32.66	0.0
C 	33.20341398109537	31.949999999999992	0.0
C 	34.43317005446928	32.66	0.0
C 	35.66292612784318	31.949999999999996	0.0
C 	36.892682201217085	32.66	0.0
C 	38.122438274590984	31.949999999999992	0.0
C 	39.35219434796489	32.65999999999999	0.0
C 	40.58195042133879	31.949999999999992	0.0
C 	41.81170649471269	32.65999999999999	0.0
C 	43.0414625680866	31.949999999999996	0.0
C 	44.2712186414605	32.65999999999999	0.0
C 	45.5009747148344	31.949999999999992	0.0
C 	46.730730788208305	32.65999999999999	0.0
C 	47.96048686158221	31.949999999999992	0.0
C 	49.1902429349561	32.65999999999999	0.0
C 	50.41999900833002	31.949999999999992	0.0
C 	51.649755081703915	32.65999999999999	0.0
C 	52.879511155077815	31.949999999999992	0.0
C 	54.10926722845172	32.65999999999999	0.0
C 	55.33902330182563	31.949999999999992	0.0
C 	56.568779375199526	32.65999999999999	0.0
C 	57.79853544857343	31.949999999999992	0.0
C 	59.028291521947324	32.65999999999999	0.0
C 	60.25804759532124	31.949999999999992	0.0
C 	61.487803668695136	32.65999999999999	0.0
C 	62.717559742069035	31.94999999999999	0.0
C 	63.94731581544294	32.65999999999999	0.0
C 	65.17707188881685	31.949999999999992	0.0
C 	66.40682796219076	32.66	0.0
C 	67.63658403556465	31.949999999999992	0.0
C 	68.86634010893856	32.65999999999999	0.0
C 	70.09609618231245	31.94999999999999	0.0
C 	71.32585225568636	32.65999999999999	0.0
C 	72.55560832906026	31.949999999999996	0.0
C 	73.78536440243415	32.65999999999999	0.0
C 	75.01512047580806	31.949999999999992	0.0
C 	76.24487654918195	32.65999999999998	0.0
C 	77.47463262255587	31.949999999999985	0.0
C 	78.70438869592978	32.65999999999999	0.0
C 	19.676097173982445	34.07999999999999	0.0
C 	20.90585324735635	34.78999999999999	0.0
C 	22.135609320730254	34.07999999999999	0.0
C 	23.365365394104156	34.78999999999999	0.0
C 	24.595121467478055	34.07999999999999	0.0
C 	25.824877540851958	34.78999999999999	0.0
C 	27.054633614225864	34.07999999999999	0.0
C 	28.284389687599766	34.78999999999999	0.0
C 	29.514145760973665	34.07999999999999	0.0
C 	30.743901834347568	34.78999999999999	0.0
C 	31.97365790772147	34.07999999999999	0.0
C 	33.20341398109537	34.78999999999999	0.0
C 	34.43317005446928	34.07999999999999	0.0
C 	35.662926127843185	34.78999999999999	0.0
C 	36.89268220121708	34.07999999999999	0.0
C 	38.122438274590984	34.78999999999999	0.0
C 	39.35219434796489	34.07999999999999	0.0
C 	40.581950421338796	34.78999999999999	0.0
C 	41.811706494712695	34.07999999999999	0.0
C 	43.0414625680866	34.78999999999999	0.0
C 	44.2712186414605	34.07999999999999	0.0
C 	45.5009747148344	34.78999999999999	0.0
C 	46.730730788208305	34.07999999999999	0.0
C 	47.96048686158221	34.78999999999999	0.0
C 	49.19024293495611	34.07999999999999	0.0
C 	50.41999900833002	34.78999999999999	0.0
C 	51.649755081703915	34.07999999999999	0.0
C 	52.87951115507782	34.78999999999999	0.0
C 	54.10926722845172	34.07999999999999	0.0
C 	55.33902330182562	34.78999999999999	0.0
C 	56.56877937519953	34.07999999999999	0.0
C 	57.79853544857343	34.78999999999999	0.0
C 	59.02829152194733	34.07999999999999	0.0
C 	60.25804759532124	34.78999999999999	0.0
C 	61.487803668695136	34.07999999999999	0.0
C 	62.71755974206905	34.79	0.0
C 	63.947315815442934	34.079999999999984	0.0
C 	65.17707188881685	34.78999999999999	0.0
C 	66.40682796219075	34.07999999999999	0.0
C 	67.63658403556465	34.78999999999999	0.0
C 	68.86634010893854	34.07999999999999	0.0
C 	70.09609618231245	34.78999999999999	0.0
C 	71.32585225568636	34.07999999999999	0.0
C 	72.55560832906025	34.789999999999985	0.0
C 	73.78536440243417	34.07999999999999	0.0
C 	75.01512047580808	34.78999999999999	0.0
C 	76.24487654918197	34.07999999999999	0.0
C 	77.47463262255587	34.78999999999999	0.0
C 	78.70438869592977	34.079999999999984	0.0
C 	79.93414476930369	34.78999999999999	0.0
C 	20.90585324735635	36.209999999999994	0.0
C 	22.135609320730254	36.919999999999995	0.0
C 	23.36536539410416	36.209999999999994	0.0
C 	24.595121467478062	36.919999999999995	0.0
C 	25.82487754085196	36.209999999999994	0.0
C 	27.054633614225864	36.919999999999995	0.0
C 	28.284389687599766	36.209999999999994	0.0
C 	29.514145760973673	36.919999999999995	0.0
C 	30.743901834347575	36.209999999999994	0.0
C 	31.973657907721478	36.919999999999995	0.0
C 	33.20341398109537	36.209999999999994	0.0
C 	34.43317005446928	36.919999999999995	0.0
C 	35.662926127843185	36.209999999999994	0.0
C 	36.89268220121709	36.919999999999995	0.0
C 	38.12243827459099	36.209999999999994	0.0
C 	39.3521943479649	36.919999999999995	0.0
C 	40.581950421338796	36.209999999999994	0.0
C 	41.811706494712695	36.919999999999995	0.0
C 	43.041462568086594	36.209999999999994	0.0
C 	44.2712186414605	36.919999999999995	0.0
C 	45.500974714834406	36.209999999999994	0.0
C 	46.730730788208305	36.919999999999995	0.0
C 	47.96048686158221	36.209999999999994	0.0
C 	49.19024293495612	36.919999999999995	0.0
C 	50.41999900833002	36.20999999999999	0.0
C 	51.649755081703915	36.91999999999999	0.0
C 	52.87951115507782	36.209999999999994	0.0
C 	54.10926722845172	36.91999999999999	0.0
C 	55.33902330182563	36.209999999999994	0.0
C 	56.56877937519953	36.919999999999995	0.0
C 	57.79853544857343	36.20999999999999	0.0
C 	59.02829152194733	36.91999999999999	0.0
C 	60.25804759532123	36.20999999999999	0.0
C 	61.48780366869515	36.919999999999995	0.0
C 	62.71755974206904	36.209999999999994	0.0
C 	63.94731581544295	36.919999999999995	0.0
C 	65.17707188881684	36.209999999999994	0.0
C 	66.40682796219075	36.919999999999995	0.0
C 	67.63658403556467	36.209999999999994	0.0
C 	68.86634010893856	36.91999999999999	0.0
C 	70.09609618231246	36.209999999999994	0.0
C 	71.32585225568636	36.91999999999999	0.0
C 	72.55560832906026	36.209999999999994	0.0
C 	73.78536440243417	36.919999999999995	0.0
C 	75.01512047580806	36.20999999999999	0.0
C 	76.24487654918198	36.919999999999995	0.0
C 	77.47463262255586	36.20999999999999	0.0
C 	78.70438869592978	36.919999999999995	0.0
C 	79.93414476930369	36.20999999999999	0.0
C 	81.16390084267759	36.91999999999999	0.0
C 	22.13560932073025	38.33999999999999	0.0
C 	23.365365394104153	39.04999999999999	0.0
C 	24.59512146747806	38.33999999999999	0.0
C 	25.82487754085196	39.04999999999999	0.0
C 	27.05463361422586	38.33999999999999	0.0
C 	28.284389687599763	39.04999999999999	0.0
C 	29.514145760973665	38.33999999999999	0.0
C 	30.74390183434757	39.04999999999999	0.0
C 	31.973657907721474	38.339999999999996	0.0
C 	33.20341398109538	39.04999999999999	0.0
C 	34.43317005446927	38.33999999999999	0.0
C 	35.66292612784318	39.04999999999999	0.0
C 	36.892682201217085	38.33999999999999	0.0
C 	38.12243827459099	39.04999999999999	0.0
C 	39.35219434796489	38.33999999999999	0.0
C 	40.581950421338796	39.04999999999999	0.0
C 	41.811706494712695	38.33999999999999	0.0
C 	43.0414625680866	39.04999999999999	0.0
C 	44.27121864146049	38.33999999999999	0.0
C 	45.5009747148344	39.04999999999999	0.0
C 	46.730730788208305	38.33999999999999	0.0
C 	47.960486861582204	39.04999999999999	0.0
C 	49.19024293495611	38.33999999999999	0.0
C 	50.41999900833002	39.04999999999999	0.0
C 	51.649755081703915	38.33999999999999	0.0
C 	52.879511155077815	39.04999999999999	0.0
C 	54.10926722845173	38.33999999999999	0.0
C 	55.33902330182562	39.04999999999998	0.0
C 	56.568779375199526	38.33999999999999	0.0
C 	57.79853544857343	39.04999999999999	0.0
C 	59.02829152194733	38.33999999999999	0.0
C 	60.25804759532123	39.04999999999999	0.0
C 	61.48780366869513	38.33999999999998	0.0
C 	62.71755974206905	39.04999999999999	0.0
C 	63.94731581544294	38.33999999999999	0.0
C 	65.17707188881685	39.04999999999999	0.0
C 	66.40682796219075	38.33999999999999	0.0
C 	67.63658403556465	39.04999999999999	0.0
C 	68.86634010893856	38.33999999999999	0.0
C 	70.09609618231245	39.04999999999998	0.0
C 	71.32585225568636	38.33999999999999	0.0
C 	72.55560832906025	39.04999999999998	0.0
C 	73.78536440243415	38.33999999999999	0.0
C 	75.01512047580806	39.04999999999999	0.0
C 	76.24487654918197	38.33999999999999	0.0
C 	77.47463262255587	39.05	0.0
C 	78.70438869592977	38.33999999999998	0.0
C 	79.93414476930369	39.04999999999999	0.0
C 	81.16390084267758	38.33999999999998	0.0
C 	82.39365691605148	39.04999999999998	0.0
C 	23.365365394104156	40.46999999999999	0.0
C 	24.59512146747806	41.17999999999999	0.0
C 	25.82487754085196	40.46999999999999	0.0
C 	27.054633614225867	41.17999999999999	0.0
C 	28.284389687599763	40.46999999999999	0.0
C 	29.51414576097367	41.17999999999999	0.0
C 	30.74390183434757	40.46999999999999	0.0
C 	31.973657907721474	41.17999999999999	0.0
C 	33.20341398109537	40.46999999999999	0.0
C 	34.43317005446928	41.17999999999999	0.0
C 	35.66292612784318	40.46999999999999	0.0
C 	36.892682201217085	41.17999999999999	0.0
C 	38.12243827459099	40.46999999999999	0.0
C 	39.3521943479649	41.17999999999999	0.0
C 	40.58195042133879	40.46999999999999	0.0
C 	41.811706494712695	41.17999999999999	0.0
C 	43.0414625680866	40.46999999999999	0.0
C 	44.2712186414605	41.17999999999999	0.0
C 	45.500974714834406	40.46999999999999	0.0
C 	46.73073078820831	41.17999999999999	0.0
C 	47.960486861582204	40.46999999999999	0.0
C 	49.19024293495611	41.17999999999999	0.0
C 	50.41999900833002	40.46999999999999	0.0
C 	51.649755081703915	41.179999999999986	0.0
C 	52.87951115507782	40.46999999999999	0.0
C 	54.10926722845173	41.17999999999999	0.0
C 	55.33902330182563	40.46999999999999	0.0
C 	56.568779375199526	41.17999999999999	0.0
C 	57.798535448573425	40.469999999999985	0.0
C 	59.028291521947345	41.17999999999999	0.0
C 	60.25804759532124	40.46999999999999	0.0
C 	61.48780366869514	41.17999999999999	0.0
C 	62.71755974206904	40.46999999999999	0.0
C 	63.94731581544295	41.17999999999999	0.0
C 	65.17707188881685	40.46999999999999	0.0
C 	66.40682796219075	41.179999999999986	0.0
C 	67.63658403556465	40.46999999999999	0.0
C 	68.86634010893854	41.179999999999986	0.0
C 	70.09609618231246	40.46999999999999	0.0
C 	71.32585225568636	41.17999999999999	0.0
C 	72.55560832906026	40.469999999999985	0.0
C 	73.78536440243417	41.179999999999986	0.0
C 	75.01512047580806	40.469999999999985	0.0
C 	76.24487654918198	41.17999999999999	0.0
C 	77.47463262255587	40.46999999999999	0.0
C 	78.70438869592978	41.17999999999999	0.0
C 	79.93414476930367	40.469999999999985	0.0
C 	81.16390084267758	41.179999999999986	0.0
C 	82.3936569160515	40.46999999999999	0.0
C 	83.62341298942539	41.179999999999986	0.0
C 	24.595121467478055	42.59999999999999	0.0
C 	25.82487754085196	43.30999999999999	0.0
C 	27.05463361422586	42.59999999999999	0.0
C 	28.284389687599766	43.30999999999999	0.0
C 	29.514145760973662	42.59999999999999	0.0
C 	30.743901834347568	43.30999999999999	0.0
C 	31.97365790772147	42.59999999999999	0.0
C 	33.20341398109537	43.30999999999999	0.0
C 	34.43317005446927	42.59999999999999	0.0
C 	35.66292612784318	43.30999999999999	0.0
C 	36.89268220121708	42.59999999999999	0.0
C 	38.122438274590984	43.30999999999999	0.0
C 	39.35219434796489	42.59999999999999	0.0
C 	40.581950421338796	43.30999999999999	0.0
C 	41.81170649471269	42.59999999999999	0.0
C 	43.041462568086594	43.30999999999999	0.0
C 	44.2712186414605	42.59999999999999	0.0
C 	45.5009747148344	43.30999999999999	0.0
C 	46.730730788208305	42.59999999999999	0.0
C 	47.96048686158221	43.30999999999999	0.0
C 	49.19024293495611	42.59999999999999	0.0
C 	50.41999900833001	43.30999999999999	0.0
C 	51.64975508170392	42.599999999999994	0.0
C 	52.879511155077815	43.30999999999999	0.0
C 	54.10926722845172	42.59999999999999	0.0
C 	55.33902330182563	43.30999999999999	0.0
C 	56.568779375199526	42.59999999999999	0.0
C 	57.798535448573425	43.30999999999999	0.0
C 	59.028291521947324	42.59999999999998	0.0
C 	60.258047595321244	43.30999999999999	0.0
C 	61.487803668695136	42.59999999999999	0.0
C 	62.71755974206904	43.30999999999999	0.0
C 	63.94731581544294	42.59999999999999	0.0
C 	65.17707188881684	43.30999999999999	0.0
C 	66.40682796219076	42.599999999999994	0.0
C 	67.63658403556465	43.30999999999999	0.0
C 	68.86634010893856	42.59999999999999	0.0
C 	70.09609618231245	43.30999999999998	0.0
C 	71.32585225568636	42.59999999999999	0.0
C 	72.55560832906026	43.30999999999999	0.0
C 	73.78536440243415	42.59999999999999	0.0
C 	75.01512047580806	43.30999999999999	0.0
C 	76.24487654918197	42.59999999999998	0.0
C 	77.47463262255587	43.30999999999999	0.0
C 	78.70438869592978	42.59999999999999	0.0
C 	79.93414476930367	43.30999999999999	0.0
C 	81.16390084267758	42.59999999999999	0.0
C 	82.39365691605148	43.30999999999999	0.0
C 	83.62341298942539	42.59999999999999	0.0
C 	84.85316906279928	43.30999999999998	0.0
C 	25.82487754085196	44.72999999999999	0.0
C 	27.054633614225864	45.43999999999999	0.0
C 	28.284389687599766	44.72999999999999	0.0
C 	29.514145760973673	45.43999999999999	0.0
C 	30.743901834347568	44.72999999999999	0.0
C 	31.97365790772147	45.43999999999999	0.0
C 	33.20341398109537	44.72999999999999	0.0
C 	34.43317005446928	45.43999999999999	0.0
C 	35.662926127843185	44.72999999999999	0.0
C 	36.892682201217085	45.43999999999999	0.0
C 	38.122438274590984	44.72999999999999	0.0
C 	39.35219434796489	45.43999999999999	0.0
C 	40.581950421338796	44.72999999999999	0.0
C 	41.811706494712695	45.43999999999999	0.0
C 	43.0414625680866	44.72999999999999	0.0
C 	44.27121864146051	45.43999999999999	0.0
C 	45.500974714834406	44.72999999999999	0.0
C 	46.730730788208305	45.43999999999999	0.0
C 	47.960486861582204	44.72999999999999	0.0
C 	49.19024293495611	45.43999999999998	0.0
C 	50.41999900833002	44.72999999999999	0.0
C 	51.64975508170391	45.43999999999998	0.0
C 	52.87951115507782	44.72999999999999	0.0
C 	54.10926722845172	45.43999999999999	0.0
C 	55.33902330182562	44.72999999999998	0.0
C 	56.568779375199526	45.43999999999998	0.0
C 	57.798535448573425	44.72999999999998	0.0
C 	59.02829152194734	45.43999999999999	0.0
C 	60.25804759532124	44.72999999999999	0.0
C 	61.48780366869514	45.43999999999999	0.0
C 	62.717559742069035	44.72999999999998	0.0
C 	63.94731581544294	45.43999999999998	0.0
C 	65.17707188881685	44.72999999999999	0.0
C 	66.40682796219075	45.43999999999998	0.0
C 	67.63658403556465	44.72999999999999	0.0
C 	68.86634010893856	45.43999999999999	0.0
C 	70.09609618231245	44.72999999999999	0.0
C 	71.32585225568636	45.43999999999998	0.0
C 	72.55560832906026	44.72999999999998	0.0
C 	73.78536440243417	45.43999999999999	0.0
C 	75.01512047580806	44.72999999999998	0.0
C 	76.24487654918198	45.43999999999999	0.0
C 	77.47463262255587	44.72999999999999	0.0
C 	78.70438869592978	45.43999999999999	0.0
C 	79.93414476930369	44.72999999999999	0.0
C 	81.16390084267758	45.43999999999998	0.0
C 	82.39365691605148	44.72999999999999	0.0
C 	83.62341298942538	45.43999999999998	0.0
C 	84.8531690627993	44.72999999999998	0.0
C 	86.08292513617319	45.43999999999998	0.0
C 	27.054633614225864	46.85999999999999	0.0
C 	28.28438968759977	47.56999999999999	0.0
C 	29.514145760973673	46.85999999999999	0.0
C 	30.74390183434758	47.56999999999999	0.0
C 	31.973657907721474	46.85999999999999	0.0
C 	33.20341398109538	47.56999999999999	0.0
C 	34.43317005446928	46.85999999999999	0.0
C 	35.662926127843185	47.56999999999999	0.0
C 	36.892682201217085	46.85999999999999	0.0
C 	38.122438274590984	47.56999999999999	0.0
C 	39.35219434796489	46.85999999999999	0.0
C 	40.581950421338796	47.56999999999999	0.0
C 	41.8117064947127	46.85999999999999	0.0
C 	43.0414625680866	47.56999999999999	0.0
C 	44.2712186414605	46.85999999999999	0.0
C 	45.500974714834406	47.56999999999999	0.0
C 	46.73073078820831	46.859999999999985	0.0
C 	47.960486861582204	47.569999999999986	0.0
C 	49.19024293495612	46.85999999999999	0.0
C 	50.41999900833002	47.56999999999999	0.0
C 	51.649755081703915	46.859999999999985	0.0
C 	52.87951115507782	47.569999999999986	0.0
C 	54.10926722845172	46.859999999999985	0.0
C 	55.339023301825634	47.56999999999999	0.0
C 	56.56877937519953	46.85999999999999	0.0
C 	57.79853544857344	47.56999999999999	0.0
C 	59.02829152194733	46.859999999999985	0.0
C 	60.25804759532124	47.569999999999986	0.0
C 	61.48780366869515	46.85999999999999	0.0
C 	62.71755974206904	47.569999999999986	0.0
C 	63.94731581544295	46.85999999999999	0.0
C 	65.17707188881685	47.56999999999999	0.0
C 	66.40682796219075	46.859999999999985	0.0
C 	67.63658403556465	47.569999999999986	0.0
C 	68.86634010893856	46.859999999999985	0.0
C 	70.09609618231246	47.56999999999999	0.0
C 	71.32585225568636	46.859999999999985	0.0
C 	72.55560832906028	47.56999999999999	0.0
C 	73.78536440243417	46.859999999999985	0.0
C 	75.01512047580808	47.569999999999986	0.0
C 	76.24487654918197	46.859999999999985	0.0
C 	77.47463262255587	47.569999999999986	0.0
C 	78.70438869592978	46.85999999999999	0.0
C 	79.93414476930367	47.569999999999986	0.0
C 	81.16390084267758	46.85999999999999	0.0
C 	82.39365691605148	47.56999999999999	0.0
C 	83.62341298942539	46.859999999999985	0.0
C 	84.8531690627993	47.569999999999986	0.0
C 	86.08292513617319	46.85999999999998	0.0
C 	87.31268120954711	47.569999999999986	0.0
C 	28.284389687599763	48.98999999999999	0.0
C 	29.51414576097367	49.69999999999999	0.0
C 	30.74390183434757	48.98999999999999	0.0
C 	31.973657907721478	49.69999999999999	0.0
C 	33.20341398109537	48.98999999999999	0.0
C 	34.43317005446928	49.69999999999999	0.0
C 	35.66292612784318	48.98999999999999	0.0
C 	36.892682201217085	49.69999999999999	0.0
C 	38.122438274590984	48.98999999999999	0.0
C 	39.35219434796488	49.69999999999999	0.0
C 	40.58195042133879	48.98999999999999	0.0
C 	41.811706494712695	49.69999999999999	0.0
C 	43.041462568086594	48.98999999999999	0.0
C 	44.2712186414605	49.69999999999999	0.0
C 	45.5009747148344	48.98999999999999	0.0
C 	46.730730788208305	49.69999999999998	0.0
C 	47.96048686158221	48.98999999999999	0.0
C 	49.1902429349561	49.69999999999998	0.0
C 	50.41999900833002	48.98999999999999	0.0
C 	51.64975508170392	49.69999999999999	0.0
C 	52.879511155077815	48.98999999999999	0.0
C 	54.10926722845172	49.69999999999999	0.0
C 	55.33902330182562	48.98999999999998	0.0
C 	56.56877937519953	49.69999999999999	0.0
C 	57.79853544857343	48.98999999999999	0.0
C 	59.02829152194734	49.69999999999999	0.0
C 	60.25804759532124	48.98999999999999	0.0
C 	61.487803668695136	49.69999999999999	0.0
C 	62.71755974206905	48.98999999999999	0.0
C 	63.94731581544294	49.69999999999998	0.0
C 	65.17707188881685	48.98999999999999	0.0
C 	66.40682796219075	49.69999999999999	0.0
C 	67.63658403556465	48.98999999999999	0.0
C 	68.86634010893856	49.69999999999999	0.0
C 	70.09609618231245	48.98999999999998	0.0
C 	71.32585225568637	49.69999999999999	0.0
C 	72.55560832906025	48.98999999999998	0.0
C 	73.78536440243417	49.69999999999999	0.0
C 	75.01512047580806	48.98999999999999	0.0
C 	76.24487654918197	49.69999999999999	0.0
C 	77.47463262255587	48.98999999999998	0.0
C 	78.70438869592978	49.69999999999998	0.0
C 	79.93414476930369	48.98999999999999	0.0
C 	81.16390084267758	49.69999999999998	0.0
C 	82.39365691605148	48.98999999999999	0.0
C 	83.62341298942539	49.69999999999999	0.0
C 	84.85316906279928	48.98999999999998	0.0
C 	86.08292513617319	49.69999999999998	0.0
C 	87.3126812095471	48.98999999999998	0.0
C 	88.542437282921	49.69999999999999	0.0
C 	29.51414576097367	51.11999999999999	0.0
C 	30.74390183434757	51.82999999999999	0.0
C 	31.973657907721474	51.11999999999999	0.0
C 	33.20341398109538	51.82999999999999	0.0
C 	34.43317005446928	51.11999999999999	0.0
C 	35.66292612784318	51.82999999999999	0.0
C 	36.892682201217085	51.11999999999999	0.0
C 	38.12243827459099	51.82999999999999	0.0
C 	39.35219434796489	51.12	0.0
C 	40.581950421338796	51.83	0.0
C 	41.811706494712695	51.11999999999999	0.0
C 	43.041462568086594	51.82999999999999	0.0
C 	44.2712186414605	51.12	0.0
C 	45.5009747148344	51.82999999999999	0.0
C 	46.73073078820831	51.11999999999999	0.0
C 	47.96048686158221	51.82999999999999	0.0
C 	49.19024293495611	51.11999999999999	0.0
C 	50.41999900833002	51.82999999999999	0.0
C 	51.649755081703915	51.11999999999998	0.0
C 	52.879511155077815	51.829999999999984	0.0
C 	54.10926722845171	51.11999999999999	0.0
C 	55.33902330182563	51.83	0.0
C 	56.568779375199526	51.11999999999999	0.0
C 	57.79853544857343	51.82999999999999	0.0
C 	59.02829152194733	51.11999999999999	0.0
C 	60.25804759532124	51.82999999999999	0.0
C 	61.48780366869514	51.11999999999999	0.0
C 	62.717559742069035	51.829999999999984	0.0
C 	63.94731581544295	51.11999999999999	0.0
C 	65.17707188881685	51.82999999999999	0.0
C 	66.40682796219075	51.11999999999999	0.0
C 	67.63658403556465	51.82999999999999	0.0
C 	68.86634010893854	51.11999999999998	0.0
C 	70.09609618231246	51.82999999999999	0.0
C 	71.32585225568636	51.11999999999999	0.0
C 	72.55560832906026	51.82999999999999	0.0
C 	73.78536440243417	51.11999999999999	0.0
C 	75.01512047580806	51.82999999999999	0.0
C 	76.24487654918198	51.11999999999999	0.0
C 	77.47463262255587	51.829999999999984	0.0
C 	78.70438869592978	51.11999999999999	0.0
C 	79.93414476930367	51.829999999999984	0.0
C 	81.16390084267758	51.11999999999999	0.0
C 	82.39365691605148	51.82999999999999	0.0
C 	83.62341298942538	51.11999999999998	0.0
C 	84.8531690627993	51.82999999999999	0.0
C 	86.08292513617319	51.11999999999998	0.0
C 	87.3126812095471	51.82999999999999	0.0
C 	88.542437282921	51.11999999999998	0.0
C 	89.7721933562949	51.829999999999984	0.0
C 	52.99851612661034	-0.049883638842117425	2.15
C 	54.38748571965234	0.2453509621191014	2.15
C 	54.82628985166477	1.5958512152582212	2.15
C 	48.83160734748433	-0.9355874417257671	2.15
C 	50.220576940526335	-0.6403528407645569	2.15
C 	50.65938107253876	0.7101474123745629	2.15
C 	52.04835066558076	1.0053820133357818	2.15
C 	52.48715479759319	2.3558822664749015	2.15
C 	53.87612439063519	2.651116867436122	2.15
C 	54.31492852264762	4.001617120575242	2.15
C 	55.70389811568962	4.296851721536454	2.15
C 	56.14270224770205	5.647351974675574	2.15
C 	57.53167184074405	5.942586575636793	2.15
C 	57.970475972756475	7.2930868287759125	2.15
C 	46.49247229341274	-0.17555639050909355	2.15
C 	47.881441886454745	0.11967821045213042	2.15
C 	48.32024601846717	1.470178463591247	2.15
C 	49.70921561150917	1.7654130645524624	2.15
C 	50.1480197435216	3.1159133176915788	2.15
C 	51.53698933656361	3.4111479186527993	2.15
C 	51.975793468576036	4.761648171791916	2.15
C 	53.36476306161804	5.056882772753138	2.15
C 	53.80356719363047	6.407383025892254	2.15
C 	55.19253678667247	6.702617626853471	2.15
C 	55.63134091868489	8.053117879992588	2.15
C 	57.0203105117269	8.34835248095381	2.15
C 	57.45911464373932	9.698852734092926	2.15
C 	58.84808423678133	9.994087335054148	2.15
C 	59.286888368793754	11.344587588193265	2.15
C 	60.675857961835746	11.639822189154483	2.15
C 	61.114662093848175	12.990322442293598	2.15
C 	62.50363168689018	13.28555704325482	2.15
C 	62.94243581890261	14.636057296393936	2.15
C 	44.153337239341155	0.5844746607075886	2.15
C 	45.54230683238317	0.8797092616688074	2.15
C 	45.98111096439559	2.2302095148079273	2.15
C 	47.37008055743759	2.525444115769146	2.15
C 	47.80888468945002	3.8759443689082658	2.15
C 	49.19785428249202	4.171178969869479	2.15
C 	49.636658414504446	5.5216792230086	2.15
C 	51.02562800754645	5.816913823969818	2.15
C 	51.46443213955888	7.167414077108938	2.15
C 	52.85340173260089	7.462648678070155	2.15
C 	53.29220586461331	8.813148931209275	2.15
C 	54.681175457655314	9.108383532170487	2.15
C 	55.11997958966774	10.458883785309606	2.15
C 	56.508949182709735	10.754118386270829	2.15
C 	56.94775331472216	12.10461863940995	2.15
C 	58.33672290776417	12.399853240371167	2.15
C 	58.7755270397766	13.750353493510286	2.15
C 	60.164496632818604	14.045588094471498	2.15
C 	60.60330076483103	15.396088347610618	2.15
C 	61.99227035787303	15.691322948571834	2.15
C 	62.431074489885454	17.041823201710955	2.15
C 	63.82004408292745	17.337057802672177	2.15
C 	64.25884821493987	18.687558055811298	2.15
C 	65.64781780798188	18.98279265677251	2.15
C 	66.0866219399943	20.333292909911627	2.15
C 	39.98642846021515	-0.30122914217606295	2.15
C 	41.37539805325715	-0.005994541214842342	2.15
C 	41.81420218526958	1.3445057119242774	2.15
C 	43.20317177831158	1.6397403128854913	2.15
C 	43.641975910324	2.990240566024611	2.15
C 	45.030945503366006	3.285475166985828	2.15
C 	45.469749635378435	4.635975420124948	2.15
C 	46.85871922842044	4.931210021086167	2.15
C 	47.29752336043287	6.281710274225286	2.15
C 	48.68649295347487	6.5769448751864985	2.15
C 	49.1252970854873	7.927445128325618	2.15
C 	50.5142666785293	8.222679729286837	2.15
C 	50.953070810541725	9.573179982425957	2.15
C 	52.34204040358373	9.868414583387178	2.15
C 	52.78084453559615	11.218914836526297	2.15
C 	54.16981412863816	11.514149437487507	2.15
C 	54.60861826065059	12.864649690626628	2.15
C 	55.997587853692586	13.159884291587849	2.15
C 	56.436391985705015	14.510384544726968	2.15
C 	57.82536157874702	14.805619145688187	2.15
C 	58.26416571075945	16.156119398827308	2.15
C 	59.65313530380145	16.45135399978852	2.15
C 	60.09193943581387	17.80185425292764	2.15
C 	61.48090902885588	18.097088853888856	2.15
C 	61.919713160868305	19.447589107027976	2.15
C 	63.308682753910304	19.7428237079892	2.15
C 	63.747486885922726	21.093323961128316	2.15
C 	65.13645647896473	21.38855856208953	2.15
C 	65.57526061097715	22.73905881522865	2.15
C 	66.96423020401916	23.034293416189858	2.15
C 	67.4030343360316	24.384793669328978	2.15
C 	68.7920039290736	24.680028270290205	2.15
C 	69.23080806108602	26.030528523429325	2.15
C 	37.64729340614357	0.45880190904062096	2.15
C 	39.036262999185574	0.7540365100018346	2.15
C 	39.475067131197996	2.104536763140951	2.15
C 	40.86403672424	2.399771364102173	2.15
C 	41.30284085625242	3.7502716172412898	2.15
C 	42.69181044929442	4.045506218202507	2.15
C 	43.13061458130685	5.396006471341623	2.15
C 	44.51958417434885	5.691241072302847	2.15
C 	44.95838830636128	7.041741325441964	2.15
C 	46.347357899403285	7.336975926403184	2.15
C 	46.786162031415714	8.687476179542301	2.15
C 	48.17513162445772	8.982710780503517	2.15
C 	48.61393575647014	10.333211033642632	2.15
C 	50.002905349512154	10.628445634603853	2.15
C 	50.441709481524576	11.978945887742968	2.15
C 	51.83067907456658	12.274180488704193	2.15
C 	52.269483206579004	13.62468074184331	2.15
C 	53.658452799621	13.919915342804527	2.15
C 	54.09725693163343	15.270415595943643	2.15
C 	55.48622652467544	15.565650196904864	2.15
C 	55.925030656687866	16.91615045004398	2.15
C 	57.31400024972987	17.211385051005198	2.15
C 	57.752804381742294	18.56188530414432	2.15
C 	59.141773974784286	18.857119905105534	2.15
C 	59.580578106796715	20.207620158244655	2.15
C 	60.96954769983873	20.502854759205878	2.15
C 	61.40835183185115	21.85335501234499	2.15
C 	62.797321424893155	22.14858961330621	2.15
C 	63.236125556905584	23.49908986644533	2.15
C 	64.62509514994758	23.79432446740654	2.15
C 	65.06389928196	25.14482472054566	2.15
C 	66.45286887500201	25.44005932150687	2.15
C 	66.89167300701445	26.79055957464599	2.15
C 	68.28064260005644	27.08579417560722	2.15
C 	68.71944673206886	28.43629442874634	2.15
C 	70.10841632511087	28.731529029707552	2.15
C 	70.54722045712329	30.08202928284667	2.15
C 	71.9361900501653	30.377263883807885	2.15
C 	72.37499418217773	31.727764136947005	2.15
C 	33.48038462701756	-0.42690189384303395	2.15
C 	34.869354220059556	-0.1316672928818167	2.15
C 	35.308158352071985	1.2188329602573031	2.15
C 	36.69712794511399	1.5140675612185202	2.15
C 	37.13593207712642	2.86456781435764	2.15
C 	38.52490167016842	3.159802415318854	2.15
C 	38.96370580218084	4.510302668457974	2.15
C 	40.352675395222846	4.80553726941919	2.15
C 	40.791479527235275	6.156037522558311	2.15
C 	42.180449120277274	6.451272123519524	2.15
C 	42.6192532522897	7.801772376658644	2.15
C 	44.0082228453317	8.097006977619863	2.15
C 	44.44702697734413	9.447507230758983	2.15
C 	45.83599657038613	9.742741831720203	2.15
C 	46.27480070239855	11.093242084859323	2.15
C 	47.66377029544056	11.388476685820534	2.15
C 	48.102574427452986	12.738976938959652	2.15
C 	49.49154402049499	13.034211539920872	2.15
C 	49.93034815250742	14.384711793059992	2.15
C 	51.31931774554942	14.679946394021211	2.15
C 	51.75812187756185	16.030446647160332	2.15
C 	53.147091470603854	16.325681248121544	2.15
C 	53.58589560261628	17.67618150126066	2.15
C 	54.97486519565828	17.971416102221884	2.15
C 	55.4136693276707	19.321916355361004	2.15
C 	56.80263892071272	19.61715095632222	2.15
C 	57.24144305272514	20.96765120946134	2.15
C 	58.63041264576714	21.262885810422553	2.15
C 	59.069216777779566	22.613386063561673	2.15
C 	60.45818637082157	22.908620664522893	2.15
C 	60.896990502834	24.259120917662013	2.15
C 	62.285960095876	24.55435551862323	2.15
C 	62.72476422788843	25.90485577176235	2.15
C 	64.11373382093043	26.20009037272356	2.15
C 	64.55253795294286	27.550590625862682	2.15
C 	65.94150754598486	27.845825226823894	2.15
C 	66.38031167799728	29.19632547996301	2.15
C 	67.76928127103929	29.49156008092424	2.15
C 	68.20808540305171	30.84206033406336	2.15
C 	69.59705499609372	31.13729493502457	2.15
C 	70.03585912810614	32.48779518816369	2.15
C 	71.42482872114815	32.7830297891249	2.15
C 	71.86363285316057	34.13353004226402	2.15
C 	73.25260244620259	34.42876464322525	2.15
C 	73.69140657821501	35.77926489636437	2.15
C 	75.080376171257	36.07449949732558	2.15
C 	75.51918030326944	37.4249997504647	2.15
C 	31.141249572945974	0.33312915737365156	2.15
C 	32.53021916598797	0.628363758334867	2.15
C 	32.9690232980004	1.9788640114739868	2.15
C 	34.35799289104241	2.274098612435202	2.15
C 	34.796797023054836	3.624598865574322	2.15
C 	36.185766616096835	3.9198334665355428	2.15
C 	36.62457074810926	5.270333719674663	2.15
C 	38.01354034115126	5.565568320635872	2.15
C 	38.45234447316369	6.916068573774993	2.15
C 	39.84131406620569	7.211303174736213	2.15
C 	40.28011819821812	8.561803427875333	2.15
C 	41.669087791260125	8.857038028836543	2.15
C 	42.107891923272554	10.207538281975664	2.15
C 	43.49686151631455	10.502772882936883	2.15
C 	43.935665648326975	11.853273136076004	2.15
C 	45.32463524136898	12.148507737037223	2.15
C 	45.7634393733814	13.499007990176342	2.15
C 	47.1524089664234	13.794242591137555	2.15
C 	47.59121309843583	15.144742844276676	2.15
C 	48.980182691477836	15.439977445237894	2.15
C 	49.418986823490265	16.790477698377014	2.15
C 	50.80795641653227	17.08571229933823	2.15
C 	51.2467605485447	18.43621255247735	2.15
C 	52.6357301415867	18.731447153438562	2.15
C 	53.07453427359912	20.081947406577683	2.15
C 	54.463503866641126	20.377182007538902	2.15
C 	54.90230799865355	21.727682260678023	2.15
C 	56.29127759169556	22.022916861639242	2.15
C 	56.73008172370798	23.373417114778363	2.15
C 	58.11905131674998	23.668651715739575	2.15
C 	58.55785544876241	25.019151968878695	2.15
C 	59.946825041804416	25.31438656983991	2.15
C 	60.385629173816845	26.66488682297903	2.15
C 	61.774598766858844	26.960121423940254	2.15
C 	62.21340289887127	28.31062167707937	2.15
C 	63.60237249191328	28.605856278040584	2.15
C 	64.04117662392571	29.956356531179704	2.15
C 	65.43014621696771	30.251591132140916	2.15
C 	65.86895034898014	31.602091385280033	2.15
C 	67.25791994202213	31.897325986241263	2.15
C 	67.69672407403456	33.24782623938038	2.15
C 	69.08569366707657	33.543060840341596	2.15
C 	69.52449779908899	34.89356109348071	2.15
C 	70.91346739213098	35.18879569444193	2.15
C 	71.35227152414342	36.539295947581046	2.15
C 	72.74124111718542	36.83453054854227	2.15
C 	73.18004524919785	38.18503080168139	2.15
C 	74.56901484223985	38.4802654026426	2.15
C 	75.00781897425227	39.830765655781725	2.15
C 	76.39678856729428	40.126000256742934	2.15
C 	76.8355926993067	41.47650050988205	2.15
C 	26.97434079381996	-0.5525746455100092	2.15
C 	28.36331038686196	-0.2573400445487912	2.15
C 	28.802114518874387	1.0931602085903251	2.15
C 	30.19108411191639	1.3883948095515493	2.15
C 	30.629888243928814	2.7388950626906654	2.15
C 	32.018857836970824	3.034129663651884	2.15
C 	32.457661968983246	4.384629916791001	2.15
C 	33.84663156202525	4.67986451775222	2.15
C 	34.28543569403767	6.030364770891336	2.15
C 	35.674405287079686	6.325599371852558	2.15
C 	36.11320941909211	7.676099624991675	2.15
C 	37.50217901213411	7.971334225952892	2.15
C 	37.940983144146536	9.321834479092008	2.15
C 	39.32995273718854	9.617069080053229	2.15
C 	39.76875686920097	10.967569333192346	2.15
C 	41.15772646224297	11.262803934153563	2.15
C 	41.59653059425539	12.613304187292679	2.15
C 	42.985500187297404	12.9085387882539	2.15
C 	43.424304319309826	14.259039041393015	2.15
C 	44.81327391235183	14.55427364235424	2.15
C 	45.252078044364254	15.904773895493356	2.15
C 	46.64104763740625	16.200008496454572	2.15
C 	47.07985176941868	17.55050874959369	2.15
C 	48.46882136246069	17.84574335055491	2.15
C 	48.907625494473116	19.196243603694025	2.15
C 	50.296595087515115	19.491478204655245	2.15
C 	50.73539921952754	20.841978457794365	2.15
C 	52.12436881256954	21.137213058755577	2.15
C 	52.56317294458197	22.487713311894698	2.15
C 	53.95214253762398	22.782947912855924	2.15
C 	54.3909466696364	24.133448165995034	2.15
C 	55.779916262678405	24.428682766956253	2.15
C 	56.218720394690834	25.779183020095374	2.15
C 	57.60768998773283	26.07441762105659	2.15
C 	58.04649411974526	27.424917874195707	2.15
C 	59.43546371278727	27.720152475156933	2.15
C 	59.87426784479969	29.070652728296047	2.15
C 	61.263237437841696	29.365887329257266	2.15
C 	61.70204156985412	30.716387582396386	2.15
C 	63.09101116289612	31.0116221833576	2.15
C 	63.52981529490855	32.36212243649672	2.15
C 	64.91878488795055	32.65735703745793	2.15
C 	65.35758901996299	34.007857290597045	2.15
C 	66.74655861300499	34.303091891558275	2.15
C 	67.18536274501741	35.65359214469739	2.15
C 	68.5743323380594	35.94882674565861	2.15
C 	69.01313647007184	37.299326998797724	2.15
C 	70.40210606311383	37.59456159975894	2.15
C 	70.84091019512627	38.94506185289806	2.15
C 	72.22987978816828	39.24029645385928	2.15
C 	72.6686839201807	40.590796706998404	2.15
C 	74.0576535132227	40.88603130795961	2.15
C 	74.49645764523513	42.23653156109874	2.15
C 	75.88542723827713	42.53176616205995	2.15
C 	76.32423137028955	43.88226641519907	2.15
C 	24.635205739748375	0.20745640570667462	2.15
C 	26.02417533279038	0.5026910066678909	2.15
C 	26.462979464802807	1.853191259807009	2.15
C 	27.85194905784481	2.148425860768227	2.15
C 	28.290753189857234	3.4989261139073453	2.15
C 	29.67972278289924	3.7941607148685645	2.15
C 	30.118526914911666	5.144660968007683	2.15
C 	31.507496507953665	5.439895568968902	2.15
C 	31.94630063996609	6.790395822108018	2.15
C 	33.335270233008096	7.085630423069237	2.15
C 	33.774074365020525	8.436130676208357	2.15
C 	35.163043958062524	8.731365277169576	2.15
C 	35.60184809007495	10.081865530308695	2.15
C 	36.99081768311696	10.377100131269907	2.15
C 	37.42962181512939	11.727600384409028	2.15
C 	38.818591408171386	12.022834985370247	2.15
C 	39.25739554018381	13.373335238509368	2.15
C 	40.646365133225814	13.668569839470578	2.15
C 	41.08516926523824	15.019070092609697	2.15
C 	42.47413885828024	15.314304693570918	2.15
C 	42.91294299029267	16.66480494671004	2.15
C 	44.301912583334676	16.960039547671254	2.15
C 	44.740716715347105	18.310539800810375	2.15
C 	46.129686308389104	18.60577440177159	2.15
C 	46.56849044040153	19.956274654910708	2.15
C 	47.95746003344353	20.251509255871927	2.15
C 	48.39626416545595	21.602009509011047	2.15
C 	49.78523375849797	21.897244109972263	2.15
C 	50.22403789051039	23.247744363111384	2.15
C 	51.61300748355239	23.5429789640726	2.15
C 	52.051811615564816	24.893479217211716	2.15
C 	53.440781208606815	25.18871381817294	2.15
C 	53.87958534061924	26.53921407131206	2.15
C 	55.26855493366125	26.834448672273275	2.15
C 	55.70735906567368	28.184948925412396	2.15
C 	57.09632865871568	28.480183526373608	2.15
C 	57.5351327907281	29.83068377951273	2.15
C 	58.92410238377011	30.125918380473948	2.15
C 	59.362906515782534	31.47641863361307	2.15
C 	60.75187610882454	31.771653234574288	2.15
C 	61.19068024083696	33.122153487713405	2.15
C 	62.57964983387897	33.41738808867462	2.15
C 	63.018453965891396	34.76788834181374	2.15
C 	64.4074235589334	35.06312294277495	2.15
C 	64.84622769094582	36.41362319591407	2.15
C 	66.23519728398783	36.70885779687529	2.15
C 	66.67400141600025	38.05935805001442	2.15
C 	68.06297100904226	38.354592650975626	2.15
C 	68.5017751410547	39.70509290411475	2.15
C 	69.89074473409669	40.00032750507596	2.15
C 	70.3295488661091	41.35082775821508	2.15
C 	71.71851845915111	41.646062359176305	2.15
C 	72.15732259116355	42.99656261231542	2.15
C 	73.54629218420554	43.29179721327664	2.15
C 	73.98509631621796	44.64229746641575	2.15
C 	75.37406590925998	44.93753206737698	2.15
C 	20.46829696062236	-0.6782473971769828	2.15
C 	21.857266553664367	-0.3830127962157656	2.15
C 	22.296070685676792	0.9674874569233525	2.15
C 	23.685040278718795	1.262722057884573	2.15
C 	24.12384441073122	2.613222311023691	2.15
C 	25.512814003773226	2.908456911984909	2.15
C 	25.95161813578565	4.258957165124027	2.15
C 	27.340587728827657	4.554191766085244	2.15
C 	27.779391860840086	5.9046920192243615	2.15
C 	29.168361453882085	6.199926620185583	2.15
C 	29.60716558589451	7.5504268733246995	2.15
C 	30.996135178936516	7.845661474285917	2.15
C 	31.43493931094894	9.196161727425038	2.15
C 	32.82390890399094	9.491396328386255	2.15
C 	33.26271303600337	10.84189658152537	2.15
C 	34.651682629045375	11.137131182486593	2.15
C 	35.090486761057804	12.48763143562571	2.15
C 	36.4794563540998	12.782866036586926	2.15
C 	36.918260486112224	14.133366289726041	2.15
C 	38.30723007915424	14.428600890687264	2.15
C 	38.74603421116666	15.779101143826379	2.15
C 	40.13500380420866	16.074335744787597	2.15
C 	40.57380793622109	17.424835997926714	2.15
C 	41.96277752926309	17.720070598887933	2.15
C 	42.40158166127552	19.07057085202705	2.15
C 	43.79055125431752	19.365805452988276	2.15
C 	44.22935538632995	20.71630570612739	2.15
C 	45.618324979371955	21.01154030708861	2.15
C 	46.05712911138438	22.362040560227722	2.15
C 	47.446098704426376	22.657275161188938	2.15
C 	47.884902836438805	24.00777541432806	2.15
C 	49.27387242948081	24.30301001528929	2.15
C 	49.71267656149323	25.6535102684284	2.15
C 	51.10164615453524	25.948744869389618	2.15
C 	51.54045028654767	27.29924512252873	2.15
C 	52.929419879589666	27.59447972348995	2.15
C 	53.368224011602095	28.94497997662907	2.15
C 	54.7571936046441	29.240214577590297	2.15
C 	55.19599773665652	30.59071483072941	2.15
C 	56.58496732969853	30.885949431690626	2.15
C 	57.02377146171095	32.23644968482974	2.15
C 	58.412741054752956	32.53168428579096	2.15
C 	58.851545186765385	33.882184538930076	2.15
C 	60.24051477980739	34.177419139891306	2.15
C 	60.67931891181981	35.52791939303042	2.15
C 	62.06828850486182	35.82315399399164	2.15
C 	62.50709263687425	37.17365424713075	2.15
C 	63.896062229916254	37.46888884809197	2.15
C 	64.33486636192868	38.81938910123108	2.15
C 	65.72383595497068	39.11462370219232	2.15
C 	66.1626400869831	40.46512395533143	2.15
C 	67.55160968002511	40.760358556292644	2.15
C 	67.99041381203753	42.11085880943176	2.15
C 	69.37938340507954	42.40609341039298	2.15
C 	69.81818753709196	43.756593663532094	2.15
C 	71.20715713013396	44.051828264493324	2.15
C 	71.6459612621464	45.40232851763244	2.15
C 	73.03493085518839	45.697563118593656	2.15
C 	18.12916190655078	0.08178365403970017	2.15
C 	19.518131499592787	0.3770182550009173	2.15
C 	19.956935631605212	1.7275185081400355	2.15
C 	21.34590522464721	2.0227531091012536	2.15
C 	21.784709356659636	3.3732533622403715	2.15
C 	23.173678949701642	3.668487963201592	2.15
C 	23.612483081714068	5.01898821634071	2.15
C 	25.001452674756077	5.314222817301927	2.15
C 	25.440256806768502	6.6647230704410445	2.15
C 	26.8292263998105	6.959957671402264	2.15
C 	27.268030531822927	8.310457924541382	2.15
C 	28.657000124864936	8.605692525502599	2.15
C 	29.09580425687736	9.95619277864172	2.15
C 	30.484773849919364	10.251427379602939	2.15
C 	30.92357798193179	11.601927632742056	2.15
C 	32.31254757497379	11.89716223370327	2.15
C 	32.75135170698622	13.24766248684239	2.15
C 	34.14032130002822	13.54289708780361	2.15
C 	34.57912543204064	14.89339734094273	2.15
C 	35.96809502508265	15.188631941903942	2.15
C 	36.406899157095076	16.539132195043063	2.15
C 	37.795868750137075	16.834366796004282	2.15
C 	38.2346728821495	18.1848670491434	2.15
C 	39.62364247519151	18.48010165010461	2.15
C 	40.06244660720394	19.830601903243732	2.15
C 	41.45141620024594	20.125836504204955	2.15
C 	41.890220332258366	21.47633675734407	2.15
C 	43.27918992530037	21.77157135830529	2.15
C 	43.717994057312794	23.12207161144441	2.15
C 	45.10696365035479	23.417306212405624	2.15
C 	45.54576778236722	24.767806465544744	2.15
C 	46.93473737540923	25.06304106650596	2.15
C 	47.373541507421656	26.41354131964508	2.15
C 	48.762511100463655	26.7087759206063	2.15
C 	49.201315232476084	28.05927617374542	2.15
C 	50.59028482551808	28.354510774706633	2.15
C 	51.02908895753051	29.705011027845753	2.15
C 	52.41805855057251	30.000245628806972	2.15
C 	52.85686268258493	31.350745881946093	2.15
C 	54.245832275626945	31.64598048290731	2.15
C 	54.68463640763937	32.99648073604643	2.15
C 	56.073606000681366	33.291715337007645	2.15
C 	56.512410132693795	34.64221559014676	2.15
C 	57.9013797257358	34.93745019110798	2.15
C 	58.34018385774823	36.2879504442471	2.15
C 	59.72915345079023	36.583185045208324	2.15
C 	60.16795758280266	37.93368529834744	2.15
C 	61.55692717584466	38.22891989930865	2.15
C 	61.995731307857085	39.579420152447774	2.15
C 	63.38470090089909	39.87465475340898	2.15
C 	63.82350503291152	41.2251550065481	2.15
C 	65.21247462595352	41.52038960750933	2.15
C 	65.65127875796595	42.87088986064845	2.15
C 	67.04024835100796	43.16612446160966	2.15
C 	67.47905248302038	44.51662471474878	2.15
C 	68.86802207606237	44.811859315709995	2.15
C 	69.30682620807481	46.16235956884911	2.15
C 	70.69579580111682	46.45759416981034	2.15
C 	13.96225312742477	-0.8039201488439538	2.15
C 	15.351222720466774	-0.5086855478827341	2.15
C 	15.7900268524792	0.841814705256384	2.15
C 	17.178996445521204	1.137049306217601	2.15
C 	17.61780057753363	2.487549559356719	2.15
C 	19.00677017057563	2.782784160317936	2.15
C 	19.445574302588057	4.133284413457054	2.15
C 	20.834543895630063	4.428519014418272	2.15
C 	21.273348027642488	5.7790192675573895	2.15
C 	22.66231762068449	6.074253868518611	2.15
C 	23.101121752696915	7.424754121657729	2.15
C 	24.490091345738918	7.719988722618947	2.15
C 	24.928895477751343	9.070488975758062	2.15
C 	26.31786507079335	9.365723576719281	2.15
C 	26.756669202805774	10.716223829858402	2.15
C 	28.14563879584778	11.011458430819621	2.15
C 	28.584442927860206	12.361958683958742	2.15
C 	29.973412520902208	12.657193284919956	2.15
C 	30.412216652914633	14.007693538059073	2.15
C 	31.80118624595664	14.302928139020292	2.15
C 	32.239990377969065	15.65342839215941	2.15
C 	33.628959971011064	15.948662993120632	2.15
C 	34.06776410302349	17.299163246259752	2.15
C 	35.45673369606549	17.594397847220964	2.15
C 	35.89553782807792	18.94489810036008	2.15
C 	37.284507421119926	19.2401327013213	2.15
C 	37.72331155313235	20.59063295446042	2.15
C 	39.112281146174354	20.885867555421633	2.15
C 	39.55108527818678	22.236367808560754	2.15
C 	40.94005487122878	22.531602409521973	2.15
C 	41.37885900324121	23.88210266266109	2.15
C 	42.767828596283216	24.177337263622313	2.15
C 	43.20663272829564	25.527837516761434	2.15
C 	44.595602321337644	25.823072117722642	2.15
C 	45.03440645335007	27.173572370861763	2.15
C 	46.42337604639208	27.468806971822982	2.15
C 	46.86218017840451	28.819307224962103	2.15
C 	48.25114977144651	29.114541825923318	2.15
C 	48.689953903458935	30.46504207906244	2.15
C 	50.078923496500934	30.76027668002365	2.15
C 	50.517727628513356	32.110776933162775	2.15
C 	51.90669722155536	32.40601153412399	2.15
C 	52.345501353567784	33.756511787263115	2.15
C 	53.7344709466098	34.05174638822433	2.15
C 	54.17327507862222	35.40224664136345	2.15
C 	55.56224467166422	35.69748124232466	2.15
C 	56.001048803676646	37.04798149546378	2.15
C 	57.39001839671865	37.343216096425	2.15
C 	57.82882252873108	38.69371634956412	2.15
C 	59.21779212177308	38.98895095052534	2.15
C 	59.65659625378551	40.33945120366446	2.15
C 	61.045565846827515	40.63468580462567	2.15
C 	61.484369978839936	41.98518605776479	2.15
C 	62.87333957188194	42.280420658726	2.15
C 	63.31214370389437	43.63092091186512	2.15
C 	64.70111329693637	43.92615551282635	2.15
C 	65.1399174289488	45.27665576596547	2.15
C 	66.52888702199081	45.57189036692668	2.15
C 	11.623118073353185	-0.04388909762727339	2.15
C 	13.01208766639519	0.25134550333394545	2.15
C 	13.450891798407618	1.6018457564730635	2.15
C 	14.83986139144962	1.8970803574342823	2.15
C 	15.278665523462045	3.2475806105734004	2.15
C 	16.667635116504048	3.5428152115346183	2.15
C 	17.106439248516473	4.893315464673736	2.15
C 	18.49540884155848	5.188550065634954	2.15
C 	18.934212973570904	6.539050318774072	2.15
C 	20.323182566612907	6.834284919735289	2.15
C 	20.761986698625336	8.184785172874408	2.15
C 	22.150956291667338	8.480019773835627	2.15
C 	22.589760423679763	9.830520026974744	2.15
C 	23.978730016721766	10.125754627935963	2.15
C 	24.41753414873419	11.476254881075084	2.15
C 	25.806503741776194	11.7714894820363	2.15
C 	26.24530787378862	13.121989735175415	2.15
C 	27.634277466830625	13.417224336136638	2.15
C 	28.07308159884305	14.767724589275755	2.15
C 	29.462051191885056	15.062959190236974	2.15
C 	29.90085532389748	16.413459443376095	2.15
C 	31.289824916939484	16.70869404433731	2.15
C 	31.72862904895191	18.059194297476424	2.15
C 	33.117598641993915	18.354428898437646	2.15
C 	33.556402774006344	19.704929151576764	2.15
C 	34.94537236704834	20.00016375253798	2.15
C 	35.384176499060764	21.350664005677096	2.15
C 	36.77314609210277	21.64589860663832	2.15
C 	37.2119502241152	22.996398859777436	2.15
C 	38.6009198171572	23.291633460738655	2.15
C 	39.03972394916963	24.64213371387777	2.15
C 	40.428693542211626	24.937368314838984	2.15
C 	40.867497674224055	26.287868567978105	2.15
C 	42.25646726726606	26.58310316893933	2.15
C 	42.69527139927848	27.933603422078445	2.15
C 	44.08424099232049	28.228838023039664	2.15
C 	44.52304512433292	29.579338276178778	2.15
C 	45.91201471737492	29.874572877139997	2.15
C 	46.35081884938735	31.225073130279114	2.15
C 	47.73978844242936	31.52030773124034	2.15
C 	48.17859257444178	32.870807984379454	2.15
C 	49.567562167483786	33.16604258534067	2.15
C 	50.00636629949621	34.516542838479786	2.15
C 	51.395335892538206	34.81177743944101	2.15
C 	51.834140024550635	36.162277692580126	2.15
C 	53.22310961759264	36.45751229354135	2.15
C 	53.66191374960506	37.808012546680466	2.15
C 	55.05088334264706	38.10324714764168	2.15
C 	55.48968747465949	39.4537474007808	2.15
C 	56.878657067701496	39.748982001742014	2.15
C 	57.31746119971392	41.09948225488114	2.15
C 	58.706430792755924	41.39471685584236	2.15
C 	59.145234924768346	42.74521710898148	2.15
C 	60.53420451781036	43.040451709942694	2.15
C 	60.97300864982278	44.390951963081804	2.15
C 	62.36197824286479	44.68618656404303	2.15
C 	62.800782374877215	46.03668681718214	2.15
C 	64.18975196791922	46.331921418143374	2.15
C 	7.456209294227174	-0.9295929005109269	2.15
C 	8.845178887269178	-0.634358299549709	2.15
C 	9.283983019281603	0.7161419535894091	2.15
C 	10.672952612323606	1.0113765545506268	2.15
C 	11.11175674433603	2.361876807689745	2.15
C 	12.500726337378039	2.6571114086509633	2.15
C 	12.939530469390464	4.007611661790081	2.15
C 	14.328500062432468	4.3028462627512996	2.15
C 	14.767304194444893	5.653346515890419	2.15
C 	16.156273787486896	5.948581116851635	2.15
C 	16.59507791949932	7.299081369990755	2.15
C 	17.984047512541323	7.594315970951971	2.15
C 	18.422851644553752	8.944816224091092	2.15
C 	19.811821237595755	9.240050825052306	2.15
C 	20.25062536960818	10.590551078191426	2.15
C 	21.639594962650186	10.885785679152645	2.15
C 	22.07839909466261	12.236285932291764	2.15
C 	23.467368687704614	12.53152053325298	2.15
C 	23.906172819717042	13.8820207863921	2.15
C 	25.29514241275904	14.177255387353316	2.15
C 	25.733946544771467	15.527755640492437	2.15
C 	27.122916137813473	15.822990241453654	2.15
C 	27.561720269825898	17.173490494592773	2.15
C 	28.9506898628679	17.46872509555399	2.15
C 	29.38949399488033	18.81922534869311	2.15
C 	30.77846358792233	19.114459949654325	2.15
C 	31.217267719934757	20.464960202793446	2.15
C 	32.60623731297676	20.760194803754665	2.15
C 	33.04504144498919	22.110695056893785	2.15
C 	34.43401103803119	22.405929657854998	2.15
C 	34.872815170043616	23.756429910994118	2.15
C 	36.261784763085615	24.051664511955337	2.15
C 	36.70058889509804	25.402164765094454	2.15
C 	38.08955848814004	25.697399366055667	2.15
C 	38.52836262015247	27.047899619194787	2.15
C 	39.91733221319448	27.343134220156006	2.15
C 	40.3561363452069	28.693634473295127	2.15
C 	41.745105938248905	28.988869074256346	2.15
C 	42.183910070261334	30.339369327395467	2.15
C 	43.57287966330333	30.63460392835668	2.15
C 	44.01168379531576	31.985104181495796	2.15
C 	45.400653388357775	32.280338782457015	2.15
C 	45.839457520370196	33.63083903559613	2.15
C 	47.2284271134122	33.926073636557355	2.15
C 	47.667231245424624	35.27657388969647	2.15
C 	49.05620083846663	35.57180849065769	2.15
C 	49.49500497047906	36.922308743796805	2.15
C 	50.88397456352106	37.21754334475803	2.15
C 	51.322778695533486	38.568043597897145	2.15
C 	52.711748288575485	38.86327819885837	2.15
C 	53.150552420587914	40.213778451997484	2.15
C 	54.53952201362991	40.5090130529587	2.15
C 	54.978326145642335	41.85951330609782	2.15
C 	56.36729573868435	42.15474790705903	2.15
C 	56.80609987069677	43.50524816019816	2.15
C 	58.195069463738776	43.80048276115937	2.15
C 	58.6338735957512	45.1509830142985	2.15
C 	60.0228431887932	45.446217615259705	2.15
C 	5.11707424015559	-0.16956184929424525	2.15
C 	6.506043833197595	0.12567275166697273	2.15
C 	6.9448479652100215	1.4761730048060908	2.15
C 	8.333817558252024	1.7714076057673092	2.15
C 	8.772621690264451	3.1219078589064275	2.15
C 	10.161591283306453	3.4171424598676445	2.15
C 	10.60039541531888	4.7676427130067625	2.15
C 	11.989365008360883	5.062877313967982	2.15
C 	12.428169140373308	6.4133775671071	2.15
C 	13.817138733415312	6.708612168068319	2.15
C 	14.255942865427738	8.059112421207438	2.15
C 	15.644912458469742	8.354347022168655	2.15
C 	16.08371659048217	9.704847275307772	2.15
C 	17.47268618352417	10.00008187626899	2.15
C 	17.911490315536597	11.350582129408108	2.15
C 	19.3004599085786	11.645816730369328	2.15
C 	19.739264040591024	12.996316983508443	2.15
C 	21.12823363363303	13.291551584469666	2.15
C 	21.567037765645455	14.642051837608783	2.15
C 	22.95600735868746	14.937286438569998	2.15
C 	23.394811490699887	16.28778669170912	2.15
C 	24.783781083741893	16.583021292670335	2.15
C 	25.222585215754318	17.93352154580945	2.15
C 	26.61155480879632	18.228756146770674	2.15
C 	27.050358940808746	19.57925639990979	2.15
C 	28.439328533850748	19.874491000871007	2.15
C 	28.878132665863173	21.224991254010128	2.15
C 	30.26710225890518	21.520225854971347	2.15
C 	30.705906390917605	22.870726108110464	2.15
C 	32.09487598395961	23.165960709071687	2.15
C 	32.53368011597203	24.516460962210804	2.15
C 	33.92264970901404	24.811695563172016	2.15
C 	34.36145384102646	26.162195816311137	2.15
C 	35.750423434068466	26.457430417272356	2.15
C 	36.189227566080895	27.80793067041147	2.15
C 	37.578197159122894	28.10316527137269	2.15
C 	38.017001291135315	29.453665524511802	2.15
C 	39.40597088417732	29.74890012547303	2.15
C 	39.84477501618975	31.09940037861215	2.15
C 	41.233744609231756	31.394634979573365	2.15
C 	41.67254874124418	32.74513523271248	2.15
C 	43.061518334286184	33.0403698336737	2.15
C 	43.500322466298606	34.39087008681281	2.15
C 	44.88929205934062	34.68610468777403	2.15
C 	45.32809619135304	36.03660494091316	2.15
C 	46.717065784395054	36.33183954187437	2.15
C 	47.155869916407475	37.68233979501348	2.15
C 	48.544839509449474	37.977574395974706	2.15
C 	48.9836436414619	39.32807464911382	2.15
C 	50.3726132345039	39.623309250075046	2.15
C 	50.81141736651633	40.97380950321417	2.15
C 	52.20038695955834	41.269044104175386	2.15
C 	52.63919109157076	42.619544357314496	2.15
C 	54.028160684612764	42.91477895827572	2.15
C 	54.466964816625186	44.26527921141483	2.15
C 	55.85593440966719	44.56051381237606	2.15
C 	56.294738541679614	45.911014065515175	2.15
C 	57.68370813472162	46.2062486664764	2.15
C 	2.777939186084008	0.5904692019224365	2.15
C 	4.166908779126012	0.8857038028836546	2.15
C 	4.605712911138438	2.236204056022773	2.15
C 	5.9946825041804415	2.531438656983991	2.15
C 	6.433486636192867	3.881938910123109	2.15
C 	7.822456229234871	4.1771735110843276	2.15
C 	8.261260361247297	5.5276737642234455	2.15
C 	9.6502299542893	5.822908365184664	2.15
C 	10.089034086301725	7.17340861832378	2.15
C 	11.47800367934373	7.468643219284999	2.15
C 	11.916807811356156	8.819143472424118	2.15
C 	13.30577740439816	9.114378073385337	2.15
C 	13.744581536410584	10.464878326524454	2.15
C 	15.13355112945259	10.760112927485673	2.15
C 	15.572355261465013	12.110613180624789	2.15
C 	16.96132485450702	12.405847781586008	2.15
C 	17.400128986519444	13.756348034725125	2.15
C 	18.789098579561447	14.051582635686344	2.15
C 	19.227902711573872	15.402082888825461	2.15
C 	20.616872304615878	15.697317489786682	2.15
C 	21.055676436628303	17.0478177429258	2.15
C 	22.44464602967031	17.343052343887017	2.15
C 	22.883450161682735	18.693552597026134	2.15
C 	24.272419754724737	18.988787197987353	2.15
C 	24.711223886737162	20.33928745112647	2.15
C 	26.10019347977917	20.634522052087693	2.15
C 	26.538997611791594	21.98502230522681	2.15
C 	27.927967204833596	22.28025690618803	2.15
C 	28.36677133684602	23.630757159327146	2.15
C 	29.755740929888024	23.925991760288365	2.15
C 	30.19454506190045	25.27649201342748	2.15
C 	31.583514654942455	25.571726614388698	2.15
C 	32.02231878695488	26.92222686752782	2.15
C 	33.41128837999688	27.21746146848903	2.15
C 	33.85009251200931	28.56796172162815	2.15
C 	35.23906210505131	28.86319632258937	2.15
C 	35.67786623706374	30.21369657572849	2.15
C 	37.06683583010574	30.508931176689703	2.15
C 	37.50563996211817	31.85943142982882	2.15
C 	38.894609555160166	32.15466603079004	2.15
C 	39.333413687172595	33.505166283929164	2.15
C 	40.7223832802146	33.80040088489038	2.15
C 	41.16118741222702	35.150901138029504	2.15
C 	42.55015700526903	35.44613573899071	2.15
C 	42.98896113728146	36.79663599212983	2.15
C 	44.37793073032346	37.09187059309105	2.15
C 	44.816734862335885	38.44237084623017	2.15
C 	46.20570445537789	38.73760544719139	2.15
C 	46.64450858739032	40.08810570033051	2.15
C 	48.033478180432326	40.38334030129172	2.15
C 	48.472282312444754	41.73384055443084	2.15
C 	49.86125190548675	42.02907515539206	2.15
C 	50.300056037499175	43.37957540853118	2.15
C 	51.68902563054119	43.6748100094924	2.15
C 	52.12782976255361	45.02531026263152	2.15
C 	53.51679935559561	45.32054486359273	2.15
C 	1.8277737250544295	1.6457348541003363	2.15
C 	2.2665778570668547	2.9962351072394546	2.15
C 	3.655547450108859	3.2914697082006725	2.15
C 	4.094351582121284	4.6419699613397905	2.15
C 	5.483321175163288	4.937204562301009	2.15
C 	5.9221253071757145	6.287704815440127	2.15
C 	7.311094900217718	6.582939416401345	2.15
C 	7.749899032230143	7.933439669540463	2.15
C 	9.138868625272147	8.228674270501681	2.15
C 	9.577672757284573	9.579174523640798	2.15
C 	10.966642350326577	9.874409124602018	2.15
C 	11.405446482339002	11.224909377741136	2.15
C 	12.794416075381008	11.520143978702356	2.15
C 	13.233220207393432	12.87064423184147	2.15
C 	14.622189800435436	13.16587883280269	2.15
C 	15.060993932447861	14.51637908594181	2.15
C 	16.449963525489864	14.811613686903026	2.15
C 	16.88876765750229	16.162113940042143	2.15
C 	18.277737250544295	16.457348541003363	2.15
C 	18.71654138255672	17.80784879414248	2.15
C 	20.105510975598722	18.1030833951037	2.15
C 	20.544315107611148	19.45358364824282	2.15
C 	21.933284700653154	19.748818249204035	2.15
C 	22.37208883266558	21.099318502343152	2.15
C 	23.761058425707585	21.39455310330437	2.15
C 	24.19986255772001	22.745053356443492	2.15
C 	25.588832150762016	23.04028795740471	2.15
C 	26.02763628277444	24.39078821054383	2.15
C 	27.416605875816444	24.686022811505044	2.15
C 	27.85541000782887	26.03652306464416	2.15
C 	29.24437960087087	26.33175766560538	2.15
C 	29.683183732883297	27.6822579187445	2.15
C 	31.072153325925303	27.97749251970572	2.15
C 	31.510957457937728	29.32799277284484	2.15
C 	32.89992705097973	29.623227373806053	2.15
C 	33.338731182992156	30.97372762694517	2.15
C 	34.72770077603416	31.268962227906393	2.15
C 	35.16650490804658	32.61946248104551	2.15
C 	36.55547450108859	32.914697082006725	2.15
C 	36.99427863310102	34.26519733514584	2.15
C 	38.38324822614302	34.56043193610706	2.15
C 	38.822052358155446	35.91093218924618	2.15
C 	40.211021951197445	36.2061667902074	2.15
C 	40.649826083209874	37.55666704334652	2.15
C 	42.03879567625187	37.85190164430773	2.15
C 	42.4775998082643	39.202401897446855	2.15
C 	43.86656940130631	39.49763649840807	2.15
C 	44.305373533318736	40.848136751547194	2.15
C 	45.69434312636074	41.14337135250841	2.15
C 	46.133147258373164	42.49387160564753	2.15
C 	47.52211685141517	42.78910620660874	2.15
C 	47.96092098342759	44.13960645974786	2.15
C 	49.3498905764696	44.43484106070908	2.15
C 	49.78869470848202	45.7853413138482	2.15
C 	51.17766430152403	46.08057591480942	2.15
C 	4.971959846146135	7.342970467618027	2.15
C 	5.410763978158561	8.693470720757144	2.15
C 	6.799733571200565	8.988705321718362	2.15
C 	7.238537703212991	10.339205574857482	2.15
C 	8.627507296254993	10.634440175818698	2.15
C 	9.066311428267419	11.984940428957819	2.15
C 	10.455281021309425	12.280175029919036	2.15
C 	10.89408515332185	13.630675283058153	2.15
C 	12.283054746363854	13.925909884019372	2.15
C 	12.72185887837628	15.276410137158493	2.15
C 	14.110828471418284	15.571644738119707	2.15
C 	14.549632603430709	16.922144991258826	2.15
C 	15.938602196472711	17.217379592220045	2.15
C 	16.377406328485137	18.567879845359162	2.15
C 	17.76637592152714	18.863114446320377	2.15
C 	18.205180053539568	20.213614699459498	2.15
C 	19.59414964658157	20.508849300420717	2.15
C 	20.032953778594	21.859349553559838	2.15
C 	21.421923371636	22.154584154521054	2.15
C 	21.860727503648427	23.50508440766017	2.15
C 	23.24969709669043	23.80031900862139	2.15
C 	23.688501228702858	25.150819261760507	2.15
C 	25.07747082174486	25.446053862721726	2.15
C 	25.516274953757286	26.796554115860843	2.15
C 	26.905244546799292	27.091788716822062	2.15
C 	27.344048678811717	28.442288969961183	2.15
C 	28.733018271853723	28.737523570922402	2.15
C 	29.171822403866145	30.088023824061516	2.15
C 	30.560791996908147	30.383258425022742	2.15
C 	30.999596128920572	31.733758678161852	2.15
C 	32.38856572196258	32.02899327912307	2.15
C 	32.827369853975	33.37949353226219	2.15
C 	34.216339447017006	33.67472813322341	2.15
C 	34.655143579029435	35.02522838636252	2.15
C 	36.044113172071434	35.320462987323744	2.15
C 	36.48291730408386	36.670963240462854	2.15
C 	37.87188689712587	36.96619784142408	2.15
C 	38.31069102913829	38.31669809456319	2.15
C 	39.699660622180296	38.61193269552442	2.15
C 	40.13846475419272	39.96243294866353	2.15
C 	41.527434347234724	40.257667549624756	2.15
C 	41.966238479247146	41.608167802763866	2.15
C 	43.35520807228916	41.90340240372509	2.15
C 	43.79401220430158	43.253902656864206	2.15
C 	45.18298179734359	43.54913725782543	2.15
C 	45.62178592935601	44.899637510964546	2.15
C 	47.010755522398014	45.19487211192576	2.15
C 	47.44955965441044	46.54537236506488	2.15
C 	48.83852924745244	46.8406069660261	2.15
C 	8.116145967237841	13.040206081135716	2.15
C 	8.554950099250267	14.390706334274835	2.15
C 	9.94391969229227	14.685940935236054	2.15
C 	10.382723824304698	16.036441188375175	2.15
C 	11.771693417346702	16.331675789336394	2.15
C 	12.210497549359127	17.682176042475508	2.15
C 	13.59946714240113	17.977410643436723	2.15
C 	14.038271274413555	19.327910896575844	2.15
C 	15.42724086745556	19.623145497537063	2.15
C 	15.866044999467984	20.97364575067618	2.15
C 	17.255014592509987	21.268880351637396	2.15
C 	17.693818724522412	22.619380604776516	2.15
C 	19.082788317564418	22.914615205737736	2.15
C 	19.521592449576843	24.265115458876853	2.15
C 	20.91056204261885	24.560350059838072	2.15
C 	21.349366174631275	25.91085031297719	2.15
C 	22.738335767673277	26.206084913938405	2.15
C 	23.177139899685702	27.556585167077525	2.15
C 	24.56610949272771	27.851819768038744	2.15
C 	25.004913624740134	29.202320021177865	2.15
C 	26.39388321778214	29.497554622139084	2.15
C 	26.83268734979456	30.848054875278198	2.15
C 	28.221656942836567	31.143289476239413	2.15
C 	28.660461074848993	32.493789729378534	2.15
C 	30.049430667891	32.78902433033976	2.15
C 	30.488234799903424	34.139524583478874	2.15
C 	31.877204392945423	34.43475918444009	2.15
C 	32.31600852495785	35.78525943757921	2.15
C 	33.70497811799985	36.08049403854042	2.15
C 	34.14378225001228	37.430994291679546	2.15
C 	35.53275184305428	37.726228892640755	2.15
C 	35.97155597506671	39.07672914577988	2.15
C 	37.36052556810871	39.371963746741095	2.15
C 	37.799329700121135	40.72246399988022	2.15
C 	39.18829929316314	41.017698600841435	2.15
C 	39.62710342517557	42.36819885398055	2.15
C 	41.01607301821757	42.66343345494177	2.15
C 	41.45487715023	44.013933708080884	2.15
C 	42.843846743272	44.30916830904211	2.15
C 	43.282650875284425	45.659668562181224	2.15
C 	44.67162046832643	45.95490316314244	2.15
C 	11.260332088329546	18.73744169465341	2.15
C 	11.699136220341972	20.087941947792526	2.15
C 	13.088105813383976	20.383176548753745	2.15
C 	13.526909945396401	21.733676801892862	2.15
C 	14.915879538438405	22.02891140285408	2.15
C 	15.35468367045083	23.3794116559932	2.15
C 	16.743653263492835	23.674646256954418	2.15
C 	17.18245739550526	25.02514651009353	2.15
C 	18.571426988547262	25.320381111054754	2.15
C 	19.010231120559688	26.67088136419387	2.15
C 	20.399200713601697	26.96611596515509	2.15
C 	20.838004845614122	28.316616218294207	2.15
C 	22.226974438656125	28.611850819255427	2.15
C 	22.66577857066855	29.962351072394547	2.15
C 	24.054748163710556	30.257585673355763	2.15
C 	24.49355229572298	31.608085926494883	2.15
C 	25.882521888764984	31.903320527456096	2.15
C 	26.32132602077741	33.25382078059522	2.15
C 	27.710295613819415	33.549055381556435	2.15
C 	28.14909974583184	34.89955563469555	2.15
C 	29.538069338873843	35.194790235656775	2.15
C 	29.97687347088627	36.54529048879589	2.15
C 	31.365843063928274	36.84052508975711	2.15
C 	31.8046471959407	38.191025342896225	2.15
C 	33.1936167889827	38.48625994385745	2.15
C 	33.63242092099512	39.836760196996565	2.15
C 	35.02139051403713	40.13199479795778	2.15
C 	35.46019464604955	41.4824950510969	2.15
C 	36.84916423909156	41.77772965205811	2.15
C 	37.287968371103986	43.12822990519724	2.15
C 	38.67693796414599	43.42346450615845	2.15
C 	39.115742096158414	44.77396475929758	2.15
C 	40.50471168920042	45.069199360258786	2.15
C 	40.94351582121284	46.41969961339791	2.15
C 	42.332485414254855	46.714934214359126	2.15
C 	14.404518209421253	24.434677308171096	2.15
C 	14.843322341433678	25.785177561310217	2.15
C 	16.232291934475683	26.080412162271433	2.15
C 	16.671096066488108	27.43091241541055	2.15
C 	18.06006565953011	27.726147016371772	2.15
C 	18.498869791542536	29.07664726951089	2.15
C 	19.88783938458454	29.37188187047211	2.15
C 	20.326643516596967	30.722382123611226	2.15
C 	21.71561310963897	31.017616724572438	2.15
C 	22.154417241651398	32.36811697771156	2.15
C 	23.543386834693404	32.66335157867279	2.15
C 	23.982190966705826	34.0138518318119	2.15
C 	25.371160559747832	34.309086432773114	2.15
C 	25.809964691760257	35.65958668591224	2.15
C 	27.19893428480226	35.95482128687345	2.15
C 	27.637738416814685	37.30532154001257	2.15
C 	29.02670800985669	37.600556140973794	2.15
C 	29.465512141869116	38.95105639411291	2.15
C 	30.85448173491112	39.246290995074126	2.15
C 	31.293285866923544	40.59679124821324	2.15
C 	32.682255459965546	40.89202584917446	2.15
C 	33.121059591977975	42.242526102313576	2.15
C 	34.510029185019974	42.53776070327479	2.15
C 	34.9488333170324	43.88826095641391	2.15
C 	36.33780291007441	44.18349555737514	2.15
C 	36.77660704208683	45.53399581051425	2.15
C 	38.165576635128836	45.82923041147547	2.15
C 	17.548704330512958	30.13191292168879	2.15
C 	17.987508462525383	31.482413174827908	2.15
C 	19.37647805556739	31.77764777578912	2.15
C 	19.815282187579815	33.128148028928244	2.15
C 	21.204251780621817	33.42338262988946	2.15
C 	21.643055912634242	34.77388288302858	2.15
C 	23.03202550567625	35.0691174839898	2.15
C 	23.470829637688674	36.41961773712892	2.15
C 	24.859799230730676	36.71485233809013	2.15
C 	25.298603362743105	38.06535259122925	2.15
C 	26.687572955785107	38.36058719219047	2.15
C 	27.126377087797533	39.71108744532959	2.15
C 	28.515346680839535	40.00632204629081	2.15
C 	28.954150812851964	41.35682229942993	2.15
C 	30.343120405893966	41.65205690039114	2.15
C 	30.78192453790639	43.00255715353026	2.15
C 	32.1708941309484	43.29779175449148	2.15
C 	32.60969826296082	44.6482920076306	2.15
C 	33.998667856002825	44.94352660859181	2.15
C 	34.437471988015254	46.294026861730934	2.15
C 	35.82644158105725	46.58926146269215	2.15
C 	20.692890451604665	35.82914853520648	2.15
C 	21.13169458361709	37.1796487883456	2.15
C 	22.520664176659093	37.47488338930682	2.15
C 	22.959468308671518	38.825383642445935	2.15
C 	24.348437901713524	39.12061824340715	2.15
C 	24.78724203372595	40.471118496546275	2.15
C 	26.17621162676795	40.76635309750749	2.15
C 	26.61501575878038	42.11685335064661	2.15
C 	28.003985351822383	42.41208795160783	2.15
C 	28.442789483834805	43.76258820474694	2.15
C 	29.83175907687681	44.05782280570816	2.15
C 	30.270563208889236	45.40832305884727	2.15
C 	31.659532801931242	45.7035576598085	2.15
C 	25.6648502977508	43.1721190028245	2.15
C 	26.103654429763225	44.522619255963626	2.15
C 	27.49262402280523	44.81785385692485	2.15
C 	27.931428154817656	46.168354110063966	2.15
C 	29.32039774785966	46.46358871102518	2.15
H 	52.66168760274165	-1.0865352416038356	2.15
H 	55.11683808058349	-0.5646768976512619	2.15
H 	55.89247073646462	1.822474958249579	2.15
H 	48.49477882361564	-1.9722390444874849	2.15
H 	50.94992930145749	-1.4503807005349179	2.15
H 	56.43325047662077	3.486823861766088	2.15
H 	58.26102420167521	5.132558715866435	2.15
H 	59.03665685755632	7.519710571767275	2.15
H 	46.15564376954404	-1.2122079932708092	2.15
H 	59.5774365977125	9.184059475283798	2.15
H 	61.4052103227669	10.829794329384121	2.15
H 	63.23298404782134	12.475529183484463	2.15
H 	64.00861670370246	14.862681039385294	2.15
H 	43.81650871547246	-0.45217694205412684	2.15
H 	64.54939644385861	16.527029942901816	2.15
H 	66.37717016891304	18.172764797002156	2.15
H 	67.15280282479415	20.559916652902984	2.15
H 	39.64959993634646	-1.3378807449377812	2.15
H 	42.1047504141883	-0.8160224009852052	2.15
H 	67.6935825649503	22.22426555641949	2.15
H 	69.52135629000476	23.870000410519843	2.15
H 	70.29698894588587	26.25715226642069	2.15
H 	37.310464882274864	-0.5778496937210937	2.15
H 	70.83776868604201	27.921501169937187	2.15
H 	72.66554241109644	29.56723602403752	2.15
H 	73.44117506697758	31.954387879938363	2.15
H 	33.14355610314887	-1.4635534966047523	2.15
H 	35.59870658099071	-0.9416951526521806	2.15
H 	73.98195480713375	33.6187367834549	2.15
H 	75.80972853218813	35.264471637555204	2.15
H 	76.58536118806929	37.65162349345606	2.15
H 	30.804421049077288	-0.7035224453880681	2.15
H 	77.12614092822542	39.31597239697257	2.15
H 	77.90177358410655	41.703124252873415	2.15
H 	26.637512269951262	-1.5892262482717259	2.15
H 	29.092662747793117	-1.067367904319151	2.15
H 	77.3904122550894	44.10889015819042	2.15
H 	24.29837721587968	-0.829195197055042	2.15
H 	75.71089443312869	45.97418367013869	2.15
H 	20.13146843675366	-1.7148989999386979	2.15
H 	22.586618914595526	-1.1930406559861235	2.15
H 	73.37175937905708	46.73421472135537	2.15
H 	17.792333382682084	-0.9548679487220166	2.15
H 	68.57747384714365	46.97238742861947	2.15
H 	71.0326243249855	47.494245772572064	2.15
H 	13.625424603556077	-1.8405717516056714	2.15
H 	16.08057508139793	-1.3187134076530926	2.15
H 	66.8657155458595	46.608541969688396	2.15
H 	11.286289549484492	-1.080540700388991	2.15
H 	62.071430013946056	46.846714676952494	2.15
H 	64.52658049178791	47.368573020905096	2.15
H 	7.119380770358481	-1.9662445032726446	2.15
H 	9.574531248200334	-1.4443861593200695	2.15
H 	60.35967171266189	46.48286921802142	2.15
H 	4.780245716286896	-1.2062134520559624	2.15
H 	55.565386180748455	46.72104192528553	2.15
H 	58.020536658590316	47.24290026923811	2.15
H 	2.4411106622153156	-0.44618240083928096	2.15
H 	53.853627879464305	46.357196466354445	2.15
H 	0.7615928402545813	1.4191111111089783	2.15
H 	1.5372254961356993	3.8062629670098143	2.15
H 	3.3649992211901285	5.45199782111015	2.15
H 	51.514492825392736	47.11722751757114	2.15
H 	3.9057789613462868	7.116346724626672	2.15
H 	4.681411617227406	9.503498580527504	2.15
H 	6.509185342281838	11.149233434627844	2.15
H 	46.72020729347929	47.355400224835236	2.15
H 	49.17535777132113	47.87725856878782	2.15
H 	7.049965082437994	12.813582338144357	2.15
H 	7.825597738319113	15.200734194045197	2.15
H 	9.653371463373544	16.846469048145536	2.15
H 	45.008448992195135	46.991554765904155	2.15
H 	10.194151203529698	18.510817951662055	2.15
H 	10.969783859410816	20.897969807562884	2.15
H 	12.797557584465244	22.54370466166322	2.15
H 	40.21416346028168	47.22972747316827	2.15
H 	42.66931393812356	47.75158581712084	2.15
H 	13.338337324621406	24.208053565179736	2.15
H 	14.113969980502523	26.595205421080575	2.15
H 	15.94174370555695	28.240940275180908	2.15
H 	38.50240515899754	46.86588201423719	2.15
H 	16.48252344571311	29.905289178697434	2.15
H 	17.258156101594228	32.29244103459827	2.15
H 	19.085929826648663	33.93817588869861	2.15
H 	33.7081196270841	47.1040547215013	2.15
H 	36.16327010492594	47.625913065453865	2.15
H 	19.626709566804816	35.602524792215114	2.15
H 	20.402342222685938	37.98967664811597	2.15
H 	22.230115947740362	39.63541150221629	2.15
H 	24.057889672794797	41.28114635631664	2.15
H 	31.996361325799935	46.74020926257022	2.15
H 	24.598669412950954	42.94549525983313	2.15
H 	25.37430206883207	45.332647115733984	2.15
H 	27.202075793886504	46.97838196983433	2.15
H 	29.657226271728344	47.500240313786904	2.15
