2312

C 	0.0	0.0	0.0
C 	1.2297560733739028	0.7099999999999999	0.0
C 	2.4595121467478056	-2.3647750424515833e-16	0.0
C 	3.689268220121708	0.7099999999999995	0.0
C 	4.919024293495611	-4.729550084903167e-16	0.0
C 	6.148780366869514	0.7099999999999993	0.0
C 	7.378536440243416	-7.09432512735475e-16	0.0
C 	8.60829251361732	0.7099999999999991	0.0
C 	9.838048586991222	-9.459100169806333e-16	0.0
C 	11.067804660365125	0.7099999999999989	0.0
C 	12.297560733739026	-1.1823875212257916e-15	0.0
C 	13.527316807112928	0.7099999999999986	0.0
C 	14.757072880486833	-1.41886502547095e-15	0.0
C 	15.986828953860735	0.7099999999999984	0.0
C 	17.21658502723464	-7.671641100159832e-16	0.0
C 	18.44634110060854	0.7099999999999982	0.0
C 	19.676097173982445	-1.8918200339612667e-15	0.0
C 	20.905853247356347	0.7099999999999989	0.0
C 	22.135609320730246	-2.128297538206425e-15	0.0
C 	23.36536539410415	0.7099999999999967	0.0
C 	24.59512146747805	-2.364775042451583e-15	0.0
C 	25.824877540851954	0.7099999999999983	0.0
C 	27.05463361422586	-8.248957072964913e-16	0.0
C 	28.284389687599763	0.7099999999999999	0.0
C 	29.514145760973665	-2.8377300509419e-15	0.0
C 	30.743901834347565	0.7099999999999961	0.0
C 	31.97365790772147	-3.0742075551870582e-15	0.0
C 	33.20341398109537	0.7099999999999976	0.0
C 	34.43317005446928	-1.5343282200319664e-15	0.0
C 	35.66292612784318	0.7099999999999992	0.0
C 	36.892682201217085	-1.7708057242771246e-15	0.0
C 	38.122438274590984	0.7099999999999972	0.0
C 	39.35219434796489	-3.783640067922533e-15	0.0
C 	40.58195042133879	0.7099999999999969	0.0
C 	41.811706494712695	-4.67403893367191e-16	0.0
C 	43.0414625680866	0.7100000000000002	0.0
C 	44.27121864146049	-4.25659507641285e-15	0.0
C 	45.5009747148344	0.7099999999999964	0.0
C 	46.730730788208305	-9.403589018575075e-16	0.0
C 	47.96048686158221	0.7099999999999997	0.0
C 	49.1902429349561	-4.729550084903166e-15	0.0
C 	50.41999900833001	0.709999999999996	0.0
C 	51.64975508170391	-1.413313910347824e-15	0.0
C 	52.879511155077815	0.7099999999999993	0.0
C 	54.10926722845172	-1.6497914145929826e-15	0.0
C 	55.33902330182562	0.7099999999999991	0.0
C 	56.56877937519952	-5.438982597638641e-15	0.0
C 	57.798535448573425	0.7099999999999953	0.0
C 	59.02829152194733	-5.6754601018838e-15	0.0
C 	60.25804759532124	0.709999999999995	0.0
C 	1.2297560733739028	2.1299999999999994	0.0
C 	2.4595121467478056	2.8399999999999994	0.0
C 	3.689268220121708	2.1299999999999994	0.0
C 	4.919024293495611	2.8399999999999994	0.0
C 	6.148780366869514	2.129999999999999	0.0
C 	7.378536440243416	2.839999999999999	0.0
C 	8.60829251361732	2.1299999999999986	0.0
C 	9.838048586991222	2.8399999999999985	0.0
C 	11.067804660365123	2.129999999999998	0.0
C 	12.297560733739028	2.839999999999999	0.0
C 	13.527316807112928	2.1299999999999977	0.0
C 	14.757072880486833	2.839999999999998	0.0
C 	15.986828953860735	2.129999999999998	0.0
C 	17.216585027234636	2.839999999999997	0.0
C 	18.446341100608542	2.129999999999998	0.0
C 	19.676097173982445	2.8399999999999985	0.0
C 	20.905853247356344	2.1299999999999977	0.0
C 	22.13560932073025	2.8399999999999985	0.0
C 	23.36536539410415	2.129999999999997	0.0
C 	24.595121467478055	2.839999999999997	0.0
C 	25.824877540851954	2.1299999999999963	0.0
C 	27.05463361422586	2.839999999999997	0.0
C 	28.284389687599763	2.129999999999998	0.0
C 	29.514145760973665	2.8399999999999985	0.0
C 	30.743901834347568	2.129999999999996	0.0
C 	31.97365790772147	2.8399999999999967	0.0
C 	33.20341398109537	2.129999999999996	0.0
C 	34.43317005446928	2.8399999999999963	0.0
C 	35.66292612784318	2.1299999999999972	0.0
C 	36.89268220121708	2.8399999999999963	0.0
C 	38.122438274590984	2.129999999999997	0.0
C 	39.35219434796489	2.8399999999999976	0.0
C 	40.58195042133879	2.1299999999999986	0.0
C 	41.81170649471269	2.839999999999996	0.0
C 	43.0414625680866	2.129999999999998	0.0
C 	44.2712186414605	2.8399999999999954	0.0
C 	45.5009747148344	2.129999999999998	0.0
C 	46.7307307882083	2.8399999999999954	0.0
C 	47.96048686158221	2.1299999999999977	0.0
C 	49.19024293495611	2.839999999999995	0.0
C 	50.41999900833001	2.1299999999999977	0.0
C 	51.64975508170391	2.8399999999999945	0.0
C 	52.879511155077815	2.1299999999999972	0.0
C 	54.10926722845171	2.8399999999999945	0.0
C 	55.33902330182563	2.130000000000001	0.0
C 	56.56877937519952	2.8399999999999976	0.0
C 	57.798535448573425	2.129999999999997	0.0
C 	59.028291521947324	2.839999999999994	0.0
C 	60.25804759532124	2.129999999999997	0.0
C 	61.487803668695136	2.8399999999999936	0.0
C 	2.4595121467478056	4.259999999999999	0.0
C 	3.689268220121708	4.969999999999999	0.0
C 	4.919024293495611	4.259999999999999	0.0
C 	6.148780366869514	4.969999999999999	0.0
C 	7.378536440243416	4.259999999999999	0.0
C 	8.60829251361732	4.969999999999999	0.0
C 	9.83804858699122	4.259999999999998	0.0
C 	11.067804660365125	4.969999999999999	0.0
C 	12.297560733739028	4.259999999999998	0.0
C 	13.52731680711293	4.969999999999998	0.0
C 	14.757072880486831	4.259999999999998	0.0
C 	15.986828953860735	4.969999999999998	0.0
C 	17.21658502723464	4.259999999999997	0.0
C 	18.446341100608542	4.969999999999998	0.0
C 	19.676097173982445	4.259999999999999	0.0
C 	20.905853247356347	4.969999999999997	0.0
C 	22.135609320730246	4.259999999999996	0.0
C 	23.365365394104153	4.969999999999997	0.0
C 	24.595121467478055	4.259999999999998	0.0
C 	25.824877540851958	4.969999999999997	0.0
C 	27.054633614225857	4.259999999999995	0.0
C 	28.28438968759976	4.969999999999996	0.0
C 	29.514145760973665	4.259999999999997	0.0
C 	30.743901834347568	4.969999999999997	0.0
C 	31.97365790772147	4.259999999999996	0.0
C 	33.20341398109537	4.969999999999995	0.0
C 	34.43317005446927	4.2599999999999945	0.0
C 	35.66292612784318	4.969999999999995	0.0
C 	36.892682201217085	4.259999999999996	0.0
C 	38.122438274590984	4.969999999999997	0.0
C 	39.35219434796489	4.259999999999997	0.0
C 	40.58195042133879	4.969999999999994	0.0
C 	41.81170649471269	4.259999999999995	0.0
C 	43.041462568086594	4.969999999999996	0.0
C 	44.2712186414605	4.259999999999997	0.0
C 	45.500974714834406	4.969999999999998	0.0
C 	46.7307307882083	4.259999999999994	0.0
C 	47.960486861582204	4.9699999999999935	0.0
C 	49.19024293495611	4.259999999999996	0.0
C 	50.41999900833001	4.969999999999997	0.0
C 	51.64975508170391	4.259999999999993	0.0
C 	52.879511155077815	4.9699999999999935	0.0
C 	54.10926722845171	4.259999999999996	0.0
C 	55.33902330182562	4.969999999999997	0.0
C 	56.568779375199526	4.259999999999996	0.0
C 	57.798535448573425	4.969999999999996	0.0
C 	59.028291521947324	4.259999999999995	0.0
C 	60.25804759532123	4.969999999999996	0.0
C 	61.487803668695136	4.259999999999992	0.0
C 	62.717559742069035	4.969999999999993	0.0
C 	3.6892682201217086	6.389999999999999	0.0
C 	4.919024293495611	7.099999999999999	0.0
C 	6.148780366869514	6.389999999999999	0.0
C 	7.378536440243416	7.099999999999999	0.0
C 	8.608292513617318	6.389999999999998	0.0
C 	9.838048586991222	7.099999999999999	0.0
C 	11.067804660365125	6.389999999999998	0.0
C 	12.297560733739028	7.099999999999998	0.0
C 	13.52731680711293	6.389999999999999	0.0
C 	14.757072880486833	7.099999999999998	0.0
C 	15.986828953860735	6.389999999999998	0.0
C 	17.216585027234636	7.099999999999997	0.0
C 	18.44634110060854	6.389999999999997	0.0
C 	19.676097173982445	7.099999999999998	0.0
C 	20.905853247356347	6.389999999999998	0.0
C 	22.13560932073025	7.099999999999997	0.0
C 	23.365365394104153	6.389999999999998	0.0
C 	24.59512146747805	7.099999999999997	0.0
C 	25.824877540851958	6.389999999999998	0.0
C 	27.054633614225857	7.099999999999997	0.0
C 	28.28438968759976	6.389999999999999	0.0
C 	29.514145760973662	7.099999999999997	0.0
C 	30.743901834347568	6.389999999999999	0.0
C 	31.97365790772147	7.099999999999998	0.0
C 	33.20341398109537	6.389999999999995	0.0
C 	34.43317005446928	7.099999999999994	0.0
C 	35.66292612784318	6.389999999999995	0.0
C 	36.892682201217085	7.099999999999996	0.0
C 	38.122438274590984	6.389999999999996	0.0
C 	39.35219434796489	7.099999999999997	0.0
C 	40.58195042133879	6.389999999999994	0.0
C 	41.811706494712695	7.099999999999995	0.0
C 	43.041462568086594	6.389999999999996	0.0
C 	44.2712186414605	7.099999999999997	0.0
C 	45.500974714834406	6.389999999999998	0.0
C 	46.730730788208305	7.099999999999998	0.0
C 	47.960486861582204	6.389999999999995	0.0
C 	49.19024293495611	7.099999999999996	0.0
C 	50.41999900833001	6.389999999999995	0.0
C 	51.649755081703915	7.099999999999996	0.0
C 	52.879511155077815	6.389999999999995	0.0
C 	54.10926722845172	7.099999999999996	0.0
C 	55.33902330182562	6.389999999999995	0.0
C 	56.568779375199526	7.099999999999995	0.0
C 	57.79853544857343	6.389999999999998	0.0
C 	59.02829152194733	7.099999999999999	0.0
C 	60.25804759532123	6.389999999999994	0.0
C 	61.487803668695136	7.099999999999995	0.0
C 	62.71755974206904	6.389999999999994	0.0
C 	63.94731581544294	7.099999999999995	0.0
C 	4.919024293495611	8.519999999999998	0.0
C 	6.148780366869514	9.229999999999999	0.0
C 	7.378536440243416	8.519999999999998	0.0
C 	8.60829251361732	9.229999999999999	0.0
C 	9.838048586991222	8.519999999999998	0.0
C 	11.067804660365125	9.229999999999999	0.0
C 	12.297560733739028	8.519999999999998	0.0
C 	13.52731680711293	9.229999999999997	0.0
C 	14.757072880486833	8.519999999999998	0.0
C 	15.986828953860737	9.229999999999999	0.0
C 	17.216585027234636	8.519999999999998	0.0
C 	18.44634110060854	9.229999999999997	0.0
C 	19.67609717398244	8.519999999999996	0.0
C 	20.905853247356347	9.229999999999997	0.0
C 	22.13560932073025	8.519999999999998	0.0
C 	23.365365394104153	9.229999999999999	0.0
C 	24.595121467478055	8.519999999999996	0.0
C 	25.824877540851954	9.229999999999995	0.0
C 	27.05463361422586	8.519999999999996	0.0
C 	28.284389687599763	9.229999999999997	0.0
C 	29.514145760973662	8.519999999999996	0.0
C 	30.743901834347565	9.229999999999995	0.0
C 	31.97365790772147	8.52	0.0
C 	33.20341398109537	9.229999999999997	0.0
C 	34.43317005446928	8.519999999999994	0.0
C 	35.66292612784318	9.229999999999995	0.0
C 	36.89268220121708	8.519999999999992	0.0
C 	38.122438274590984	9.229999999999993	0.0
C 	39.35219434796489	8.519999999999998	0.0
C 	40.58195042133879	9.229999999999995	0.0
C 	41.811706494712695	8.519999999999994	0.0
C 	43.0414625680866	9.229999999999995	0.0
C 	44.27121864146049	8.519999999999992	0.0
C 	45.5009747148344	9.229999999999993	0.0
C 	46.730730788208305	8.519999999999998	0.0
C 	47.960486861582204	9.229999999999995	0.0
C 	49.19024293495611	8.519999999999996	0.0
C 	50.41999900833001	9.229999999999993	0.0
C 	51.64975508170391	8.519999999999994	0.0
C 	52.879511155077815	9.229999999999995	0.0
C 	54.10926722845171	8.51999999999999	0.0
C 	55.33902330182562	9.229999999999992	0.0
C 	56.568779375199526	8.519999999999998	0.0
C 	57.798535448573425	9.229999999999995	0.0
C 	59.02829152194733	8.519999999999994	0.0
C 	60.25804759532123	9.229999999999993	0.0
C 	61.48780366869513	8.519999999999992	0.0
C 	62.717559742069035	9.229999999999993	0.0
C 	63.94731581544294	8.519999999999992	0.0
C 	65.17707188881684	9.22999999999999	0.0
C 	6.148780366869514	10.649999999999997	0.0
C 	7.378536440243416	11.359999999999998	0.0
C 	8.608292513617318	10.649999999999997	0.0
C 	9.838048586991222	11.359999999999998	0.0
C 	11.067804660365125	10.649999999999997	0.0
C 	12.297560733739028	11.359999999999996	0.0
C 	13.52731680711293	10.649999999999997	0.0
C 	14.757072880486831	11.359999999999996	0.0
C 	15.986828953860735	10.649999999999997	0.0
C 	17.216585027234636	11.359999999999996	0.0
C 	18.44634110060854	10.649999999999997	0.0
C 	19.676097173982445	11.359999999999998	0.0
C 	20.905853247356347	10.649999999999997	0.0
C 	22.13560932073025	11.359999999999996	0.0
C 	23.365365394104153	10.649999999999997	0.0
C 	24.595121467478055	11.359999999999996	0.0
C 	25.824877540851958	10.649999999999997	0.0
C 	27.05463361422586	11.359999999999996	0.0
C 	28.284389687599763	10.649999999999995	0.0
C 	29.514145760973662	11.359999999999994	0.0
C 	30.743901834347565	10.649999999999995	0.0
C 	31.97365790772147	11.359999999999996	0.0
C 	33.20341398109537	10.649999999999997	0.0
C 	34.43317005446928	11.359999999999998	0.0
C 	35.66292612784318	10.649999999999991	0.0
C 	36.89268220121708	11.359999999999992	0.0
C 	38.122438274590984	10.649999999999993	0.0
C 	39.35219434796489	11.359999999999994	0.0
C 	40.58195042133879	10.649999999999993	0.0
C 	41.811706494712695	11.359999999999994	0.0
C 	43.041462568086594	10.649999999999991	0.0
C 	44.2712186414605	11.359999999999992	0.0
C 	45.5009747148344	10.649999999999993	0.0
C 	46.730730788208305	11.359999999999994	0.0
C 	47.960486861582204	10.649999999999995	0.0
C 	49.19024293495611	11.359999999999996	0.0
C 	50.41999900833001	10.649999999999993	0.0
C 	51.649755081703915	11.359999999999994	0.0
C 	52.879511155077815	10.649999999999995	0.0
C 	54.10926722845172	11.359999999999996	0.0
C 	55.33902330182562	10.649999999999993	0.0
C 	56.568779375199526	11.359999999999994	0.0
C 	57.798535448573425	10.649999999999993	0.0
C 	59.02829152194733	11.359999999999992	0.0
C 	60.25804759532124	10.649999999999995	0.0
C 	61.487803668695136	11.359999999999996	0.0
C 	62.717559742069035	10.649999999999991	0.0
C 	63.94731581544294	11.359999999999992	0.0
C 	65.17707188881684	10.649999999999991	0.0
C 	66.40682796219075	11.359999999999992	0.0
C 	7.378536440243417	12.779999999999998	0.0
C 	8.60829251361732	13.489999999999998	0.0
C 	9.838048586991222	12.78	0.0
C 	11.067804660365125	13.489999999999997	0.0
C 	12.297560733739028	12.779999999999998	0.0
C 	13.527316807112932	13.489999999999998	0.0
C 	14.757072880486833	12.779999999999998	0.0
C 	15.986828953860737	13.489999999999997	0.0
C 	17.216585027234636	12.779999999999996	0.0
C 	18.446341100608542	13.489999999999997	0.0
C 	19.676097173982445	12.779999999999998	0.0
C 	20.905853247356347	13.489999999999997	0.0
C 	22.13560932073025	12.779999999999996	0.0
C 	23.36536539410415	13.489999999999995	0.0
C 	24.595121467478055	12.779999999999996	0.0
C 	25.824877540851958	13.489999999999997	0.0
C 	27.05463361422586	12.779999999999998	0.0
C 	28.284389687599763	13.489999999999997	0.0
C 	29.514145760973662	12.779999999999996	0.0
C 	30.743901834347568	13.489999999999997	0.0
C 	31.97365790772147	12.779999999999996	0.0
C 	33.20341398109537	13.489999999999997	0.0
C 	34.43317005446928	12.779999999999998	0.0
C 	35.66292612784318	13.489999999999995	0.0
C 	36.89268220121708	12.779999999999994	0.0
C 	38.122438274590984	13.489999999999995	0.0
C 	39.35219434796489	12.779999999999996	0.0
C 	40.581950421338796	13.489999999999997	0.0
C 	41.811706494712695	12.779999999999996	0.0
C 	43.041462568086594	13.489999999999993	0.0
C 	44.2712186414605	12.779999999999994	0.0
C 	45.5009747148344	13.489999999999995	0.0
C 	46.730730788208305	12.779999999999996	0.0
C 	47.96048686158221	13.489999999999997	0.0
C 	49.19024293495611	12.779999999999998	0.0
C 	50.41999900833001	13.489999999999995	0.0
C 	51.649755081703915	12.779999999999996	0.0
C 	52.879511155077815	13.489999999999993	0.0
C 	54.10926722845172	12.779999999999998	0.0
C 	55.33902330182563	13.489999999999998	0.0
C 	56.56877937519952	12.779999999999998	0.0
C 	57.798535448573425	13.489999999999997	0.0
C 	59.02829152194733	12.779999999999994	0.0
C 	60.25804759532123	13.489999999999991	0.0
C 	61.487803668695136	12.779999999999998	0.0
C 	62.71755974206904	13.489999999999998	0.0
C 	63.94731581544294	12.779999999999994	0.0
C 	65.17707188881684	13.489999999999995	0.0
C 	66.40682796219075	12.77999999999999	0.0
C 	67.63658403556465	13.489999999999988	0.0
C 	8.60829251361732	14.909999999999998	0.0
C 	9.838048586991222	15.619999999999996	0.0
C 	11.067804660365125	14.909999999999997	0.0
C 	12.297560733739026	15.619999999999996	0.0
C 	13.527316807112934	14.909999999999998	0.0
C 	14.757072880486831	15.619999999999996	0.0
C 	15.986828953860737	14.909999999999998	0.0
C 	17.21658502723464	15.619999999999997	0.0
C 	18.446341100608542	14.909999999999997	0.0
C 	19.676097173982445	15.619999999999996	0.0
C 	20.905853247356347	14.909999999999997	0.0
C 	22.135609320730246	15.619999999999996	0.0
C 	23.365365394104153	14.909999999999995	0.0
C 	24.595121467478055	15.619999999999996	0.0
C 	25.824877540851958	14.909999999999997	0.0
C 	27.05463361422586	15.619999999999996	0.0
C 	28.284389687599763	14.909999999999997	0.0
C 	29.514145760973665	15.619999999999996	0.0
C 	30.743901834347568	14.909999999999997	0.0
C 	31.973657907721474	15.619999999999997	0.0
C 	33.203413981095366	14.909999999999993	0.0
C 	34.43317005446927	15.619999999999994	0.0
C 	35.662926127843185	14.909999999999998	0.0
C 	36.892682201217085	15.619999999999996	0.0
C 	38.122438274590984	14.909999999999995	0.0
C 	39.35219434796489	15.619999999999996	0.0
C 	40.58195042133879	14.909999999999993	0.0
C 	41.811706494712695	15.619999999999994	0.0
C 	43.0414625680866	14.909999999999998	0.0
C 	44.2712186414605	15.619999999999996	0.0
C 	45.5009747148344	14.909999999999995	0.0
C 	46.730730788208305	15.619999999999996	0.0
C 	47.960486861582204	14.909999999999993	0.0
C 	49.19024293495611	15.619999999999994	0.0
C 	50.41999900833002	14.909999999999998	0.0
C 	51.649755081703915	15.619999999999996	0.0
C 	52.87951115507782	14.909999999999997	0.0
C 	54.10926722845171	15.619999999999994	0.0
C 	55.33902330182562	14.909999999999995	0.0
C 	56.568779375199526	15.619999999999994	0.0
C 	57.798535448573425	14.909999999999991	0.0
C 	59.028291521947324	15.619999999999992	0.0
C 	60.25804759532124	14.909999999999998	0.0
C 	61.487803668695136	15.619999999999996	0.0
C 	62.717559742069035	14.909999999999993	0.0
C 	63.94731581544294	15.619999999999994	0.0
C 	65.17707188881684	14.909999999999993	0.0
C 	66.40682796219075	15.619999999999994	0.0
C 	67.63658403556465	14.909999999999997	0.0
C 	68.86634010893854	15.61999999999999	0.0
C 	9.838048586991222	17.039999999999996	0.0
C 	11.067804660365127	17.749999999999996	0.0
C 	12.297560733739028	17.039999999999996	0.0
C 	13.527316807112932	17.749999999999996	0.0
C 	14.757072880486833	17.039999999999996	0.0
C 	15.986828953860735	17.749999999999996	0.0
C 	17.21658502723464	17.039999999999996	0.0
C 	18.446341100608546	17.749999999999996	0.0
C 	19.676097173982445	17.039999999999996	0.0
C 	20.905853247356347	17.749999999999996	0.0
C 	22.13560932073025	17.039999999999996	0.0
C 	23.365365394104153	17.749999999999996	0.0
C 	24.595121467478055	17.039999999999996	0.0
C 	25.82487754085196	17.749999999999996	0.0
C 	27.05463361422586	17.039999999999996	0.0
C 	28.28438968759977	17.75	0.0
C 	29.514145760973665	17.039999999999996	0.0
C 	30.74390183434757	17.749999999999996	0.0
C 	31.973657907721467	17.039999999999992	0.0
C 	33.20341398109537	17.749999999999993	0.0
C 	34.43317005446927	17.039999999999996	0.0
C 	35.66292612784318	17.749999999999996	0.0
C 	36.892682201217085	17.039999999999996	0.0
C 	38.122438274590984	17.749999999999996	0.0
C 	39.35219434796488	17.039999999999992	0.0
C 	40.58195042133879	17.749999999999993	0.0
C 	41.811706494712695	17.039999999999992	0.0
C 	43.041462568086594	17.749999999999993	0.0
C 	44.2712186414605	17.039999999999996	0.0
C 	45.500974714834406	17.749999999999996	0.0
C 	46.7307307882083	17.039999999999992	0.0
C 	47.960486861582204	17.749999999999993	0.0
C 	49.19024293495611	17.039999999999992	0.0
C 	50.41999900833002	17.749999999999993	0.0
C 	51.649755081703915	17.039999999999996	0.0
C 	52.87951115507782	17.749999999999996	0.0
C 	54.10926722845172	17.039999999999992	0.0
C 	55.33902330182562	17.749999999999993	0.0
C 	56.568779375199526	17.039999999999996	0.0
C 	57.79853544857343	17.749999999999996	0.0
C 	59.028291521947324	17.039999999999992	0.0
C 	60.25804759532123	17.749999999999993	0.0
C 	61.487803668695136	17.039999999999996	0.0
C 	62.71755974206904	17.749999999999996	0.0
C 	63.94731581544294	17.04	0.0
C 	65.17707188881684	17.749999999999993	0.0
C 	66.40682796219075	17.039999999999996	0.0
C 	67.63658403556464	17.74999999999999	0.0
C 	68.86634010893856	17.03999999999999	0.0
C 	70.09609618231246	17.74999999999999	0.0
C 	11.067804660365125	19.169999999999995	0.0
C 	12.297560733739026	19.879999999999995	0.0
C 	13.52731680711293	19.169999999999995	0.0
C 	14.757072880486831	19.879999999999995	0.0
C 	15.986828953860737	19.169999999999998	0.0
C 	17.216585027234636	19.879999999999992	0.0
C 	18.446341100608542	19.169999999999995	0.0
C 	19.676097173982445	19.879999999999995	0.0
C 	20.905853247356347	19.169999999999995	0.0
C 	22.135609320730246	19.879999999999995	0.0
C 	23.365365394104153	19.169999999999995	0.0
C 	24.59512146747805	19.879999999999995	0.0
C 	25.824877540851958	19.169999999999995	0.0
C 	27.05463361422586	19.879999999999995	0.0
C 	28.284389687599763	19.169999999999995	0.0
C 	29.51414576097367	19.879999999999995	0.0
C 	30.743901834347565	19.16999999999999	0.0
C 	31.97365790772147	19.879999999999992	0.0
C 	33.20341398109537	19.169999999999995	0.0
C 	34.43317005446927	19.879999999999992	0.0
C 	35.66292612784318	19.169999999999995	0.0
C 	36.89268220121708	19.879999999999992	0.0
C 	38.122438274590984	19.169999999999995	0.0
C 	39.35219434796488	19.879999999999992	0.0
C 	40.58195042133879	19.16999999999999	0.0
C 	41.81170649471269	19.87999999999999	0.0
C 	43.0414625680866	19.169999999999995	0.0
C 	44.27121864146049	19.879999999999992	0.0
C 	45.5009747148344	19.16999999999999	0.0
C 	46.730730788208305	19.879999999999992	0.0
C 	47.960486861582204	19.169999999999995	0.0
C 	49.1902429349561	19.879999999999992	0.0
C 	50.41999900833002	19.169999999999995	0.0
C 	51.649755081703915	19.879999999999992	0.0
C 	52.879511155077815	19.16999999999999	0.0
C 	54.10926722845172	19.879999999999992	0.0
C 	55.33902330182562	19.16999999999999	0.0
C 	56.56877937519952	19.879999999999992	0.0
C 	57.79853544857343	19.169999999999995	0.0
C 	59.02829152194733	19.879999999999992	0.0
C 	60.25804759532123	19.169999999999995	0.0
C 	61.48780366869513	19.879999999999992	0.0
C 	62.717559742069035	19.16999999999999	0.0
C 	63.94731581544294	19.879999999999992	0.0
C 	65.17707188881684	19.169999999999995	0.0
C 	66.40682796219075	19.87999999999999	0.0
C 	67.63658403556465	19.169999999999995	0.0
C 	68.86634010893854	19.87999999999999	0.0
C 	70.09609618231245	19.16999999999999	0.0
C 	71.32585225568636	19.879999999999992	0.0
C 	12.297560733739028	21.299999999999994	0.0
C 	13.527316807112932	22.009999999999994	0.0
C 	14.757072880486831	21.299999999999994	0.0
C 	15.986828953860735	22.009999999999994	0.0
C 	17.216585027234636	21.299999999999994	0.0
C 	18.44634110060854	22.009999999999994	0.0
C 	19.676097173982445	21.299999999999994	0.0
C 	20.905853247356347	22.009999999999994	0.0
C 	22.13560932073025	21.299999999999994	0.0
C 	23.365365394104153	22.009999999999994	0.0
C 	24.595121467478055	21.299999999999994	0.0
C 	25.824877540851958	22.009999999999994	0.0
C 	27.05463361422586	21.299999999999994	0.0
C 	28.284389687599766	22.009999999999994	0.0
C 	29.514145760973662	21.29999999999999	0.0
C 	30.743901834347568	22.00999999999999	0.0
C 	31.97365790772147	21.299999999999994	0.0
C 	33.20341398109537	22.009999999999994	0.0
C 	34.43317005446928	21.299999999999994	0.0
C 	35.662926127843185	22.009999999999994	0.0
C 	36.89268220121708	21.299999999999994	0.0
C 	38.122438274590984	22.009999999999994	0.0
C 	39.35219434796489	21.299999999999994	0.0
C 	40.58195042133879	22.009999999999994	0.0
C 	41.811706494712695	21.299999999999994	0.0
C 	43.0414625680866	22.009999999999994	0.0
C 	44.2712186414605	21.29999999999999	0.0
C 	45.5009747148344	22.00999999999999	0.0
C 	46.730730788208305	21.299999999999994	0.0
C 	47.96048686158221	22.009999999999994	0.0
C 	49.19024293495611	21.299999999999994	0.0
C 	50.41999900833002	22.009999999999994	0.0
C 	51.649755081703915	21.299999999999994	0.0
C 	52.879511155077815	22.00999999999999	0.0
C 	54.10926722845172	21.299999999999994	0.0
C 	55.33902330182563	22.009999999999994	0.0
C 	56.568779375199526	21.29999999999999	0.0
C 	57.798535448573425	22.00999999999999	0.0
C 	59.02829152194733	21.299999999999994	0.0
C 	60.25804759532124	22.009999999999994	0.0
C 	61.48780366869513	21.29999999999999	0.0
C 	62.717559742069035	22.00999999999999	0.0
C 	63.94731581544294	21.299999999999994	0.0
C 	65.17707188881684	22.009999999999987	0.0
C 	66.40682796219075	21.299999999999994	0.0
C 	67.63658403556465	22.009999999999994	0.0
C 	68.86634010893854	21.29999999999999	0.0
C 	70.09609618231245	22.00999999999999	0.0
C 	71.32585225568636	21.299999999999983	0.0
C 	72.55560832906026	22.00999999999999	0.0
C 	13.527316807112932	23.429999999999996	0.0
C 	14.757072880486836	24.139999999999997	0.0
C 	15.986828953860737	23.429999999999996	0.0
C 	17.216585027234643	24.139999999999997	0.0
C 	18.446341100608542	23.429999999999996	0.0
C 	19.676097173982445	24.139999999999997	0.0
C 	20.90585324735635	23.429999999999996	0.0
C 	22.135609320730254	24.139999999999997	0.0
C 	23.365365394104156	23.429999999999993	0.0
C 	24.595121467478062	24.139999999999997	0.0
C 	25.824877540851958	23.429999999999993	0.0
C 	27.054633614225864	24.139999999999993	0.0
C 	28.284389687599766	23.429999999999996	0.0
C 	29.514145760973673	24.139999999999997	0.0
C 	30.743901834347575	23.429999999999996	0.0
C 	31.973657907721478	24.139999999999997	0.0
C 	33.20341398109537	23.429999999999993	0.0
C 	34.43317005446928	24.139999999999993	0.0
C 	35.66292612784318	23.429999999999993	0.0
C 	36.892682201217085	24.139999999999993	0.0
C 	38.122438274590984	23.429999999999993	0.0
C 	39.35219434796489	24.139999999999993	0.0
C 	40.58195042133879	23.429999999999996	0.0
C 	41.811706494712695	24.139999999999993	0.0
C 	43.041462568086594	23.42999999999999	0.0
C 	44.2712186414605	24.13999999999999	0.0
C 	45.5009747148344	23.429999999999993	0.0
C 	46.730730788208305	24.139999999999993	0.0
C 	47.96048686158221	23.429999999999993	0.0
C 	49.19024293495611	24.139999999999993	0.0
C 	50.41999900833001	23.429999999999993	0.0
C 	51.649755081703915	24.13999999999999	0.0
C 	52.87951115507782	23.429999999999993	0.0
C 	54.10926722845172	24.139999999999993	0.0
C 	55.33902330182563	23.429999999999993	0.0
C 	56.56877937519953	24.139999999999993	0.0
C 	57.798535448573425	23.429999999999993	0.0
C 	59.02829152194733	24.139999999999993	0.0
C 	60.25804759532124	23.429999999999993	0.0
C 	61.487803668695136	24.13999999999999	0.0
C 	62.71755974206904	23.429999999999993	0.0
C 	63.947315815442934	24.139999999999986	0.0
C 	65.17707188881684	23.429999999999993	0.0
C 	66.40682796219075	24.139999999999993	0.0
C 	67.63658403556464	23.42999999999999	0.0
C 	68.86634010893856	24.139999999999997	0.0
C 	70.09609618231245	23.42999999999999	0.0
C 	71.32585225568636	24.139999999999997	0.0
C 	72.55560832906026	23.42999999999999	0.0
C 	73.78536440243417	24.13999999999999	0.0
C 	14.757072880486835	25.559999999999995	0.0
C 	15.986828953860735	26.269999999999996	0.0
C 	17.21658502723464	25.559999999999995	0.0
C 	18.44634110060854	26.269999999999996	0.0
C 	19.676097173982445	25.56	0.0
C 	20.905853247356344	26.269999999999996	0.0
C 	22.13560932073025	25.56	0.0
C 	23.365365394104153	26.269999999999996	0.0
C 	24.595121467478055	25.559999999999995	0.0
C 	25.824877540851958	26.269999999999996	0.0
C 	27.054633614225857	25.559999999999995	0.0
C 	28.28438968759976	26.269999999999996	0.0
C 	29.514145760973665	25.559999999999995	0.0
C 	30.743901834347568	26.269999999999996	0.0
C 	31.973657907721474	25.559999999999995	0.0
C 	33.20341398109538	26.269999999999996	0.0
C 	34.43317005446927	25.55999999999999	0.0
C 	35.66292612784318	26.269999999999992	0.0
C 	36.892682201217085	25.559999999999995	0.0
C 	38.12243827459098	26.269999999999992	0.0
C 	39.35219434796489	25.559999999999995	0.0
C 	40.58195042133879	26.269999999999992	0.0
C 	41.81170649471269	25.55999999999999	0.0
C 	43.041462568086594	26.269999999999992	0.0
C 	44.2712186414605	25.55999999999999	0.0
C 	45.5009747148344	26.26999999999999	0.0
C 	46.730730788208305	25.559999999999995	0.0
C 	47.960486861582204	26.269999999999992	0.0
C 	49.19024293495611	25.55999999999999	0.0
C 	50.41999900833001	26.269999999999992	0.0
C 	51.649755081703915	25.559999999999995	0.0
C 	52.879511155077815	26.269999999999992	0.0
C 	54.10926722845172	25.559999999999995	0.0
C 	55.33902330182562	26.269999999999992	0.0
C 	56.568779375199526	25.55999999999999	0.0
C 	57.79853544857343	26.269999999999992	0.0
C 	59.028291521947324	25.55999999999999	0.0
C 	60.25804759532123	26.269999999999992	0.0
C 	61.487803668695136	25.559999999999995	0.0
C 	62.717559742069035	26.26999999999999	0.0
C 	63.94731581544294	25.55999999999999	0.0
C 	65.17707188881683	26.269999999999985	0.0
C 	66.40682796219075	25.55999999999999	0.0
C 	67.63658403556465	26.269999999999992	0.0
C 	68.86634010893856	25.559999999999995	0.0
C 	70.09609618231246	26.269999999999996	0.0
C 	71.32585225568636	25.559999999999995	0.0
C 	72.55560832906026	26.269999999999996	0.0
C 	73.78536440243415	25.559999999999988	0.0
C 	75.01512047580806	26.26999999999999	0.0
C 	15.986828953860735	27.689999999999994	0.0
C 	17.21658502723464	28.399999999999995	0.0
C 	18.446341100608542	27.689999999999994	0.0
C 	19.676097173982445	28.399999999999995	0.0
C 	20.905853247356344	27.689999999999994	0.0
C 	22.13560932073025	28.399999999999995	0.0
C 	23.365365394104153	27.689999999999994	0.0
C 	24.59512146747806	28.399999999999995	0.0
C 	25.824877540851954	27.689999999999994	0.0
C 	27.054633614225857	28.399999999999995	0.0
C 	28.284389687599763	27.689999999999994	0.0
C 	29.514145760973665	28.399999999999995	0.0
C 	30.74390183434757	27.689999999999994	0.0
C 	31.973657907721474	28.399999999999995	0.0
C 	33.20341398109537	27.68999999999999	0.0
C 	34.43317005446928	28.39999999999999	0.0
C 	35.66292612784318	27.689999999999994	0.0
C 	36.892682201217085	28.399999999999995	0.0
C 	38.122438274590984	27.689999999999994	0.0
C 	39.35219434796489	28.399999999999995	0.0
C 	40.58195042133879	27.689999999999994	0.0
C 	41.811706494712695	28.399999999999995	0.0
C 	43.041462568086594	27.689999999999994	0.0
C 	44.2712186414605	28.399999999999995	0.0
C 	45.500974714834406	27.689999999999994	0.0
C 	46.730730788208305	28.399999999999995	0.0
C 	47.960486861582204	27.68999999999999	0.0
C 	49.19024293495611	28.39999999999999	0.0
C 	50.41999900833002	27.689999999999994	0.0
C 	51.649755081703915	28.399999999999995	0.0
C 	52.87951115507782	27.689999999999994	0.0
C 	54.10926722845173	28.399999999999995	0.0
C 	55.33902330182562	27.68999999999999	0.0
C 	56.568779375199526	28.39999999999999	0.0
C 	57.79853544857343	27.689999999999994	0.0
C 	59.02829152194733	28.39999999999999	0.0
C 	60.25804759532124	27.689999999999994	0.0
C 	61.48780366869513	28.399999999999988	0.0
C 	62.717559742069035	27.689999999999994	0.0
C 	63.94731581544294	28.399999999999995	0.0
C 	65.17707188881684	27.68999999999999	0.0
C 	66.40682796219075	28.39999999999999	0.0
C 	67.63658403556464	27.689999999999987	0.0
C 	68.86634010893856	28.399999999999995	0.0
C 	70.09609618231245	27.689999999999994	0.0
C 	71.32585225568636	28.399999999999995	0.0
C 	72.55560832906026	27.68999999999999	0.0
C 	73.78536440243415	28.39999999999999	0.0
C 	75.01512047580808	27.689999999999994	0.0
C 	76.24487654918197	28.399999999999984	0.0
C 	17.21658502723464	29.819999999999997	0.0
C 	18.446341100608546	30.529999999999998	0.0
C 	19.676097173982445	29.819999999999997	0.0
C 	20.905853247356355	30.529999999999998	0.0
C 	22.13560932073025	29.819999999999993	0.0
C 	23.365365394104156	30.529999999999994	0.0
C 	24.59512146747806	29.819999999999997	0.0
C 	25.82487754085196	30.529999999999998	0.0
C 	27.054633614225867	29.819999999999997	0.0
C 	28.28438968759977	30.529999999999998	0.0
C 	29.514145760973665	29.819999999999997	0.0
C 	30.74390183434757	30.529999999999998	0.0
C 	31.973657907721474	29.819999999999997	0.0
C 	33.20341398109538	30.529999999999998	0.0
C 	34.43317005446928	29.819999999999997	0.0
C 	35.662926127843185	30.529999999999998	0.0
C 	36.892682201217085	29.819999999999993	0.0
C 	38.12243827459099	30.529999999999994	0.0
C 	39.35219434796488	29.819999999999993	0.0
C 	40.58195042133879	30.529999999999994	0.0
C 	41.811706494712695	29.819999999999993	0.0
C 	43.0414625680866	30.529999999999994	0.0
C 	44.2712186414605	29.819999999999993	0.0
C 	45.500974714834406	30.529999999999994	0.0
C 	46.730730788208305	29.81999999999999	0.0
C 	47.960486861582204	30.52999999999999	0.0
C 	49.19024293495611	29.819999999999993	0.0
C 	50.41999900833002	30.529999999999994	0.0
C 	51.649755081703915	29.819999999999993	0.0
C 	52.87951115507782	30.529999999999994	0.0
C 	54.10926722845172	29.819999999999993	0.0
C 	55.33902330182563	30.52999999999999	0.0
C 	56.568779375199526	29.819999999999993	0.0
C 	57.798535448573425	30.52999999999999	0.0
C 	59.02829152194734	29.819999999999993	0.0
C 	60.25804759532124	30.529999999999994	0.0
C 	61.487803668695136	29.819999999999993	0.0
C 	62.71755974206904	30.529999999999994	0.0
C 	63.947315815442934	29.81999999999999	0.0
C 	65.17707188881685	30.529999999999998	0.0
C 	66.40682796219073	29.819999999999986	0.0
C 	67.63658403556465	30.529999999999994	0.0
C 	68.86634010893856	29.819999999999993	0.0
C 	70.09609618231245	30.529999999999994	0.0
C 	71.32585225568637	29.819999999999997	0.0
C 	72.55560832906026	30.52999999999999	0.0
C 	73.78536440243417	29.819999999999997	0.0
C 	75.01512047580806	30.529999999999987	0.0
C 	76.24487654918197	29.81999999999999	0.0
C 	77.47463262255587	30.52999999999999	0.0
C 	18.446341100608542	31.949999999999996	0.0
C 	19.676097173982445	32.65999999999999	0.0
C 	20.905853247356347	31.949999999999992	0.0
C 	22.135609320730254	32.66	0.0
C 	23.365365394104156	31.949999999999996	0.0
C 	24.595121467478055	32.65999999999999	0.0
C 	25.824877540851958	31.949999999999992	0.0
C 	27.05463361422586	32.66	0.0
C 	28.284389687599766	31.949999999999996	0.0
C 	29.51414576097367	32.66	0.0
C 	30.743901834347568	31.949999999999992	0.0
C 	31.97365790772147	32.66	0.0
C 	33.20341398109537	31.949999999999992	0.0
C 	34.43317005446928	32.66	0.0
C 	35.66292612784318	31.949999999999996	0.0
C 	36.892682201217085	32.66	0.0
C 	38.122438274590984	31.949999999999992	0.0
C 	39.35219434796489	32.65999999999999	0.0
C 	40.58195042133879	31.949999999999992	0.0
C 	41.81170649471269	32.65999999999999	0.0
C 	43.0414625680866	31.949999999999996	0.0
C 	44.2712186414605	32.65999999999999	0.0
C 	45.5009747148344	31.949999999999992	0.0
C 	46.730730788208305	32.65999999999999	0.0
C 	47.96048686158221	31.949999999999992	0.0
C 	49.1902429349561	32.65999999999999	0.0
C 	50.41999900833002	31.949999999999992	0.0
C 	51.649755081703915	32.65999999999999	0.0
C 	52.879511155077815	31.949999999999992	0.0
C 	54.10926722845172	32.65999999999999	0.0
C 	55.33902330182563	31.949999999999992	0.0
C 	56.568779375199526	32.65999999999999	0.0
C 	57.79853544857343	31.949999999999992	0.0
C 	59.028291521947324	32.65999999999999	0.0
C 	60.25804759532124	31.949999999999992	0.0
C 	61.487803668695136	32.65999999999999	0.0
C 	62.717559742069035	31.94999999999999	0.0
C 	63.94731581544294	32.65999999999999	0.0
C 	65.17707188881685	31.949999999999992	0.0
C 	66.40682796219076	32.66	0.0
C 	67.63658403556465	31.949999999999992	0.0
C 	68.86634010893856	32.65999999999999	0.0
C 	70.09609618231245	31.94999999999999	0.0
C 	71.32585225568636	32.65999999999999	0.0
C 	72.55560832906026	31.949999999999996	0.0
C 	73.78536440243415	32.65999999999999	0.0
C 	75.01512047580806	31.949999999999992	0.0
C 	76.24487654918195	32.65999999999998	0.0
C 	77.47463262255587	31.949999999999985	0.0
C 	78.70438869592978	32.65999999999999	0.0
C 	19.676097173982445	34.07999999999999	0.0
C 	20.90585324735635	34.78999999999999	0.0
C 	22.135609320730254	34.07999999999999	0.0
C 	23.365365394104156	34.78999999999999	0.0
C 	24.595121467478055	34.07999999999999	0.0
C 	25.824877540851958	34.78999999999999	0.0
C 	27.054633614225864	34.07999999999999	0.0
C 	28.284389687599766	34.78999999999999	0.0
C 	29.514145760973665	34.07999999999999	0.0
C 	30.743901834347568	34.78999999999999	0.0
C 	31.97365790772147	34.07999999999999	0.0
C 	33.20341398109537	34.78999999999999	0.0
C 	34.43317005446928	34.07999999999999	0.0
C 	35.662926127843185	34.78999999999999	0.0
C 	36.89268220121708	34.07999999999999	0.0
C 	38.122438274590984	34.78999999999999	0.0
C 	39.35219434796489	34.07999999999999	0.0
C 	40.581950421338796	34.78999999999999	0.0
C 	41.811706494712695	34.07999999999999	0.0
C 	43.0414625680866	34.78999999999999	0.0
C 	44.2712186414605	34.07999999999999	0.0
C 	45.5009747148344	34.78999999999999	0.0
C 	46.730730788208305	34.07999999999999	0.0
C 	47.96048686158221	34.78999999999999	0.0
C 	49.19024293495611	34.07999999999999	0.0
C 	50.41999900833002	34.78999999999999	0.0
C 	51.649755081703915	34.07999999999999	0.0
C 	52.87951115507782	34.78999999999999	0.0
C 	54.10926722845172	34.07999999999999	0.0
C 	55.33902330182562	34.78999999999999	0.0
C 	56.56877937519953	34.07999999999999	0.0
C 	57.79853544857343	34.78999999999999	0.0
C 	59.02829152194733	34.07999999999999	0.0
C 	60.25804759532124	34.78999999999999	0.0
C 	61.487803668695136	34.07999999999999	0.0
C 	62.71755974206905	34.79	0.0
C 	63.947315815442934	34.079999999999984	0.0
C 	65.17707188881685	34.78999999999999	0.0
C 	66.40682796219075	34.07999999999999	0.0
C 	67.63658403556465	34.78999999999999	0.0
C 	68.86634010893854	34.07999999999999	0.0
C 	70.09609618231245	34.78999999999999	0.0
C 	71.32585225568636	34.07999999999999	0.0
C 	72.55560832906025	34.789999999999985	0.0
C 	73.78536440243417	34.07999999999999	0.0
C 	75.01512047580808	34.78999999999999	0.0
C 	76.24487654918197	34.07999999999999	0.0
C 	77.47463262255587	34.78999999999999	0.0
C 	78.70438869592977	34.079999999999984	0.0
C 	79.93414476930369	34.78999999999999	0.0
C 	20.90585324735635	36.209999999999994	0.0
C 	22.135609320730254	36.919999999999995	0.0
C 	23.36536539410416	36.209999999999994	0.0
C 	24.595121467478062	36.919999999999995	0.0
C 	25.82487754085196	36.209999999999994	0.0
C 	27.054633614225864	36.919999999999995	0.0
C 	28.284389687599766	36.209999999999994	0.0
C 	29.514145760973673	36.919999999999995	0.0
C 	30.743901834347575	36.209999999999994	0.0
C 	31.973657907721478	36.919999999999995	0.0
C 	33.20341398109537	36.209999999999994	0.0
C 	34.43317005446928	36.919999999999995	0.0
C 	35.662926127843185	36.209999999999994	0.0
C 	36.89268220121709	36.919999999999995	0.0
C 	38.12243827459099	36.209999999999994	0.0
C 	39.3521943479649	36.919999999999995	0.0
C 	40.581950421338796	36.209999999999994	0.0
C 	41.811706494712695	36.919999999999995	0.0
C 	43.041462568086594	36.209999999999994	0.0
C 	44.2712186414605	36.919999999999995	0.0
C 	45.500974714834406	36.209999999999994	0.0
C 	46.730730788208305	36.919999999999995	0.0
C 	47.96048686158221	36.209999999999994	0.0
C 	49.19024293495612	36.919999999999995	0.0
C 	50.41999900833002	36.20999999999999	0.0
C 	51.649755081703915	36.91999999999999	0.0
C 	52.87951115507782	36.209999999999994	0.0
C 	54.10926722845172	36.91999999999999	0.0
C 	55.33902330182563	36.209999999999994	0.0
C 	56.56877937519953	36.919999999999995	0.0
C 	57.79853544857343	36.20999999999999	0.0
C 	59.02829152194733	36.91999999999999	0.0
C 	60.25804759532123	36.20999999999999	0.0
C 	61.48780366869515	36.919999999999995	0.0
C 	62.71755974206904	36.209999999999994	0.0
C 	63.94731581544295	36.919999999999995	0.0
C 	65.17707188881684	36.209999999999994	0.0
C 	66.40682796219075	36.919999999999995	0.0
C 	67.63658403556467	36.209999999999994	0.0
C 	68.86634010893856	36.91999999999999	0.0
C 	70.09609618231246	36.209999999999994	0.0
C 	71.32585225568636	36.91999999999999	0.0
C 	72.55560832906026	36.209999999999994	0.0
C 	73.78536440243417	36.919999999999995	0.0
C 	75.01512047580806	36.20999999999999	0.0
C 	76.24487654918198	36.919999999999995	0.0
C 	77.47463262255586	36.20999999999999	0.0
C 	78.70438869592978	36.919999999999995	0.0
C 	79.93414476930369	36.20999999999999	0.0
C 	81.16390084267759	36.91999999999999	0.0
C 	22.13560932073025	38.33999999999999	0.0
C 	23.365365394104153	39.04999999999999	0.0
C 	24.59512146747806	38.33999999999999	0.0
C 	25.82487754085196	39.04999999999999	0.0
C 	27.05463361422586	38.33999999999999	0.0
C 	28.284389687599763	39.04999999999999	0.0
C 	29.514145760973665	38.33999999999999	0.0
C 	30.74390183434757	39.04999999999999	0.0
C 	31.973657907721474	38.339999999999996	0.0
C 	33.20341398109538	39.04999999999999	0.0
C 	34.43317005446927	38.33999999999999	0.0
C 	35.66292612784318	39.04999999999999	0.0
C 	36.892682201217085	38.33999999999999	0.0
C 	38.12243827459099	39.04999999999999	0.0
C 	39.35219434796489	38.33999999999999	0.0
C 	40.581950421338796	39.04999999999999	0.0
C 	41.811706494712695	38.33999999999999	0.0
C 	43.0414625680866	39.04999999999999	0.0
C 	44.27121864146049	38.33999999999999	0.0
C 	45.5009747148344	39.04999999999999	0.0
C 	46.730730788208305	38.33999999999999	0.0
C 	47.960486861582204	39.04999999999999	0.0
C 	49.19024293495611	38.33999999999999	0.0
C 	50.41999900833002	39.04999999999999	0.0
C 	51.649755081703915	38.33999999999999	0.0
C 	52.879511155077815	39.04999999999999	0.0
C 	54.10926722845173	38.33999999999999	0.0
C 	55.33902330182562	39.04999999999998	0.0
C 	56.568779375199526	38.33999999999999	0.0
C 	57.79853544857343	39.04999999999999	0.0
C 	59.02829152194733	38.33999999999999	0.0
C 	60.25804759532123	39.04999999999999	0.0
C 	61.48780366869513	38.33999999999998	0.0
C 	62.71755974206905	39.04999999999999	0.0
C 	63.94731581544294	38.33999999999999	0.0
C 	65.17707188881685	39.04999999999999	0.0
C 	66.40682796219075	38.33999999999999	0.0
C 	67.63658403556465	39.04999999999999	0.0
C 	68.86634010893856	38.33999999999999	0.0
C 	70.09609618231245	39.04999999999998	0.0
C 	71.32585225568636	38.33999999999999	0.0
C 	72.55560832906025	39.04999999999998	0.0
C 	73.78536440243415	38.33999999999999	0.0
C 	75.01512047580806	39.04999999999999	0.0
C 	76.24487654918197	38.33999999999999	0.0
C 	77.47463262255587	39.05	0.0
C 	78.70438869592977	38.33999999999998	0.0
C 	79.93414476930369	39.04999999999999	0.0
C 	81.16390084267758	38.33999999999998	0.0
C 	82.39365691605148	39.04999999999998	0.0
C 	23.365365394104156	40.46999999999999	0.0
C 	24.59512146747806	41.17999999999999	0.0
C 	25.82487754085196	40.46999999999999	0.0
C 	27.054633614225867	41.17999999999999	0.0
C 	28.284389687599763	40.46999999999999	0.0
C 	29.51414576097367	41.17999999999999	0.0
C 	30.74390183434757	40.46999999999999	0.0
C 	31.973657907721474	41.17999999999999	0.0
C 	33.20341398109537	40.46999999999999	0.0
C 	34.43317005446928	41.17999999999999	0.0
C 	35.66292612784318	40.46999999999999	0.0
C 	36.892682201217085	41.17999999999999	0.0
C 	38.12243827459099	40.46999999999999	0.0
C 	39.3521943479649	41.17999999999999	0.0
C 	40.58195042133879	40.46999999999999	0.0
C 	41.811706494712695	41.17999999999999	0.0
C 	43.0414625680866	40.46999999999999	0.0
C 	44.2712186414605	41.17999999999999	0.0
C 	45.500974714834406	40.46999999999999	0.0
C 	46.73073078820831	41.17999999999999	0.0
C 	47.960486861582204	40.46999999999999	0.0
C 	49.19024293495611	41.17999999999999	0.0
C 	50.41999900833002	40.46999999999999	0.0
C 	51.649755081703915	41.179999999999986	0.0
C 	52.87951115507782	40.46999999999999	0.0
C 	54.10926722845173	41.17999999999999	0.0
C 	55.33902330182563	40.46999999999999	0.0
C 	56.568779375199526	41.17999999999999	0.0
C 	57.798535448573425	40.469999999999985	0.0
C 	59.028291521947345	41.17999999999999	0.0
C 	60.25804759532124	40.46999999999999	0.0
C 	61.48780366869514	41.17999999999999	0.0
C 	62.71755974206904	40.46999999999999	0.0
C 	63.94731581544295	41.17999999999999	0.0
C 	65.17707188881685	40.46999999999999	0.0
C 	66.40682796219075	41.179999999999986	0.0
C 	67.63658403556465	40.46999999999999	0.0
C 	68.86634010893854	41.179999999999986	0.0
C 	70.09609618231246	40.46999999999999	0.0
C 	71.32585225568636	41.17999999999999	0.0
C 	72.55560832906026	40.469999999999985	0.0
C 	73.78536440243417	41.179999999999986	0.0
C 	75.01512047580806	40.469999999999985	0.0
C 	76.24487654918198	41.17999999999999	0.0
C 	77.47463262255587	40.46999999999999	0.0
C 	78.70438869592978	41.17999999999999	0.0
C 	79.93414476930367	40.469999999999985	0.0
C 	81.16390084267758	41.179999999999986	0.0
C 	82.3936569160515	40.46999999999999	0.0
C 	83.62341298942539	41.179999999999986	0.0
C 	24.595121467478055	42.59999999999999	0.0
C 	25.82487754085196	43.30999999999999	0.0
C 	27.05463361422586	42.59999999999999	0.0
C 	28.284389687599766	43.30999999999999	0.0
C 	29.514145760973662	42.59999999999999	0.0
C 	30.743901834347568	43.30999999999999	0.0
C 	31.97365790772147	42.59999999999999	0.0
C 	33.20341398109537	43.30999999999999	0.0
C 	34.43317005446927	42.59999999999999	0.0
C 	35.66292612784318	43.30999999999999	0.0
C 	36.89268220121708	42.59999999999999	0.0
C 	38.122438274590984	43.30999999999999	0.0
C 	39.35219434796489	42.59999999999999	0.0
C 	40.581950421338796	43.30999999999999	0.0
C 	41.81170649471269	42.59999999999999	0.0
C 	43.041462568086594	43.30999999999999	0.0
C 	44.2712186414605	42.59999999999999	0.0
C 	45.5009747148344	43.30999999999999	0.0
C 	46.730730788208305	42.59999999999999	0.0
C 	47.96048686158221	43.30999999999999	0.0
C 	49.19024293495611	42.59999999999999	0.0
C 	50.41999900833001	43.30999999999999	0.0
C 	51.64975508170392	42.599999999999994	0.0
C 	52.879511155077815	43.30999999999999	0.0
C 	54.10926722845172	42.59999999999999	0.0
C 	55.33902330182563	43.30999999999999	0.0
C 	56.568779375199526	42.59999999999999	0.0
C 	57.798535448573425	43.30999999999999	0.0
C 	59.028291521947324	42.59999999999998	0.0
C 	60.258047595321244	43.30999999999999	0.0
C 	61.487803668695136	42.59999999999999	0.0
C 	62.71755974206904	43.30999999999999	0.0
C 	63.94731581544294	42.59999999999999	0.0
C 	65.17707188881684	43.30999999999999	0.0
C 	66.40682796219076	42.599999999999994	0.0
C 	67.63658403556465	43.30999999999999	0.0
C 	68.86634010893856	42.59999999999999	0.0
C 	70.09609618231245	43.30999999999998	0.0
C 	71.32585225568636	42.59999999999999	0.0
C 	72.55560832906026	43.30999999999999	0.0
C 	73.78536440243415	42.59999999999999	0.0
C 	75.01512047580806	43.30999999999999	0.0
C 	76.24487654918197	42.59999999999998	0.0
C 	77.47463262255587	43.30999999999999	0.0
C 	78.70438869592978	42.59999999999999	0.0
C 	79.93414476930367	43.30999999999999	0.0
C 	81.16390084267758	42.59999999999999	0.0
C 	82.39365691605148	43.30999999999999	0.0
C 	83.62341298942539	42.59999999999999	0.0
C 	84.85316906279928	43.30999999999998	0.0
C 	25.82487754085196	44.72999999999999	0.0
C 	27.054633614225864	45.43999999999999	0.0
C 	28.284389687599766	44.72999999999999	0.0
C 	29.514145760973673	45.43999999999999	0.0
C 	30.743901834347568	44.72999999999999	0.0
C 	31.97365790772147	45.43999999999999	0.0
C 	33.20341398109537	44.72999999999999	0.0
C 	34.43317005446928	45.43999999999999	0.0
C 	35.662926127843185	44.72999999999999	0.0
C 	36.892682201217085	45.43999999999999	0.0
C 	38.122438274590984	44.72999999999999	0.0
C 	39.35219434796489	45.43999999999999	0.0
C 	40.581950421338796	44.72999999999999	0.0
C 	41.811706494712695	45.43999999999999	0.0
C 	43.0414625680866	44.72999999999999	0.0
C 	44.27121864146051	45.43999999999999	0.0
C 	45.500974714834406	44.72999999999999	0.0
C 	46.730730788208305	45.43999999999999	0.0
C 	47.960486861582204	44.72999999999999	0.0
C 	49.19024293495611	45.43999999999998	0.0
C 	50.41999900833002	44.72999999999999	0.0
C 	51.64975508170391	45.43999999999998	0.0
C 	52.87951115507782	44.72999999999999	0.0
C 	54.10926722845172	45.43999999999999	0.0
C 	55.33902330182562	44.72999999999998	0.0
C 	56.568779375199526	45.43999999999998	0.0
C 	57.798535448573425	44.72999999999998	0.0
C 	59.02829152194734	45.43999999999999	0.0
C 	60.25804759532124	44.72999999999999	0.0
C 	61.48780366869514	45.43999999999999	0.0
C 	62.717559742069035	44.72999999999998	0.0
C 	63.94731581544294	45.43999999999998	0.0
C 	65.17707188881685	44.72999999999999	0.0
C 	66.40682796219075	45.43999999999998	0.0
C 	67.63658403556465	44.72999999999999	0.0
C 	68.86634010893856	45.43999999999999	0.0
C 	70.09609618231245	44.72999999999999	0.0
C 	71.32585225568636	45.43999999999998	0.0
C 	72.55560832906026	44.72999999999998	0.0
C 	73.78536440243417	45.43999999999999	0.0
C 	75.01512047580806	44.72999999999998	0.0
C 	76.24487654918198	45.43999999999999	0.0
C 	77.47463262255587	44.72999999999999	0.0
C 	78.70438869592978	45.43999999999999	0.0
C 	79.93414476930369	44.72999999999999	0.0
C 	81.16390084267758	45.43999999999998	0.0
C 	82.39365691605148	44.72999999999999	0.0
C 	83.62341298942538	45.43999999999998	0.0
C 	84.8531690627993	44.72999999999998	0.0
C 	86.08292513617319	45.43999999999998	0.0
C 	27.054633614225864	46.85999999999999	0.0
C 	28.28438968759977	47.56999999999999	0.0
C 	29.514145760973673	46.85999999999999	0.0
C 	30.74390183434758	47.56999999999999	0.0
C 	31.973657907721474	46.85999999999999	0.0
C 	33.20341398109538	47.56999999999999	0.0
C 	34.43317005446928	46.85999999999999	0.0
C 	35.662926127843185	47.56999999999999	0.0
C 	36.892682201217085	46.85999999999999	0.0
C 	38.122438274590984	47.56999999999999	0.0
C 	39.35219434796489	46.85999999999999	0.0
C 	40.581950421338796	47.56999999999999	0.0
C 	41.8117064947127	46.85999999999999	0.0
C 	43.0414625680866	47.56999999999999	0.0
C 	44.2712186414605	46.85999999999999	0.0
C 	45.500974714834406	47.56999999999999	0.0
C 	46.73073078820831	46.859999999999985	0.0
C 	47.960486861582204	47.569999999999986	0.0
C 	49.19024293495612	46.85999999999999	0.0
C 	50.41999900833002	47.56999999999999	0.0
C 	51.649755081703915	46.859999999999985	0.0
C 	52.87951115507782	47.569999999999986	0.0
C 	54.10926722845172	46.859999999999985	0.0
C 	55.339023301825634	47.56999999999999	0.0
C 	56.56877937519953	46.85999999999999	0.0
C 	57.79853544857344	47.56999999999999	0.0
C 	59.02829152194733	46.859999999999985	0.0
C 	60.25804759532124	47.569999999999986	0.0
C 	61.48780366869515	46.85999999999999	0.0
C 	62.71755974206904	47.569999999999986	0.0
C 	63.94731581544295	46.85999999999999	0.0
C 	65.17707188881685	47.56999999999999	0.0
C 	66.40682796219075	46.859999999999985	0.0
C 	67.63658403556465	47.569999999999986	0.0
C 	68.86634010893856	46.859999999999985	0.0
C 	70.09609618231246	47.56999999999999	0.0
C 	71.32585225568636	46.859999999999985	0.0
C 	72.55560832906028	47.56999999999999	0.0
C 	73.78536440243417	46.859999999999985	0.0
C 	75.01512047580808	47.569999999999986	0.0
C 	76.24487654918197	46.859999999999985	0.0
C 	77.47463262255587	47.569999999999986	0.0
C 	78.70438869592978	46.85999999999999	0.0
C 	79.93414476930367	47.569999999999986	0.0
C 	81.16390084267758	46.85999999999999	0.0
C 	82.39365691605148	47.56999999999999	0.0
C 	83.62341298942539	46.859999999999985	0.0
C 	84.8531690627993	47.569999999999986	0.0
C 	86.08292513617319	46.85999999999998	0.0
C 	87.31268120954711	47.569999999999986	0.0
C 	28.284389687599763	48.98999999999999	0.0
C 	29.51414576097367	49.69999999999999	0.0
C 	30.74390183434757	48.98999999999999	0.0
C 	31.973657907721478	49.69999999999999	0.0
C 	33.20341398109537	48.98999999999999	0.0
C 	34.43317005446928	49.69999999999999	0.0
C 	35.66292612784318	48.98999999999999	0.0
C 	36.892682201217085	49.69999999999999	0.0
C 	38.122438274590984	48.98999999999999	0.0
C 	39.35219434796488	49.69999999999999	0.0
C 	40.58195042133879	48.98999999999999	0.0
C 	41.811706494712695	49.69999999999999	0.0
C 	43.041462568086594	48.98999999999999	0.0
C 	44.2712186414605	49.69999999999999	0.0
C 	45.5009747148344	48.98999999999999	0.0
C 	46.730730788208305	49.69999999999998	0.0
C 	47.96048686158221	48.98999999999999	0.0
C 	49.1902429349561	49.69999999999998	0.0
C 	50.41999900833002	48.98999999999999	0.0
C 	51.64975508170392	49.69999999999999	0.0
C 	52.879511155077815	48.98999999999999	0.0
C 	54.10926722845172	49.69999999999999	0.0
C 	55.33902330182562	48.98999999999998	0.0
C 	56.56877937519953	49.69999999999999	0.0
C 	57.79853544857343	48.98999999999999	0.0
C 	59.02829152194734	49.69999999999999	0.0
C 	60.25804759532124	48.98999999999999	0.0
C 	61.487803668695136	49.69999999999999	0.0
C 	62.71755974206905	48.98999999999999	0.0
C 	63.94731581544294	49.69999999999998	0.0
C 	65.17707188881685	48.98999999999999	0.0
C 	66.40682796219075	49.69999999999999	0.0
C 	67.63658403556465	48.98999999999999	0.0
C 	68.86634010893856	49.69999999999999	0.0
C 	70.09609618231245	48.98999999999998	0.0
C 	71.32585225568637	49.69999999999999	0.0
C 	72.55560832906025	48.98999999999998	0.0
C 	73.78536440243417	49.69999999999999	0.0
C 	75.01512047580806	48.98999999999999	0.0
C 	76.24487654918197	49.69999999999999	0.0
C 	77.47463262255587	48.98999999999998	0.0
C 	78.70438869592978	49.69999999999998	0.0
C 	79.93414476930369	48.98999999999999	0.0
C 	81.16390084267758	49.69999999999998	0.0
C 	82.39365691605148	48.98999999999999	0.0
C 	83.62341298942539	49.69999999999999	0.0
C 	84.85316906279928	48.98999999999998	0.0
C 	86.08292513617319	49.69999999999998	0.0
C 	87.3126812095471	48.98999999999998	0.0
C 	88.542437282921	49.69999999999999	0.0
C 	29.51414576097367	51.11999999999999	0.0
C 	30.74390183434757	51.82999999999999	0.0
C 	31.973657907721474	51.11999999999999	0.0
C 	33.20341398109538	51.82999999999999	0.0
C 	34.43317005446928	51.11999999999999	0.0
C 	35.66292612784318	51.82999999999999	0.0
C 	36.892682201217085	51.11999999999999	0.0
C 	38.12243827459099	51.82999999999999	0.0
C 	39.35219434796489	51.12	0.0
C 	40.581950421338796	51.83	0.0
C 	41.811706494712695	51.11999999999999	0.0
C 	43.041462568086594	51.82999999999999	0.0
C 	44.2712186414605	51.12	0.0
C 	45.5009747148344	51.82999999999999	0.0
C 	46.73073078820831	51.11999999999999	0.0
C 	47.96048686158221	51.82999999999999	0.0
C 	49.19024293495611	51.11999999999999	0.0
C 	50.41999900833002	51.82999999999999	0.0
C 	51.649755081703915	51.11999999999998	0.0
C 	52.879511155077815	51.829999999999984	0.0
C 	54.10926722845171	51.11999999999999	0.0
C 	55.33902330182563	51.83	0.0
C 	56.568779375199526	51.11999999999999	0.0
C 	57.79853544857343	51.82999999999999	0.0
C 	59.02829152194733	51.11999999999999	0.0
C 	60.25804759532124	51.82999999999999	0.0
C 	61.48780366869514	51.11999999999999	0.0
C 	62.717559742069035	51.829999999999984	0.0
C 	63.94731581544295	51.11999999999999	0.0
C 	65.17707188881685	51.82999999999999	0.0
C 	66.40682796219075	51.11999999999999	0.0
C 	67.63658403556465	51.82999999999999	0.0
C 	68.86634010893854	51.11999999999998	0.0
C 	70.09609618231246	51.82999999999999	0.0
C 	71.32585225568636	51.11999999999999	0.0
C 	72.55560832906026	51.82999999999999	0.0
C 	73.78536440243417	51.11999999999999	0.0
C 	75.01512047580806	51.82999999999999	0.0
C 	76.24487654918198	51.11999999999999	0.0
C 	77.47463262255587	51.829999999999984	0.0
C 	78.70438869592978	51.11999999999999	0.0
C 	79.93414476930367	51.829999999999984	0.0
C 	81.16390084267758	51.11999999999999	0.0
C 	82.39365691605148	51.82999999999999	0.0
C 	83.62341298942538	51.11999999999998	0.0
C 	84.8531690627993	51.82999999999999	0.0
C 	86.08292513617319	51.11999999999998	0.0
C 	87.3126812095471	51.82999999999999	0.0
C 	88.542437282921	51.11999999999998	0.0
C 	89.7721933562949	51.829999999999984	0.0
C 	53.450229796205086	-0.558332099085496	2.15
C 	54.77591400183112	-0.049449610731169366	2.15
C 	54.99805094218824	1.3530678329139278	2.15
C 	51.02099832531015	-0.17357963214905114	2.15
C 	52.346682530936185	0.33530285620526756	2.15
C 	52.56881947129331	1.7378202998503647	2.15
C 	53.89450367691934	2.2467027882046913	2.15
C 	54.116640617276474	3.6492202318497884	2.15
C 	55.4423248229025	4.158102720204115	2.15
C 	55.66446176325963	5.5606201638492125	2.15
C 	56.99014596888565	6.069502652203534	2.15
C 	57.21228290924278	7.472020095848631	2.15
C 	58.537967114868806	7.980902584202959	2.15
C 	58.76010405522593	9.383420027848056	2.15
C 	60.08578826085196	9.892302516202383	2.15
C 	60.307925201209095	11.29481995984748	2.15
C 	61.633609406835106	11.8037024482018	2.15
C 	61.85574634719224	13.206219891846898	2.15
C 	48.59176685441524	0.21117283478739013	2.15
C 	49.917451060041266	0.7200553231417185	2.15
C 	50.13958800039839	2.1225727667868157	2.15
C 	51.46527220602441	2.631455255141136	2.15
C 	51.68740914638154	4.033972698786234	2.15
C 	53.013093352007566	4.542855187140559	2.15
C 	53.2352302923647	5.9453726307856565	2.15
C 	54.56091449799073	6.454255119139983	2.15
C 	54.783051438347854	7.85677256278508	2.15
C 	56.10873564397389	8.365655051139399	2.15
C 	56.33087258433101	9.768172494784496	2.15
C 	57.65655678995703	10.277054983138827	2.15
C 	57.87869373031416	11.679572426783924	2.15
C 	59.20437793594019	12.188454915138252	2.15
C 	59.42651487629732	13.590972358783349	2.15
C 	60.752199081923344	14.099854847137667	2.15
C 	60.974336022280475	15.502372290782764	2.15
C 	62.3000202279065	16.01125477913709	2.15
C 	62.522157168263625	17.41377222278219	2.15
C 	63.84784137388964	17.922654711136516	2.15
C 	64.06997831424677	19.325172154781615	2.15
C 	65.3956625198728	19.834054643135932	2.15
C 	65.61779946022993	21.23657208678103	2.15
C 	66.94348366585596	21.74545457513535	2.15
C 	67.16562060621308	23.147972018780447	2.15
C 	68.49130481183911	23.65685450713478	2.15
C 	68.71344175219625	25.059371950779877	2.15
C 	46.16253538352031	0.5959253017238271	2.15
C 	47.48821958914634	1.1048077900781537	2.15
C 	47.710356529503464	2.507325233723251	2.15
C 	49.0360407351295	3.0162077220775774	2.15
C 	49.25817767548663	4.418725165722675	2.15
C 	50.58386188111265	4.927607654076996	2.15
C 	50.80599882146978	6.330125097722093	2.15
C 	52.1316830270958	6.83900758607642	2.15
C 	52.35381996745293	8.241525029721517	2.15
C 	53.67950417307895	8.750407518075843	2.15
C 	53.90164111343608	10.15292496172094	2.15
C 	55.22732531906211	10.66180745007526	2.15
C 	55.449462259419235	12.064324893720357	2.15
C 	56.77514646504526	12.573207382074687	2.15
C 	56.99728340540239	13.975724825719784	2.15
C 	58.32296761102842	14.48460731407411	2.15
C 	58.54510455138555	15.887124757719207	2.15
C 	59.870788757011574	16.396007246073527	2.15
C 	60.0929256973687	17.798524689718626	2.15
C 	61.41860990299473	18.307407178072953	2.15
C 	61.640746843351856	19.70992462171805	2.15
C 	62.966431048977874	20.218807110072376	2.15
C 	63.188567989335006	21.62132455371747	2.15
C 	64.51425219496103	22.130207042071792	2.15
C 	64.73638913531816	23.53272448571689	2.15
C 	66.0620733409442	24.041606974071208	2.15
C 	66.28421028130131	25.444124417716306	2.15
C 	67.60989448692735	25.95300690607064	2.15
C 	67.83203142728448	27.35552434971574	2.15
C 	69.1577156329105	27.86440683807006	2.15
C 	69.37985257326763	29.266924281715156	2.15
C 	70.70553677889365	29.775806770069476	2.15
C 	70.92767371925076	31.178324213714575	2.15
C 	72.25335792487681	31.687206702068906	2.15
C 	72.47549486523394	33.089724145714	2.15
C 	73.80117907085996	33.598606634068325	2.15
C 	74.02331601121709	35.00112407771342	2.15
C 	75.34900021684311	35.510006566067744	2.15
C 	75.57113715720024	36.91252400971284	2.15
C 	42.18548276664223	-0.9307221633391476	2.15
C 	43.51116697226826	-0.42183967498482094	2.15
C 	43.73330391262539	0.9806777686602762	2.15
C 	45.05898811825141	1.4895602570145967	2.15
C 	45.28112505860854	2.892077700659694	2.15
C 	46.60680926423456	3.4009601890140213	2.15
C 	46.828946204591695	4.803477632659119	2.15
C 	48.15463041021772	5.3123601210134455	2.15
C 	48.37676735057485	6.714877564658543	2.15
C 	49.70245155620088	7.223760053012862	2.15
C 	49.92458849655801	8.62627749665796	2.15
C 	51.25027270218404	9.135159985012285	2.15
C 	51.472409642541166	10.537677428657382	2.15
C 	52.798093848167184	11.046559917011711	2.15
C 	53.020230788524316	12.449077360656808	2.15
C 	54.345914994150334	12.957959849011129	2.15
C 	54.568051934507466	14.360477292656226	2.15
C 	55.89373614013349	14.869359781010552	2.15
C 	56.11587308049062	16.27187722465565	2.15
C 	57.441557286116655	16.780759713009974	2.15
C 	57.66369422647378	18.183277156655073	2.15
C 	58.9893784320998	18.692159645009397	2.15
C 	59.21151537245692	20.094677088654493	2.15
C 	60.537199578082955	20.60355957700882	2.15
C 	60.75933651844009	22.006077020653915	2.15
C 	62.08502072406611	22.514959509008243	2.15
C 	62.307157664423244	23.91747695265334	2.15
C 	63.63284187004926	24.42635944100766	2.15
C 	63.854978810406394	25.828876884652757	2.15
C 	65.18066301603243	26.337759373007078	2.15
C 	65.40279995638956	27.740276816652173	2.15
C 	66.72848416201558	28.249159305006508	2.15
C 	66.9506211023727	29.651676748651607	2.15
C 	68.27630530799873	30.160559237005927	2.15
C 	68.49844224835586	31.563076680651022	2.15
C 	69.82412645398189	32.071959169005346	2.15
C 	70.04626339433901	33.47447661265044	2.15
C 	71.37194759996504	33.98335910100477	2.15
C 	71.59408454032217	35.38587654464987	2.15
C 	72.91976874594818	35.89475903300419	2.15
C 	73.14190568630531	37.29727647664929	2.15
C 	74.46758989193134	37.80615896500361	2.15
C 	74.68972683228847	39.20867640864871	2.15
C 	39.75625129574731	-0.5459696964027045	2.15
C 	41.08193550137334	-0.03708720804838051	2.15
C 	41.30407244173046	1.3654302355967132	2.15
C 	42.62975664735649	1.8743127239510433	2.15
C 	42.85189358771361	3.276830167596137	2.15
C 	44.177577793339644	3.78571265595046	2.15
C 	44.39971473369677	5.188230099595554	2.15
C 	45.725398939322794	5.697112587949885	2.15
C 	45.947535879679926	7.0996300315949785	2.15
C 	47.27322008530595	7.6085125199493095	2.15
C 	47.495357025663075	9.011029963594403	2.15
C 	48.82104123128911	9.519912451948725	2.15
C 	49.04317817164623	10.92242989559382	2.15
C 	50.368862377272265	11.43131238394815	2.15
C 	50.59099931762939	12.833829827593243	2.15
C 	51.91668352325542	13.342712315947574	2.15
C 	52.138820463612554	14.745229759592668	2.15
C 	53.464504669238565	15.254112247946992	2.15
C 	53.686641609595696	16.656629691592087	2.15
C 	55.01232581522172	17.165512179946415	2.15
C 	55.234462755578846	18.56802962359151	2.15
C 	56.56014696120488	19.07691211194584	2.15
C 	56.782283901562	20.479429555590933	2.15
C 	58.10796810718803	20.988312043945257	2.15
C 	58.33010504754515	22.390829487590352	2.15
C 	59.655789253171186	22.899711975944683	2.15
C 	59.87792619352832	24.302229419589775	2.15
C 	61.203610399154336	24.811111907944102	2.15
C 	61.42574733951147	26.2136293515892	2.15
C 	62.7514315451375	26.72251183994352	2.15
C 	62.973568485494624	28.125029283588617	2.15
C 	64.29925269112064	28.633911771942937	2.15
C 	64.52138963147777	30.036429215588036	2.15
C 	65.8470738371038	30.545311703942367	2.15
C 	66.06921077746092	31.947829147587466	2.15
C 	67.39489498308696	32.45671163594179	2.15
C 	67.61703192344409	33.85922907958688	2.15
C 	68.9427161290701	34.368111567941206	2.15
C 	69.16485306942724	35.7706290115863	2.15
C 	70.49053727505327	36.27951149994063	2.15
C 	70.7126742154104	37.682028943585735	2.15
C 	72.0383584210364	38.19091143194005	2.15
C 	72.26049536139354	39.59342887558515	2.15
C 	73.58617956701958	40.10231136393947	2.15
C 	73.8083165073767	41.504828807584566	2.15
C 	37.327019824852385	-0.16121722946626235	2.15
C 	38.65270403047842	0.34766525888806427	2.15
C 	38.87484097083554	1.7501827025331613	2.15
C 	40.20052517646157	2.259065190887483	2.15
C 	40.42266211681869	3.66158263453258	2.15
C 	41.74834632244472	4.170465122886908	2.15
C 	41.97048326280185	5.572982566532005	2.15
C 	43.29616746842787	6.0818650548863245	2.15
C 	43.518304408785	7.484382498531422	2.15
C 	44.843988614411025	7.993264986885748	2.15
C 	45.066125554768156	9.395782430530845	2.15
C 	46.39180976039418	9.904664918885173	2.15
C 	46.613946700751306	11.30718236253027	2.15
C 	47.93963090637733	11.81606485088459	2.15
C 	48.161767846734456	13.218582294529687	2.15
C 	49.48745205236049	13.727464782884015	2.15
C 	49.70958899271762	15.129982226529112	2.15
C 	51.035273198343646	15.638864714883438	2.15
C 	51.25741013870078	17.041382158528535	2.15
C 	52.58309434432681	17.550264646882855	2.15
C 	52.805231284683934	18.95278209052795	2.15
C 	54.130915490309945	19.46166457888228	2.15
C 	54.35305243066707	20.864182022527377	2.15
C 	55.6787366362931	21.373064510881704	2.15
C 	55.900873576650234	22.7755819545268	2.15
C 	57.22655778227626	23.28446444288112	2.15
C 	57.44869472263339	24.68698188652622	2.15
C 	58.77437892825942	25.195864374880543	2.15
C 	58.99651586861655	26.59838181852564	2.15
C 	60.322200074242566	27.107264306879973	2.15
C 	60.54433701459969	28.509781750525068	2.15
C 	61.87002122022572	29.01866423887939	2.15
C 	62.09215816058285	30.421181682524487	2.15
C 	63.41784236620888	30.930064170878804	2.15
C 	63.63997930656601	32.3325816145239	2.15
C 	64.96566351219204	32.841464102878234	2.15
C 	65.18780045254915	34.24398154652334	2.15
C 	66.51348465817519	34.75286403487765	2.15
C 	66.73562159853232	36.15538147852275	2.15
C 	68.06130580415834	36.66426396687707	2.15
C 	68.28344274451547	38.06678141052217	2.15
C 	69.6091269501415	38.5756638988765	2.15
C 	69.83126389049862	39.9781813425216	2.15
C 	71.15694809612465	40.48706383087592	2.15
C 	71.37908503648178	41.889581274521014	2.15
C 	72.7047692421078	42.39846376287534	2.15
C 	72.92690618246493	43.80098120652043	2.15
C 	34.89778835395746	0.22353523747018422	2.15
C 	36.223472559583485	0.7324177258245083	2.15
C 	36.44560949994061	2.1349351694696055	2.15
C 	37.77129370556664	2.643817657823932	2.15
C 	37.993430645923766	4.046335101469029	2.15
C 	39.3191148515498	4.555217589823349	2.15
C 	39.54125179190693	5.957735033468446	2.15
C 	40.86693599753295	6.466617521822775	2.15
C 	41.08907293789008	7.869134965467872	2.15
C 	42.4147571435161	8.378017453822192	2.15
C 	42.63689408387323	9.78053489746729	2.15
C 	43.962578289499255	10.289417385821615	2.15
C 	44.18471522985638	11.691934829466712	2.15
C 	45.51039943548241	12.20081731782104	2.15
C 	45.732536375839544	13.603334761466137	2.15
C 	47.05822058146556	14.112217249820457	2.15
C 	47.280357521822694	15.514734693465554	2.15
C 	48.60604172744872	16.02361718181988	2.15
C 	48.82817866780585	17.42613462546498	2.15
C 	50.153862873431876	17.935017113819306	2.15
C 	50.375999813789	19.3375345574644	2.15
C 	51.70168401941503	19.846417045818722	2.15
C 	51.92382095977216	21.24893448946382	2.15
C 	53.24950516539818	21.75781697781815	2.15
C 	53.471642105755315	23.160334421463244	2.15
C 	54.79732631138133	23.66921690981757	2.15
C 	55.019463251738465	25.07173435346267	2.15
C 	56.34514745736448	25.580616841816987	2.15
C 	56.567284397721615	26.983134285462086	2.15
C 	57.89296860334765	27.492016773816413	2.15
C 	58.11510554370477	28.89453421746151	2.15
C 	59.4407897493308	29.403416705815836	2.15
C 	59.66292668968793	30.805934149460935	2.15
C 	60.988610895313954	31.314816637815255	2.15
C 	61.210747835671086	32.71733408146035	2.15
C 	62.53643204129711	33.226216569814675	2.15
C 	62.75856898165424	34.62873401345977	2.15
C 	64.08425318728027	35.1376165018141	2.15
C 	64.3063901276374	36.5401339454592	2.15
C 	65.63207433326342	37.04901643381352	2.15
C 	65.85421127362055	38.451533877458616	2.15
C 	67.17989547924657	38.96041636581294	2.15
C 	67.4020324196037	40.362933809458035	2.15
C 	68.72771662522973	40.871816297812366	2.15
C 	68.94985356558685	42.27433374145747	2.15
C 	70.27553777121288	42.783216229811785	2.15
C 	70.49767471157001	44.18573367345688	2.15
C 	71.82335891719603	44.694616161811204	2.15
C 	32.46855688306253	0.6082877044066237	2.15
C 	33.794241088688565	1.1171701927609503	2.15
C 	34.01637802904569	2.519687636406044	2.15
C 	35.342062234671715	3.0285701247603716	2.15
C 	35.56419917502884	4.431087568405466	2.15
C 	36.889883380654865	4.939970056759797	2.15
C 	37.112020321012	6.34248750040489	2.15
C 	38.43770452663802	6.851369988759213	2.15
C 	38.659841466995154	8.253887432404307	2.15
C 	39.985525672621186	8.762769920758636	2.15
C 	40.20766261297831	10.16528736440373	2.15
C 	41.533346818604336	10.674169852758055	2.15
C 	41.75548375896146	12.076687296403149	2.15
C 	43.081167964587486	12.58556978475748	2.15
C 	43.30330490494461	13.988087228402573	2.15
C 	44.628989110570636	14.496969716756904	2.15
C 	44.85112605092777	15.899487160401998	2.15
C 	46.17681025655379	16.40836964875632	2.15
C 	46.398947196910925	17.810887092401416	2.15
C 	47.72463140253696	18.319769580755743	2.15
C 	47.94676834289408	19.72228702440084	2.15
C 	49.27245254852011	20.23116951275517	2.15
C 	49.49458948887723	21.63368695640026	2.15
C 	50.82027369450326	22.142569444754585	2.15
C 	51.04241063486038	23.54508688839968	2.15
C 	52.368094840486414	24.05396937675401	2.15
C 	52.590231780843546	25.456486820399103	2.15
C 	53.91591598646957	25.96536930875343	2.15
C 	54.1380529268267	27.367886752398526	2.15
C 	55.463737132452714	27.87676924075285	2.15
C 	55.68587407280984	29.279286684397945	2.15
C 	57.01155827843587	29.78816917275228	2.15
C 	57.233695218792995	31.19068661639737	2.15
C 	58.55937942441903	31.699569104751696	2.15
C 	58.78151636477616	33.10208654839679	2.15
C 	60.107200570402185	33.610969036751115	2.15
C 	60.329337510759316	35.01348648039621	2.15
C 	61.65502171638534	35.52236896875053	2.15
C 	61.87715865674247	36.92488641239563	2.15
C 	63.20284286236849	37.43376890074997	2.15
C 	63.424979802725616	38.83628634439506	2.15
C 	64.75066400835165	39.34516883274938	2.15
C 	64.97280094870878	40.747686276394475	2.15
C 	66.2984851543348	41.2565687647488	2.15
C 	66.52062209469193	42.659086208393894	2.15
C 	67.84630630031796	43.167968696748225	2.15
C 	68.0684432406751	44.57048614039333	2.15
C 	69.3941274463011	45.079368628747645	2.15
C 	28.491504266184453	-0.9183597606563535	2.15
C 	29.817188471810482	-0.40947727230203035	2.15
C 	30.03932541216761	0.9930401713430668	2.15
C 	31.365009617793632	1.5019226596973942	2.15
C 	31.58714655815076	2.9044401033424916	2.15
C 	32.91283076377679	3.4133225916968146	2.15
C 	33.13496770413392	4.815840035341911	2.15
C 	34.46065190975994	5.324722523696236	2.15
C 	34.68278885011707	6.727239967341333	2.15
C 	36.008473055743096	7.23612245569566	2.15
C 	36.23060999610023	8.638639899340756	2.15
C 	37.556294201726246	9.147522387695076	2.15
C 	37.77843114208338	10.550039831340174	2.15
C 	39.10411534770941	11.058922319694501	2.15
C 	39.326252288066534	12.461439763339598	2.15
C 	40.65193649369256	12.97032225169392	2.15
C 	40.874073434049684	14.372839695339017	2.15
C 	42.19975763967572	14.881722183693343	2.15
C 	42.42189458003285	16.28423962733844	2.15
C 	43.74757878565887	16.793122115692768	2.15
C 	43.969715726016	18.195639559337867	2.15
C 	45.295399931642024	18.704522047692183	2.15
C 	45.51753687199915	20.107039491337282	2.15
C 	46.84322107762518	20.61592197969161	2.15
C 	47.065358017982305	22.018439423336705	2.15
C 	48.39104222360833	22.527321911691033	2.15
C 	48.61317916396546	23.92983935533613	2.15
C 	49.93886336959149	24.43872184369045	2.15
C 	50.16100030994862	25.841239287335547	2.15
C 	51.48668451557464	26.350121775689875	2.15
C 	51.70882145593177	27.75263921933497	2.15
C 	53.0345056615578	28.261521707689298	2.15
C 	53.256642601914926	29.664039151334396	2.15
C 	54.58232680754095	30.172921639688717	2.15
C 	54.804463747898076	31.575439083333816	2.15
C 	56.1301479535241	32.08432157168814	2.15
C 	56.35228489388123	33.48683901533324	2.15
C 	57.67796909950725	33.99572150368756	2.15
C 	57.90010603986438	35.398238947332665	2.15
C 	59.225790245490415	35.90712143568698	2.15
C 	59.44792718584754	37.30963887933208	2.15
C 	60.77361139147357	37.8185213676864	2.15
C 	60.9957483318307	39.221038811331496	2.15
C 	62.32143253745672	39.72992129968583	2.15
C 	62.543569477813854	41.13243874333093	2.15
C 	63.86925368343988	41.64132123168525	2.15
C 	64.09139062379701	43.04383867533034	2.15
C 	65.41707482942303	43.552721163684666	2.15
C 	65.63921176978016	44.95523860732976	2.15
C 	66.96489597540618	45.4641210956841	2.15
C 	26.06227279528953	-0.5336072937199078	2.15
C 	27.38795700091556	-0.024724805365584683	2.15
C 	27.610093941272687	1.3777926382795125	2.15
C 	28.93577814689871	1.8866751266338373	2.15
C 	29.157915087255837	3.2891925702789346	2.15
C 	30.483599292881866	3.7980750586332612	2.15
C 	30.705736233238994	5.200592502278358	2.15
C 	32.03142043886502	5.709474990632683	2.15
C 	32.253557379222144	7.11199243427778	2.15
C 	33.57924158484818	7.620874922632103	2.15
C 	33.8013785252053	9.0233923662772	2.15
C 	35.12706273083133	9.532274854631527	2.15
C 	35.34919967118845	10.934792298276625	2.15
C 	36.674883876814484	11.443674786630943	2.15
C 	36.89702081717161	12.84619223027604	2.15
C 	38.22270502279763	13.355074718630368	2.15
C 	38.444841963154765	14.757592162275467	2.15
C 	39.77052616878079	15.266474650629785	2.15
C 	39.99266310913792	16.668992094274884	2.15
C 	41.31834731476394	17.17787458262921	2.15
C 	41.54048425512107	18.580392026274307	2.15
C 	42.866168460747105	19.089274514628634	2.15
C 	43.08830540110423	20.491791958273733	2.15
C 	44.413989606730254	21.000674446628054	2.15
C 	44.63612654708738	22.40319189027315	2.15
C 	45.961810752713404	22.912074378627477	2.15
C 	46.183947693070536	24.314591822272572	2.15
C 	47.50963189869656	24.8234743106269	2.15
C 	47.73176883905369	26.225991754272	2.15
C 	49.05745304467971	26.73487424262632	2.15
C 	49.27958998503684	28.137391686271414	2.15
C 	50.60527419066287	28.64627417462574	2.15
C 	50.82741113101999	30.04879161827084	2.15
C 	52.153095336646025	30.557674106625164	2.15
C 	52.37523227700316	31.960191550270263	2.15
C 	53.700916482629175	32.46907403862458	2.15
C 	53.92305342298631	33.87159148226968	2.15
C 	55.24873762861233	34.38047397062401	2.15
C 	55.470874568969464	35.782991414269105	2.15
C 	56.79655877459548	36.291873902623436	2.15
C 	57.01869571495261	37.69439134626853	2.15
C 	58.34437992057864	38.20327383462285	2.15
C 	58.566516860935764	39.605791278267944	2.15
C 	59.892201066561796	40.11467376662227	2.15
C 	60.11433800691892	41.51719121026736	2.15
C 	61.440022212544946	42.0260736986217	2.15
C 	61.66215915290208	43.4285911422668	2.15
C 	62.98784335852811	43.93747363062111	2.15
C 	63.209980298885235	45.33999107426621	2.15
C 	64.53566450451126	45.84887356262053	2.15
C 	23.633041324394604	-0.14885482678347176	2.15
C 	24.958725530020633	0.36002766157085925	2.15
C 	25.18086247037776	1.7625451052159529	2.15
C 	26.506546676003783	2.2714275935702797	2.15
C 	26.72868361636091	3.6739450372153732	2.15
C 	28.054367821986943	4.182827525569699	2.15
C 	28.27650476234407	5.585344969214794	2.15
C 	29.602188967970093	6.094227457569126	2.15
C 	29.82432590832722	7.496744901214219	2.15
C 	31.15001011395325	8.005627389568545	2.15
C 	31.37214705431038	9.408144833213639	2.15
C 	32.6978312599364	9.917027321567966	2.15
C 	32.919968200293525	11.31954476521306	2.15
C 	34.24565240591956	11.82842725356739	2.15
C 	34.46778934627669	13.230944697212484	2.15
C 	35.79347355190271	13.739827185566808	2.15
C 	36.01561049225983	15.142344629211902	2.15
C 	37.341294697885864	15.651227117566233	2.15
C 	37.563431638242996	17.053744561211325	2.15
C 	38.889115843869014	17.56262704956565	2.15
C 	39.111252784226146	18.965144493210744	2.15
C 	40.43693698985218	19.474026981565075	2.15
C 	40.6590739302093	20.876544425210167	2.15
C 	41.98475813583533	21.385426913564498	2.15
C 	42.20689507619245	22.787944357209593	2.15
C 	43.532579281818485	23.296826845563917	2.15
C 	43.75471622217561	24.69934428920901	2.15
C 	45.08040042780164	25.20822677756334	2.15
C 	45.302537368158774	26.61074422120843	2.15
C 	46.628221573784785	27.11962670956276	2.15
C 	46.85035851414192	28.522144153207858	2.15
C 	48.17604271976795	29.03102664156218	2.15
C 	48.398179660125074	30.433544085207274	2.15
C 	49.7238638657511	30.942426573561608	2.15
C 	49.94600080610822	32.3449440172067	2.15
C 	51.271685011734256	32.853826505561024	2.15
C 	51.49382195209139	34.256343949206126	2.15
C 	52.819506157717406	34.76522643756044	2.15
C 	53.04164309807454	36.16774388120554	2.15
C 	54.36732730370057	36.67662636955988	2.15
C 	54.589464244057694	38.079143813204965	2.15
C 	55.91514844968372	38.588026301559296	2.15
C 	56.137285390040844	39.99054374520439	2.15
C 	57.46296959566687	40.49942623355871	2.15
C 	57.685106536023994	41.9019436772038	2.15
C 	59.01079074165003	42.41082616555813	2.15
C 	59.23292768200716	43.81334360920322	2.15
C 	60.558611887633184	44.322226097557554	2.15
C 	60.78074882799031	45.724743541202656	2.15
C 	62.10643303361634	46.23362602955697	2.15
C 	21.203809853499678	0.23589764015297304	2.15
C 	22.529494059125707	0.7447801285072984	2.15
C 	22.751630999482835	2.147297572152394	2.15
C 	24.07731520510886	2.6561800605067227	2.15
C 	24.299452145465988	4.058697504151818	2.15
C 	25.62513635109202	4.567579992506142	2.15
C 	25.84727329144915	5.970097436151239	2.15
C 	27.172957497075167	6.478979924505564	2.15
C 	27.395094437432295	7.88149736815066	2.15
C 	28.720778643058328	8.390379856504987	2.15
C 	28.942915583415456	9.792897300150083	2.15
C 	30.268599789041478	10.30177978850441	2.15
C 	30.490736729398606	11.704297232149504	2.15
C 	31.81642093502463	12.21317972050383	2.15
C 	32.03855787538176	13.615697164148926	2.15
C 	33.36424208100779	14.124579652503254	2.15
C 	33.58637902136491	15.527097096148353	2.15
C 	34.912063226990945	16.035979584502673	2.15
C 	35.13420016734807	17.43849702814777	2.15
C 	36.45988437297409	17.947379516502096	2.15
C 	36.68202131333122	19.349896960147195	2.15
C 	38.00770551895725	19.85877944850151	2.15
C 	38.229842459314376	21.26129689214661	2.15
C 	39.5555266649404	21.770179380500938	2.15
C 	39.777663605297526	23.172696824146033	2.15
C 	41.10334781092356	23.68157931250036	2.15
C 	41.32548475128069	25.08409675614546	2.15
C 	42.65116895690671	25.59297924449978	2.15
C 	42.87330589726384	26.995496688144875	2.15
C 	44.198990102889866	27.504379176499203	2.15
C 	44.421127043247	28.906896620144302	2.15
C 	45.74681124887303	29.415779108498626	2.15
C 	45.968948189230154	30.818296552143725	2.15
C 	47.29463239485617	31.327179040498045	2.15
C 	47.5167693352133	32.72969648414314	2.15
C 	48.84245354083932	33.23857897249747	2.15
C 	49.064590481196454	34.64109641614257	2.15
C 	50.39027468682248	35.14997890449689	2.15
C 	50.61241162717961	36.55249634814199	2.15
C 	51.93809583280564	37.06137883649631	2.15
C 	52.16023277316276	38.463896280141405	2.15
C 	53.485916978788794	38.972778768495736	2.15
C 	53.70805391914592	40.37529621214083	2.15
C 	55.03373812477194	40.88417870049516	2.15
C 	55.255875065129075	42.28669614414026	2.15
C 	56.5815592707551	42.795578632494575	2.15
C 	56.80369621111223	44.19809607613968	2.15
C 	58.12938041673825	44.706978564493994	2.15
C 	58.35151735709538	46.10949600813909	2.15
C 	59.67720156272141	46.61837849649343	2.15
C 	18.774578382604755	0.6206501070894157	2.15
C 	20.100262588230784	1.1295325954437414	2.15
C 	20.322399528587912	2.532050039088837	2.15
C 	21.648083734213934	3.0409325274431622	2.15
C 	21.870220674571062	4.443449971088257	2.15
C 	23.19590488019709	4.952332459442586	2.15
C 	23.41804182055422	6.354849903087682	2.15
C 	24.743726026180244	6.863732391442007	2.15
C 	24.965862966537372	8.266249835087102	2.15
C 	26.291547172163405	8.775132323441428	2.15
C 	26.51368411252053	10.177649767086523	2.15
C 	27.83936831814655	10.686532255440852	2.15
C 	28.06150525850368	12.089049699085946	2.15
C 	29.38718946412971	12.597932187440271	2.15
C 	29.60932640448684	14.000449631085369	2.15
C 	30.93501061011286	14.509332119439694	2.15
C 	31.15714755046999	15.911849563084788	2.15
C 	32.48283175609602	16.420732051439117	2.15
C 	32.70496869645314	17.823249495084212	2.15
C 	34.03065290207917	18.332131983438536	2.15
C 	34.25278984243629	19.734649427083628	2.15
C 	35.578474048062326	20.24353191543796	2.15
C 	35.80061098841946	21.646049359083054	2.15
C 	37.126295194045476	22.15493184743738	2.15
C 	37.3484321344026	23.55744929108247	2.15
C 	38.67411634002863	24.0663317794368	2.15
C 	38.89625328038576	25.468849223081893	2.15
C 	40.22193748601178	25.977731711436224	2.15
C 	40.444074426368914	27.38024915508132	2.15
C 	41.76975863199494	27.889131643435647	2.15
C 	41.99189557235207	29.291649087080735	2.15
C 	43.3175797779781	29.800531575435063	2.15
C 	43.53971671833523	31.203049019080158	2.15
C 	44.86540092396125	31.711931507434496	2.15
C 	45.08753786431838	33.11444895107959	2.15
C 	46.41322206994441	33.62333143943391	2.15
C 	46.63535901030154	35.025848883079	2.15
C 	47.96104321592755	35.53473137143333	2.15
C 	48.183180156284685	36.937248815078426	2.15
C 	49.50886436191072	37.44613130343276	2.15
C 	49.73100130226784	38.84864874707785	2.15
C 	51.05668550789387	39.35753123543218	2.15
C 	51.27882244825099	40.760048679077265	2.15
C 	52.604506653877024	41.268931167431596	2.15
C 	52.82664359423415	42.67144861107669	2.15
C 	54.152327799860174	43.18033109943103	2.15
C 	54.374464740217306	44.58284854307612	2.15
C 	55.70014894584334	45.09173103143044	2.15
C 	14.797525765726677	-0.905997357973562	2.15
C 	16.123209971352704	-0.3971148696192349	2.15
C 	16.345346911709832	1.0054025740258605	2.15
C 	17.671031117335858	1.5142850623801858	2.15
C 	17.893168057692986	2.9168025060252813	2.15
C 	19.21885226331901	3.4256849943796066	2.15
C 	19.44098920367614	4.828202438024702	2.15
C 	20.766673409302168	5.337084926379028	2.15
C 	20.988810349659296	6.739602370024123	2.15
C 	22.314494555285318	7.248484858378452	2.15
C 	22.536631495642446	8.651002302023548	2.15
C 	23.86231570126848	9.159884790377872	2.15
C 	24.084452641625607	10.562402234022967	2.15
C 	25.41013684725163	11.071284722377293	2.15
C 	25.632273787608757	12.473802166022388	2.15
C 	26.957957993234785	12.982684654376715	2.15
C 	27.180094933591917	14.385202098021812	2.15
C 	28.505779139217935	14.89408458637614	2.15
C 	28.727916079575063	16.296602030021234	2.15
C 	30.053600285201092	16.805484518375557	2.15
C 	30.27573722555822	18.208001962020653	2.15
C 	31.601421431184246	18.716884450374984	2.15
C 	31.823558371541374	20.11940189402008	2.15
C 	33.1492425771674	20.6282843823744	2.15
C 	33.37137951752453	22.030801826019495	2.15
C 	34.69706372315055	22.539684314373822	2.15
C 	34.91920066350768	23.94220175801892	2.15
C 	36.244884869133706	24.45108424637324	2.15
C 	36.46702180949084	25.853601690018337	2.15
C 	37.792706015116856	26.362484178372664	2.15
C 	38.01484295547399	27.765001622017763	2.15
C 	39.34052716110001	28.273884110372087	2.15
C 	39.562664101457145	29.676401554017186	2.15
C 	40.88834830708317	30.185284042371507	2.15
C 	41.110485247440295	31.587801486016602	2.15
C 	42.43616945306633	32.09668397437093	2.15
C 	42.65830639342345	33.49920141801603	2.15
C 	43.983990599049484	34.00808390637035	2.15
C 	44.206127539406616	35.410601350015455	2.15
C 	45.531811745032634	35.91948383836977	2.15
C 	45.753948685389766	37.32200128201487	2.15
C 	47.07963289101579	37.8308837703692	2.15
C 	47.301769831372916	39.23340121401429	2.15
C 	48.62745403699894	39.742283702368624	2.15
C 	48.849590977356065	41.14480114601372	2.15
C 	50.17527518298209	41.653683634368036	2.15
C 	50.397412123339215	43.05620107801314	2.15
C 	51.72309632896525	43.56508356636746	2.15
C 	51.94523326932238	44.96760101001256	2.15
C 	53.270917474948405	45.47648349836689	2.15
C 	12.368294294831752	-0.5212448910371189	2.15
C 	13.69397850045778	-0.012362402682792342	2.15
C 	13.916115440814908	1.3901550409623031	2.15
C 	15.241799646440933	1.8990375293166306	2.15
C 	15.463936586798061	3.301554972961726	2.15
C 	16.78962079242409	3.8104374613160514	2.15
C 	17.011757732781216	5.212954904961147	2.15
C 	18.337441938407242	5.721837393315472	2.15
C 	18.55957887876437	7.124354836960568	2.15
C 	19.885263084390395	7.633237325314893	2.15
C 	20.107400024747523	9.035754768959988	2.15
C 	21.433084230373552	9.544637257314317	2.15
C 	21.65522117073068	10.947154700959413	2.15
C 	22.980905376356702	11.456037189313738	2.15
C 	23.20304231671383	12.858554632958832	2.15
C 	24.528726522339856	13.36743712131316	2.15
C 	24.750863462696987	14.769954564958256	2.15
C 	26.076547668323013	15.278837053312582	2.15
C 	26.29868460868014	16.68135449695768	2.15
C 	27.624368814306166	17.190236985312005	2.15
C 	27.846505754663294	18.592754428957097	2.15
C 	29.17218996028932	19.101636917311424	2.15
C 	29.394326900646448	20.504154360956523	2.15
C 	30.720011106272473	21.01303684931085	2.15
C 	30.9421480466296	22.415554292955946	2.15
C 	32.26783225225563	22.924436781310266	2.15
C 	32.489969192612755	24.326954224955365	2.15
C 	33.81565339823878	24.83583671330969	2.15
C 	34.03779033859591	26.238354156954788	2.15
C 	35.36347454422194	26.74723664530911	2.15
C 	35.58561148457906	28.149754088954204	2.15
C 	36.91129569020509	28.65863657730853	2.15
C 	37.13343263056222	30.06115402095363	2.15
C 	38.459116836188244	30.570036509307958	2.15
C 	38.68125377654537	31.972553952953053	2.15
C 	40.0069379821714	32.48143644130737	2.15
C 	40.229074922528525	33.88395388495247	2.15
C 	41.55475912815456	34.3928363733068	2.15
C 	41.77689606851169	35.795353816951895	2.15
C 	43.10258027413771	36.30423630530622	2.15
C 	43.32471721449484	37.70675374895132	2.15
C 	44.65040142012087	38.21563623730564	2.15
C 	44.872538360477996	39.61815368095073	2.15
C 	46.19822256610402	40.127036169305065	2.15
C 	46.420359506461146	41.52955361295016	2.15
C 	47.74604371208718	42.03843610130449	2.15
C 	47.96818065244431	43.440953544949586	2.15
C 	49.29386485807032	43.9498360333039	2.15
C 	49.51600179842745	45.352353476949006	2.15
C 	50.841686004053486	45.86123596530333	2.15
C 	9.939062823936828	-0.13649242410067614	2.15
C 	11.264747029562853	0.3723900642536492	2.15
C 	11.486883969919981	1.7749075078987446	2.15
C 	12.81256817554601	2.283789996253071	2.15
C 	13.034705115903138	3.686307439898167	2.15
C 	14.360389321529164	4.195189928252494	2.15
C 	14.582526261886292	5.597707371897589	2.15
C 	15.908210467512315	6.106589860251915	2.15
C 	16.130347407869444	7.509107303897011	2.15
C 	17.456031613495472	8.017989792251337	2.15
C 	17.6781685538526	9.420507235896432	2.15
C 	19.003852759478626	9.929389724250756	2.15
C 	19.22598969983575	11.331907167895851	2.15
C 	20.55167390546178	11.84078965625018	2.15
C 	20.773810845818907	13.243307099895274	2.15
C 	22.099495051444933	13.752189588249601	2.15
C 	22.321631991802064	15.154707031894699	2.15
C 	23.647316197428086	15.663589520249023	2.15
C 	23.869453137785214	17.066106963894118	2.15
C 	25.19513734341124	17.574989452248445	2.15
C 	25.417274283768368	18.97750689589354	2.15
C 	26.742958489394397	19.486389384247868	2.15
C 	26.965095429751525	20.888906827892963	2.15
C 	28.29077963537755	21.397789316247287	2.15
C 	28.51291657573468	22.800306759892383	2.15
C 	29.838600781360704	23.309189248246714	2.15
C 	30.06073772171783	24.711706691891806	2.15
C 	31.386421927343857	25.22058918024613	2.15
C 	31.608558867700985	26.623106623891225	2.15
C 	32.93424307332701	27.131989112245556	2.15
C 	33.15638001368414	28.534506555890648	2.15
C 	34.48206421931016	29.043389044244975	2.15
C 	34.70420115966729	30.445906487890063	2.15
C 	36.02988536529332	30.95478897624439	2.15
C 	36.25202230565045	32.35730641988949	2.15
C 	37.577706511276475	32.86618890824382	2.15
C 	37.7998434516336	34.268706351888916	2.15
C 	39.125527657259624	34.77758884024324	2.15
C 	39.347664597616756	36.18010628388833	2.15
C 	40.67334880324278	36.68898877224266	2.15
C 	40.89548574359991	38.091506215887755	2.15
C 	42.221169949225946	38.600388704242086	2.15
C 	42.44330688958307	40.00290614788718	2.15
C 	43.768991095209095	40.511788636241505	2.15
C 	43.99112803556622	41.91430607988659	2.15
C 	45.316812241192245	42.423188568240924	2.15
C 	45.53894918154937	43.82570601188602	2.15
C 	46.8646333871754	44.33458850024036	2.15
C 	47.086770327532534	45.737105943885446	2.15
C 	48.41245453315856	46.24598843223977	2.15
C 	7.5098313530419025	0.2482600428357667	2.15
C 	8.835515558667929	0.7571425311900929	2.15
C 	9.057652499025057	2.159659974835188	2.15
C 	10.383336704651084	2.668542463189514	2.15
C 	10.605473645008212	4.071059906834609	2.15
C 	11.93115785063424	4.579942395188936	2.15
C 	12.153294790991367	5.982459838834031	2.15
C 	13.478978996617393	6.491342327188358	2.15
C 	13.701115936974523	7.893859770833455	2.15
C 	15.026800142600546	8.402742259187779	2.15
C 	15.248937082957674	9.805259702832876	2.15
C 	16.5746212885837	10.3141421911872	2.15
C 	16.796758228940828	11.716659634832297	2.15
C 	18.122442434566853	12.22554212318662	2.15
C 	18.34457937492398	13.628059566831718	2.15
C 	19.670263580550007	14.136942055186044	2.15
C 	19.892400520907138	15.53945949883114	2.15
C 	21.218084726533164	16.048341987185466	2.15
C 	21.44022166689029	17.450859430830562	2.15
C 	22.765905872516317	17.959741919184886	2.15
C 	22.988042812873445	19.362259362829985	2.15
C 	24.31372701849947	19.871141851184312	2.15
C 	24.5358639588566	21.273659294829407	2.15
C 	25.861548164482624	21.78254178318373	2.15
C 	26.083685104839752	23.185059226828827	2.15
C 	27.40936931046578	23.69394171518315	2.15
C 	27.63150625082291	25.09645915882825	2.15
C 	28.957190456448934	25.605341647182577	2.15
C 	29.179327396806062	27.007859090827672	2.15
C 	30.505011602432084	27.516741579181993	2.15
C 	30.727148542789212	28.91925902282709	2.15
C 	32.05283274841524	29.42814151118142	2.15
C 	32.27496968877237	30.830658954826514	2.15
C 	33.6006538943984	31.339541443180835	2.15
C 	33.82279083475552	32.74205888682593	2.15
C 	35.14847504038155	33.25094137518026	2.15
C 	35.37061198073867	34.65345881882536	2.15
C 	36.696296186364705	35.16234130717969	2.15
C 	36.91843312672183	36.56485875082478	2.15
C 	38.244117332347855	37.0737412391791	2.15
C 	38.46625427270499	38.476258682824195	2.15
C 	39.79193847833102	38.985141171178526	2.15
C 	40.014075418688144	40.38765861482362	2.15
C 	41.33975962431417	40.89654110317795	2.15
C 	41.561896564671294	42.29905854682305	2.15
C 	42.887580770297326	42.807941035177365	2.15
C 	43.10971771065445	44.21045847882246	2.15
C 	44.435401916280476	44.71934096717679	2.15
C 	44.65753885663761	46.121858410821886	2.15
C 	45.98322306226364	46.63074089917622	2.15
C 	5.080599882146978	0.6330125097722097	2.15
C 	6.406284087773005	1.1418949981265356	2.15
C 	6.628421028130133	2.544412441771631	2.15
C 	7.954105233756158	3.0532949301259573	2.15
C 	8.176242174113286	4.455812373771053	2.15
C 	9.501926379739313	4.964694862125378	2.15
C 	9.72406332009644	6.367212305770473	2.15
C 	11.049747525722466	6.876094794124801	2.15
C 	11.271884466079594	8.278612237769897	2.15
C 	12.59756867170562	8.787494726124223	2.15
C 	12.819705612062748	10.190012169769318	2.15
C 	14.145389817688775	10.698894658123644	2.15
C 	14.367526758045903	12.101412101768739	2.15
C 	15.693210963671929	12.610294590123065	2.15
C 	15.915347904029057	14.01281203376816	2.15
C 	17.24103210965508	14.521694522122488	2.15
C 	17.46316905001221	15.924211965767581	2.15
C 	18.788853255638237	16.43309445412191	2.15
C 	19.010990195995365	17.835611897767006	2.15
C 	20.33667440162139	18.34449438612133	2.15
C 	20.55881134197852	19.747011829766425	2.15
C 	21.884495547604548	20.255894318120752	2.15
C 	22.106632487961676	21.658411761765848	2.15
C 	23.4323166935877	22.16729425012018	2.15
C 	23.65445363394483	23.56981169376527	2.15
C 	24.980137839570855	24.078694182119595	2.15
C 	25.202274779927983	25.481211625764693	2.15
C 	26.527958985554008	25.99009411411902	2.15
C 	26.750095925911136	27.392611557764113	2.15
C 	28.075780131537165	27.901494046118444	2.15
C 	28.297917071894293	29.30401148976354	2.15
C 	29.62360127752032	29.81289397811786	2.15
C 	29.845738217877447	31.21541142176296	2.15
C 	31.171422423503472	31.724293910117286	2.15
C 	31.393559363860597	33.12681135376238	2.15
C 	32.71924356948662	33.6356938421167	2.15
C 	32.94138050984375	35.03821128576179	2.15
C 	34.26706471546978	35.54709377411613	2.15
C 	34.48920165582691	36.94961121776122	2.15
C 	35.81488586145293	37.458493706115554	2.15
C 	36.03702280181006	38.86101114976064	2.15
C 	37.362707007436086	39.36989363811497	2.15
C 	37.58484394779321	40.77241108176006	2.15
C 	38.91052815341924	41.28129357011439	2.15
C 	39.132665093776374	42.68381101375949	2.15
C 	40.4583492994024	43.19269350211382	2.15
C 	40.680486239759524	44.59521094575891	2.15
C 	42.00617044538555	45.10409343411323	2.15
C 	2.429231470894925	-0.3847524669364429	2.15
C 	2.651368411252053	1.0177649767086525	2.15
C 	3.977052616878079	1.5266474650629787	2.15
C 	4.199189557235207	2.929164908708074	2.15
C 	5.524873762861233	3.4380473970624004	2.15
C 	5.747010703218361	4.840564840707496	2.15
C 	7.072694908844388	5.349447329061822	2.15
C 	7.294831849201516	6.751964772706917	2.15
C 	8.62051605482754	7.260847261061244	2.15
C 	8.842652995184668	8.663364704706337	2.15
C 	10.168337200810695	9.172247193060665	2.15
C 	10.390474141167823	10.574764636705762	2.15
C 	11.71615834679385	11.08364712506009	2.15
C 	11.938295287150979	12.486164568705183	2.15
C 	13.263979492777004	12.99504705705951	2.15
C 	13.486116433134132	14.397564500704604	2.15
C 	14.81180063876016	14.90644698905893	2.15
C 	15.033937579117287	16.308964432704023	2.15
C 	16.35962178474331	16.81784692105835	2.15
C 	16.58175872510044	18.220364364703446	2.15
C 	17.907442930726464	18.729246853057777	2.15
C 	18.129579871083592	20.13176429670287	2.15
C 	19.45526407670962	20.640646785057196	2.15
C 	19.67740101706675	22.043164228702288	2.15
C 	21.003085222692775	22.552046717056616	2.15
C 	21.225222163049903	23.95456416070171	2.15
C 	22.550906368675932	24.463446649056042	2.15
C 	22.77304330903306	25.865964092701134	2.15
C 	24.098727514659085	26.37484658105546	2.15
C 	24.320864455016213	27.777364024700557	2.15
C 	25.64654866064224	28.286246513054884	2.15
C 	25.868685600999363	29.688763956699976	2.15
C 	27.194369806625392	30.197646445054303	2.15
C 	27.41650674698252	31.600163888699402	2.15
C 	28.742190952608546	32.10904637705372	2.15
C 	28.964327892965674	33.51156382069882	2.15
C 	30.290012098591703	34.02044630905315	2.15
C 	30.51214903894883	35.422963752698244	2.15
C 	31.837833244574853	35.93184624105256	2.15
C 	32.059970184931984	37.33436368469766	2.15
C 	33.38565439055801	37.84324617305199	2.15
C 	33.607791330915134	39.24576361669708	2.15
C 	34.93347553654117	39.754646105051414	2.15
C 	35.15561247689829	41.15716354869651	2.15
C 	36.48129668252432	41.666046037050826	2.15
C 	36.70343362288144	43.06856348069593	2.15
C 	38.029117828507474	43.57744596905025	2.15
C 	38.2512547688646	44.97996341269535	2.15
C 	39.57693897449063	45.48884590104968	2.15
C 	1.5478211459831543	1.9113999319994217	2.15
C 	1.7699580863402822	3.3139173756445173	2.15
C 	3.0956422919663087	3.8227998639988434	2.15
C 	3.3177792323234367	5.225317307643938	2.15
C 	4.643463437949463	5.734199795998265	2.15
C 	4.865600378306591	7.13671723964336	2.15
C 	6.191284583932617	7.645599727997687	2.15
C 	6.413421524289745	9.048117171642781	2.15
C 	7.739105729915772	9.556999659997107	2.15
C 	7.961242670272899	10.959517103642202	2.15
C 	9.286926875898926	11.46839959199653	2.15
C 	9.509063816256054	12.870917035641625	2.15
C 	10.83474802188208	13.379799523995953	2.15
C 	11.056884962239208	14.782316967641046	2.15
C 	12.382569167865235	15.291199455995374	2.15
C 	12.604706108222363	16.69371689964047	2.15
C 	13.930390313848388	17.202599387994795	2.15
C 	14.152527254205516	18.605116831639886	2.15
C 	15.478211459831543	19.113999319994214	2.15
C 	15.700348400188672	20.516516763639313	2.15
C 	17.026032605814695	21.02539925199364	2.15
C 	17.248169546171823	22.427916695638736	2.15
C 	18.573853751797852	22.93679918399306	2.15
C 	18.79599069215498	24.339316627638155	2.15
C 	20.121674897781006	24.84819911599248	2.15
C 	20.343811838138134	26.250716559637578	2.15
C 	21.66949604376416	26.759599047991905	2.15
C 	21.891632984121287	28.162116491637	2.15
C 	23.217317189747316	28.670998979991325	2.15
C 	23.43945413010444	30.07351642363642	2.15
C 	24.76513833573047	30.582398911990747	2.15
C 	24.987275276087598	31.984916355635843	2.15
C 	26.312959481713623	32.49379884399017	2.15
C 	26.53509642207075	33.896316287635265	2.15
C 	27.860780627696776	34.40519877598959	2.15
C 	28.082917568053904	35.807716219634685	2.15
C 	29.40860177367993	36.316598707989016	2.15
C 	29.630738714037058	37.71911615163411	2.15
C 	30.956422919663087	38.22799863998843	2.15
C 	31.178559860020215	39.63051608363353	2.15
C 	32.50424406564624	40.139398571987854	2.15
C 	32.726381006003365	41.54191601563295	2.15
C 	34.05206521162939	42.05079850398728	2.15
C 	34.27420215198652	43.453315947632376	2.15
C 	35.59988635761255	43.96219843598669	2.15
C 	35.82202329796967	45.364715879631795	2.15
C 	37.147707503595704	45.87359836798612	2.15
C 	8.405516550987157	13.764551990932395	2.15
C 	8.627653491344283	15.167069434577488	2.15
C 	9.953337696970308	15.675951922931816	2.15
C 	10.175474637327438	17.078469366576915	2.15
C 	11.501158842953464	17.58735185493124	2.15
C 	11.723295783310592	18.989869298576334	2.15
C 	13.048979988936619	19.498751786930658	2.15
C 	13.271116929293747	20.901269230575753	2.15
C 	14.59680113491977	21.410151718930077	2.15
C 	14.818938075276899	22.812669162575176	2.15
C 	16.144622280902926	23.321551650929504	2.15
C 	16.366759221260054	24.7240690945746	2.15
C 	17.692443426886083	25.232951582928923	2.15
C 	17.91458036724321	26.63546902657402	2.15
C 	19.240264572869236	27.144351514928346	2.15
C 	19.462401513226364	28.54686895857344	2.15
C 	20.78808571885239	29.05575144692777	2.15
C 	21.010222659209518	30.458268890572864	2.15
C 	22.335906864835543	30.967151378927188	2.15
C 	22.55804380519267	32.36966882257229	2.15
C 	23.8837280108187	32.87855131092661	2.15
C 	24.105864951175825	34.281068754571706	2.15
C 	25.431549156801854	34.78995124292604	2.15
C 	25.65368609715898	36.192468686571125	2.15
C 	26.979370302785004	36.701351174925456	2.15
C 	27.20150724314213	38.103868618570544	2.15
C 	28.52719144876816	38.61275110692488	2.15
C 	28.74932838912529	40.01526855056997	2.15
C 	30.075012594751314	40.524151038924295	2.15
C 	30.297149535108442	41.92666848256939	2.15
C 	31.62283374073447	42.43555097092372	2.15
C 	31.844970681091596	43.83806841456881	2.15
C 	33.17065488671762	44.34695090292315	2.15
C 	33.392791827074745	45.749468346568236	2.15
C 	34.71847603270078	46.25835083492256	2.15
C 	15.263211955991155	25.617704049865367	2.15
C 	15.485348896348283	27.020221493510462	2.15
C 	16.811033101974314	27.52910398186479	2.15
C 	17.03317004233144	28.931621425509885	2.15
C 	18.358854247957463	29.44050391386421	2.15
C 	18.58099118831459	30.843021357509304	2.15
C 	19.906675393940617	31.35190384586363	2.15
C 	20.12881233429775	32.75442128950873	2.15
C 	21.454496539923774	33.26330377786306	2.15
C 	21.676633480280902	34.665821221508146	2.15
C 	23.002317685906927	35.17470370986248	2.15
C 	23.224454626264055	36.57722115350757	2.15
C 	24.55013883189008	37.0861036418619	2.15
C 	24.77227577224721	38.48862108550699	2.15
C 	26.097959977873238	38.997503573861316	2.15
C 	26.320096918230366	40.40002101750641	2.15
C 	27.645781123856388	40.90890350586074	2.15
C 	27.867918064213516	42.31142094950584	2.15
C 	29.19360226983954	42.820303437860154	2.15
C 	29.41573921019667	44.22282088150526	2.15
C 	30.741423415822698	44.73170336985958	2.15
C 	30.963560356179826	46.134220813504676	2.15
C 	32.28924456180585	46.64310330185901	2.15
C 	22.120907360995158	37.470856108798344	2.15
C 	22.343044301352286	38.87337355244344	2.15
C 	23.66872850697831	39.38225604079776	2.15
C 	23.89086544733544	40.784773484442866	2.15
C 	25.216549652961465	41.29365597279718	2.15
C 	25.438686593318593	42.69617341644228	2.15
C 	26.764370798944622	43.20505590479661	2.15
C 	26.98650773930175	44.607573348441704	2.15
C 	28.312191944927772	45.11645583679602	2.15
H 	53.279716229311234	-1.6349123903341956	2.15
H 	55.62300309981922	-0.7354088369754866	2.15
H 	56.01565360707019	1.7436888979183085	2.15
H 	50.850484758416286	-1.250159923397749	2.15
H 	56.289413920890595	3.4721434939597877	2.15
H 	57.83723506687374	5.383543425959203	2.15
H 	59.3850562128569	7.294943357958637	2.15
H 	60.93287735884006	9.206343289958062	2.15
H 	62.480698504823195	11.117743221957463	2.15
H 	62.873349012074186	13.596840956851274	2.15
H 	48.42125328752139	-0.8654074564613096	2.15
H 	63.1471093258946	15.325295552892767	2.15
H 	64.69493047187774	17.236695484892188	2.15
H 	66.24275161786089	19.148095416891604	2.15
H 	67.79057276384407	21.05949534889104	2.15
H 	69.33839390982722	22.97089528089046	2.15
H 	69.7310444170782	25.449993015784255	2.15
H 	45.992021816626455	-0.4806549895248726	2.15
H 	70.00480473089858	27.178447611825725	2.15
H 	71.55262587688173	29.08984754382515	2.15
H 	73.10044702286491	31.001247475824584	2.15
H 	74.64826816884805	32.91264740782399	2.15
H 	76.19608931483121	34.82404733982342	2.15
H 	76.58873982208219	37.30314507471721	2.15
H 	42.014969199748364	-2.0073024545878457	2.15
H 	44.35825607025637	-1.107798901229138	2.15
H 	75.70732949717042	39.59929747365309	2.15
H 	39.58573772885346	-1.6225499876514042	2.15
H 	74.82591917225865	41.89544987258895	2.15
H 	37.15650625795853	-1.237797520714962	2.15
H 	73.94450884734688	44.1916022715248	2.15
H 	34.72727478706361	-0.8530450537785155	2.15
H 	71.99387248408989	45.7711964530599	2.15
H 	32.29804331616868	-0.4682925868420762	2.15
H 	69.56464101319492	46.15594891999635	2.15
H 	28.320990699290594	-1.9949400519050524	2.15
H 	30.66427756979858	-1.0954364985463547	2.15
H 	67.13540954230001	46.5407013869328	2.15
H 	25.891759228395674	-1.6101875849686076	2.15
H 	64.70617807140512	46.92545385386923	2.15
H 	23.46252775750075	-1.2254351180321714	2.15
H 	62.2769466005102	47.31020632080567	2.15
H 	21.03329628660582	-0.8406826510957266	2.15
H 	57.504428259107286	46.79545523438341	2.15
H 	59.84771512961526	47.69495878774213	2.15
H 	18.6040648157109	-0.455930184159284	2.15
H 	55.8706625127372	46.16831132267914	2.15
H 	14.627012198832825	-1.9825776492222622	2.15
H 	16.970299069340804	-1.0830740958635565	2.15
H 	53.44143104184226	46.55306378961559	2.15
H 	12.1977807279379	-1.5978251822858192	2.15
H 	51.01219957094734	46.937816256552026	2.15
H 	9.768549257042975	-1.2130727153493766	2.15
H 	48.58296810005242	47.322568723488466	2.15
H 	7.339317786148049	-0.8283202484129333	2.15
H 	43.810449758649504	46.80781763706621	2.15
H 	46.15373662915751	47.70732119042491	2.15
H 	4.910086315253126	-0.4435677814764907	2.15
H 	42.1766840122794	46.18067372536193	2.15
H 	39.74745254138448	46.565426192298375	2.15
H 	0.5302184811012043	1.5207788669950446	2.15
H 	0.9228689883521841	3.9998766018888405	2.15
H 	2.470690134335338	5.911276533888261	2.15
H 	4.018511280318492	7.822676465887683	2.15
H 	5.566332426301647	9.734076397887105	2.15
H 	7.114153572284799	11.645476329886524	2.15
H 	37.31822107048957	46.950178659234815	2.15
H 	7.387913886105206	13.373930925928018	2.15
H 	7.780564393356182	15.853028660821808	2.15
H 	9.32838553933934	17.76442859282124	2.15
H 	10.876206685322494	19.67582852482066	2.15
H 	12.42402783130565	21.58722845682008	2.15
H 	13.9718489772888	23.4986283888195	2.15
H 	34.88898959959463	47.334931126171256	2.15
H 	14.245609291109206	25.22708298486099	2.15
H 	14.638259798360181	27.70618071975478	2.15
H 	16.186080944343345	29.61758065175421	2.15
H 	17.73390209032649	31.528980583753626	2.15
H 	19.28172323630965	33.44038051575305	2.15
H 	20.8295443822928	35.35178044775246	2.15
H 	30.116471258191726	46.820180039749	2.15
H 	32.459758128699704	47.7196835931077	2.15
H 	21.103304696113206	37.08023504379397	2.15
H 	21.495955203364186	39.55933277868776	2.15
H 	23.04377634934735	41.4707327106872	2.15
H 	24.591597495330493	43.3821326426866	2.15
H 	26.139418641313657	45.29353257468603	2.15
H 	28.482705511821624	46.193036128044724	2.15
