2290

C 	0.0	0.0	0.0
C 	1.2297560733739028	0.7099999999999999	0.0
C 	2.4595121467478056	-2.3647750424515833e-16	0.0
C 	3.689268220121708	0.7099999999999995	0.0
C 	4.919024293495611	-4.729550084903167e-16	0.0
C 	6.148780366869514	0.7099999999999993	0.0
C 	7.378536440243416	-7.09432512735475e-16	0.0
C 	8.60829251361732	0.7099999999999991	0.0
C 	9.838048586991222	-9.459100169806333e-16	0.0
C 	11.067804660365125	0.7099999999999989	0.0
C 	12.297560733739026	-1.1823875212257916e-15	0.0
C 	13.527316807112928	0.7099999999999986	0.0
C 	14.757072880486833	-1.41886502547095e-15	0.0
C 	15.986828953860735	0.7099999999999984	0.0
C 	17.21658502723464	-7.671641100159832e-16	0.0
C 	18.44634110060854	0.7099999999999982	0.0
C 	19.676097173982445	-1.8918200339612667e-15	0.0
C 	20.905853247356347	0.7099999999999989	0.0
C 	22.135609320730246	-2.128297538206425e-15	0.0
C 	23.36536539410415	0.7099999999999967	0.0
C 	24.59512146747805	-2.364775042451583e-15	0.0
C 	25.824877540851954	0.7099999999999983	0.0
C 	27.05463361422586	-8.248957072964913e-16	0.0
C 	28.284389687599763	0.7099999999999999	0.0
C 	29.514145760973665	-2.8377300509419e-15	0.0
C 	30.743901834347565	0.7099999999999961	0.0
C 	31.97365790772147	-3.0742075551870582e-15	0.0
C 	33.20341398109537	0.7099999999999976	0.0
C 	34.43317005446928	-1.5343282200319664e-15	0.0
C 	35.66292612784318	0.7099999999999992	0.0
C 	36.892682201217085	-1.7708057242771246e-15	0.0
C 	38.122438274590984	0.7099999999999972	0.0
C 	39.35219434796489	-3.783640067922533e-15	0.0
C 	40.58195042133879	0.7099999999999969	0.0
C 	41.811706494712695	-4.67403893367191e-16	0.0
C 	43.0414625680866	0.7100000000000002	0.0
C 	44.27121864146049	-4.25659507641285e-15	0.0
C 	45.5009747148344	0.7099999999999964	0.0
C 	46.730730788208305	-9.403589018575075e-16	0.0
C 	47.96048686158221	0.7099999999999997	0.0
C 	49.1902429349561	-4.729550084903166e-15	0.0
C 	50.41999900833001	0.709999999999996	0.0
C 	51.64975508170391	-1.413313910347824e-15	0.0
C 	52.879511155077815	0.7099999999999993	0.0
C 	54.10926722845172	-1.6497914145929826e-15	0.0
C 	55.33902330182562	0.7099999999999991	0.0
C 	56.56877937519952	-5.438982597638641e-15	0.0
C 	57.798535448573425	0.7099999999999953	0.0
C 	59.02829152194733	-5.6754601018838e-15	0.0
C 	60.25804759532124	0.709999999999995	0.0
C 	1.2297560733739028	2.1299999999999994	0.0
C 	2.4595121467478056	2.8399999999999994	0.0
C 	3.689268220121708	2.1299999999999994	0.0
C 	4.919024293495611	2.8399999999999994	0.0
C 	6.148780366869514	2.129999999999999	0.0
C 	7.378536440243416	2.839999999999999	0.0
C 	8.60829251361732	2.1299999999999986	0.0
C 	9.838048586991222	2.8399999999999985	0.0
C 	11.067804660365123	2.129999999999998	0.0
C 	12.297560733739028	2.839999999999999	0.0
C 	13.527316807112928	2.1299999999999977	0.0
C 	14.757072880486833	2.839999999999998	0.0
C 	15.986828953860735	2.129999999999998	0.0
C 	17.216585027234636	2.839999999999997	0.0
C 	18.446341100608542	2.129999999999998	0.0
C 	19.676097173982445	2.8399999999999985	0.0
C 	20.905853247356344	2.1299999999999977	0.0
C 	22.13560932073025	2.8399999999999985	0.0
C 	23.36536539410415	2.129999999999997	0.0
C 	24.595121467478055	2.839999999999997	0.0
C 	25.824877540851954	2.1299999999999963	0.0
C 	27.05463361422586	2.839999999999997	0.0
C 	28.284389687599763	2.129999999999998	0.0
C 	29.514145760973665	2.8399999999999985	0.0
C 	30.743901834347568	2.129999999999996	0.0
C 	31.97365790772147	2.8399999999999967	0.0
C 	33.20341398109537	2.129999999999996	0.0
C 	34.43317005446928	2.8399999999999963	0.0
C 	35.66292612784318	2.1299999999999972	0.0
C 	36.89268220121708	2.8399999999999963	0.0
C 	38.122438274590984	2.129999999999997	0.0
C 	39.35219434796489	2.8399999999999976	0.0
C 	40.58195042133879	2.1299999999999986	0.0
C 	41.81170649471269	2.839999999999996	0.0
C 	43.0414625680866	2.129999999999998	0.0
C 	44.2712186414605	2.8399999999999954	0.0
C 	45.5009747148344	2.129999999999998	0.0
C 	46.7307307882083	2.8399999999999954	0.0
C 	47.96048686158221	2.1299999999999977	0.0
C 	49.19024293495611	2.839999999999995	0.0
C 	50.41999900833001	2.1299999999999977	0.0
C 	51.64975508170391	2.8399999999999945	0.0
C 	52.879511155077815	2.1299999999999972	0.0
C 	54.10926722845171	2.8399999999999945	0.0
C 	55.33902330182563	2.130000000000001	0.0
C 	56.56877937519952	2.8399999999999976	0.0
C 	57.798535448573425	2.129999999999997	0.0
C 	59.028291521947324	2.839999999999994	0.0
C 	60.25804759532124	2.129999999999997	0.0
C 	61.487803668695136	2.8399999999999936	0.0
C 	2.4595121467478056	4.259999999999999	0.0
C 	3.689268220121708	4.969999999999999	0.0
C 	4.919024293495611	4.259999999999999	0.0
C 	6.148780366869514	4.969999999999999	0.0
C 	7.378536440243416	4.259999999999999	0.0
C 	8.60829251361732	4.969999999999999	0.0
C 	9.83804858699122	4.259999999999998	0.0
C 	11.067804660365125	4.969999999999999	0.0
C 	12.297560733739028	4.259999999999998	0.0
C 	13.52731680711293	4.969999999999998	0.0
C 	14.757072880486831	4.259999999999998	0.0
C 	15.986828953860735	4.969999999999998	0.0
C 	17.21658502723464	4.259999999999997	0.0
C 	18.446341100608542	4.969999999999998	0.0
C 	19.676097173982445	4.259999999999999	0.0
C 	20.905853247356347	4.969999999999997	0.0
C 	22.135609320730246	4.259999999999996	0.0
C 	23.365365394104153	4.969999999999997	0.0
C 	24.595121467478055	4.259999999999998	0.0
C 	25.824877540851958	4.969999999999997	0.0
C 	27.054633614225857	4.259999999999995	0.0
C 	28.28438968759976	4.969999999999996	0.0
C 	29.514145760973665	4.259999999999997	0.0
C 	30.743901834347568	4.969999999999997	0.0
C 	31.97365790772147	4.259999999999996	0.0
C 	33.20341398109537	4.969999999999995	0.0
C 	34.43317005446927	4.2599999999999945	0.0
C 	35.66292612784318	4.969999999999995	0.0
C 	36.892682201217085	4.259999999999996	0.0
C 	38.122438274590984	4.969999999999997	0.0
C 	39.35219434796489	4.259999999999997	0.0
C 	40.58195042133879	4.969999999999994	0.0
C 	41.81170649471269	4.259999999999995	0.0
C 	43.041462568086594	4.969999999999996	0.0
C 	44.2712186414605	4.259999999999997	0.0
C 	45.500974714834406	4.969999999999998	0.0
C 	46.7307307882083	4.259999999999994	0.0
C 	47.960486861582204	4.9699999999999935	0.0
C 	49.19024293495611	4.259999999999996	0.0
C 	50.41999900833001	4.969999999999997	0.0
C 	51.64975508170391	4.259999999999993	0.0
C 	52.879511155077815	4.9699999999999935	0.0
C 	54.10926722845171	4.259999999999996	0.0
C 	55.33902330182562	4.969999999999997	0.0
C 	56.568779375199526	4.259999999999996	0.0
C 	57.798535448573425	4.969999999999996	0.0
C 	59.028291521947324	4.259999999999995	0.0
C 	60.25804759532123	4.969999999999996	0.0
C 	61.487803668695136	4.259999999999992	0.0
C 	62.717559742069035	4.969999999999993	0.0
C 	3.6892682201217086	6.389999999999999	0.0
C 	4.919024293495611	7.099999999999999	0.0
C 	6.148780366869514	6.389999999999999	0.0
C 	7.378536440243416	7.099999999999999	0.0
C 	8.608292513617318	6.389999999999998	0.0
C 	9.838048586991222	7.099999999999999	0.0
C 	11.067804660365125	6.389999999999998	0.0
C 	12.297560733739028	7.099999999999998	0.0
C 	13.52731680711293	6.389999999999999	0.0
C 	14.757072880486833	7.099999999999998	0.0
C 	15.986828953860735	6.389999999999998	0.0
C 	17.216585027234636	7.099999999999997	0.0
C 	18.44634110060854	6.389999999999997	0.0
C 	19.676097173982445	7.099999999999998	0.0
C 	20.905853247356347	6.389999999999998	0.0
C 	22.13560932073025	7.099999999999997	0.0
C 	23.365365394104153	6.389999999999998	0.0
C 	24.59512146747805	7.099999999999997	0.0
C 	25.824877540851958	6.389999999999998	0.0
C 	27.054633614225857	7.099999999999997	0.0
C 	28.28438968759976	6.389999999999999	0.0
C 	29.514145760973662	7.099999999999997	0.0
C 	30.743901834347568	6.389999999999999	0.0
C 	31.97365790772147	7.099999999999998	0.0
C 	33.20341398109537	6.389999999999995	0.0
C 	34.43317005446928	7.099999999999994	0.0
C 	35.66292612784318	6.389999999999995	0.0
C 	36.892682201217085	7.099999999999996	0.0
C 	38.122438274590984	6.389999999999996	0.0
C 	39.35219434796489	7.099999999999997	0.0
C 	40.58195042133879	6.389999999999994	0.0
C 	41.811706494712695	7.099999999999995	0.0
C 	43.041462568086594	6.389999999999996	0.0
C 	44.2712186414605	7.099999999999997	0.0
C 	45.500974714834406	6.389999999999998	0.0
C 	46.730730788208305	7.099999999999998	0.0
C 	47.960486861582204	6.389999999999995	0.0
C 	49.19024293495611	7.099999999999996	0.0
C 	50.41999900833001	6.389999999999995	0.0
C 	51.649755081703915	7.099999999999996	0.0
C 	52.879511155077815	6.389999999999995	0.0
C 	54.10926722845172	7.099999999999996	0.0
C 	55.33902330182562	6.389999999999995	0.0
C 	56.568779375199526	7.099999999999995	0.0
C 	57.79853544857343	6.389999999999998	0.0
C 	59.02829152194733	7.099999999999999	0.0
C 	60.25804759532123	6.389999999999994	0.0
C 	61.487803668695136	7.099999999999995	0.0
C 	62.71755974206904	6.389999999999994	0.0
C 	63.94731581544294	7.099999999999995	0.0
C 	4.919024293495611	8.519999999999998	0.0
C 	6.148780366869514	9.229999999999999	0.0
C 	7.378536440243416	8.519999999999998	0.0
C 	8.60829251361732	9.229999999999999	0.0
C 	9.838048586991222	8.519999999999998	0.0
C 	11.067804660365125	9.229999999999999	0.0
C 	12.297560733739028	8.519999999999998	0.0
C 	13.52731680711293	9.229999999999997	0.0
C 	14.757072880486833	8.519999999999998	0.0
C 	15.986828953860737	9.229999999999999	0.0
C 	17.216585027234636	8.519999999999998	0.0
C 	18.44634110060854	9.229999999999997	0.0
C 	19.67609717398244	8.519999999999996	0.0
C 	20.905853247356347	9.229999999999997	0.0
C 	22.13560932073025	8.519999999999998	0.0
C 	23.365365394104153	9.229999999999999	0.0
C 	24.595121467478055	8.519999999999996	0.0
C 	25.824877540851954	9.229999999999995	0.0
C 	27.05463361422586	8.519999999999996	0.0
C 	28.284389687599763	9.229999999999997	0.0
C 	29.514145760973662	8.519999999999996	0.0
C 	30.743901834347565	9.229999999999995	0.0
C 	31.97365790772147	8.52	0.0
C 	33.20341398109537	9.229999999999997	0.0
C 	34.43317005446928	8.519999999999994	0.0
C 	35.66292612784318	9.229999999999995	0.0
C 	36.89268220121708	8.519999999999992	0.0
C 	38.122438274590984	9.229999999999993	0.0
C 	39.35219434796489	8.519999999999998	0.0
C 	40.58195042133879	9.229999999999995	0.0
C 	41.811706494712695	8.519999999999994	0.0
C 	43.0414625680866	9.229999999999995	0.0
C 	44.27121864146049	8.519999999999992	0.0
C 	45.5009747148344	9.229999999999993	0.0
C 	46.730730788208305	8.519999999999998	0.0
C 	47.960486861582204	9.229999999999995	0.0
C 	49.19024293495611	8.519999999999996	0.0
C 	50.41999900833001	9.229999999999993	0.0
C 	51.64975508170391	8.519999999999994	0.0
C 	52.879511155077815	9.229999999999995	0.0
C 	54.10926722845171	8.51999999999999	0.0
C 	55.33902330182562	9.229999999999992	0.0
C 	56.568779375199526	8.519999999999998	0.0
C 	57.798535448573425	9.229999999999995	0.0
C 	59.02829152194733	8.519999999999994	0.0
C 	60.25804759532123	9.229999999999993	0.0
C 	61.48780366869513	8.519999999999992	0.0
C 	62.717559742069035	9.229999999999993	0.0
C 	63.94731581544294	8.519999999999992	0.0
C 	65.17707188881684	9.22999999999999	0.0
C 	6.148780366869514	10.649999999999997	0.0
C 	7.378536440243416	11.359999999999998	0.0
C 	8.608292513617318	10.649999999999997	0.0
C 	9.838048586991222	11.359999999999998	0.0
C 	11.067804660365125	10.649999999999997	0.0
C 	12.297560733739028	11.359999999999996	0.0
C 	13.52731680711293	10.649999999999997	0.0
C 	14.757072880486831	11.359999999999996	0.0
C 	15.986828953860735	10.649999999999997	0.0
C 	17.216585027234636	11.359999999999996	0.0
C 	18.44634110060854	10.649999999999997	0.0
C 	19.676097173982445	11.359999999999998	0.0
C 	20.905853247356347	10.649999999999997	0.0
C 	22.13560932073025	11.359999999999996	0.0
C 	23.365365394104153	10.649999999999997	0.0
C 	24.595121467478055	11.359999999999996	0.0
C 	25.824877540851958	10.649999999999997	0.0
C 	27.05463361422586	11.359999999999996	0.0
C 	28.284389687599763	10.649999999999995	0.0
C 	29.514145760973662	11.359999999999994	0.0
C 	30.743901834347565	10.649999999999995	0.0
C 	31.97365790772147	11.359999999999996	0.0
C 	33.20341398109537	10.649999999999997	0.0
C 	34.43317005446928	11.359999999999998	0.0
C 	35.66292612784318	10.649999999999991	0.0
C 	36.89268220121708	11.359999999999992	0.0
C 	38.122438274590984	10.649999999999993	0.0
C 	39.35219434796489	11.359999999999994	0.0
C 	40.58195042133879	10.649999999999993	0.0
C 	41.811706494712695	11.359999999999994	0.0
C 	43.041462568086594	10.649999999999991	0.0
C 	44.2712186414605	11.359999999999992	0.0
C 	45.5009747148344	10.649999999999993	0.0
C 	46.730730788208305	11.359999999999994	0.0
C 	47.960486861582204	10.649999999999995	0.0
C 	49.19024293495611	11.359999999999996	0.0
C 	50.41999900833001	10.649999999999993	0.0
C 	51.649755081703915	11.359999999999994	0.0
C 	52.879511155077815	10.649999999999995	0.0
C 	54.10926722845172	11.359999999999996	0.0
C 	55.33902330182562	10.649999999999993	0.0
C 	56.568779375199526	11.359999999999994	0.0
C 	57.798535448573425	10.649999999999993	0.0
C 	59.02829152194733	11.359999999999992	0.0
C 	60.25804759532124	10.649999999999995	0.0
C 	61.487803668695136	11.359999999999996	0.0
C 	62.717559742069035	10.649999999999991	0.0
C 	63.94731581544294	11.359999999999992	0.0
C 	65.17707188881684	10.649999999999991	0.0
C 	66.40682796219075	11.359999999999992	0.0
C 	7.378536440243417	12.779999999999998	0.0
C 	8.60829251361732	13.489999999999998	0.0
C 	9.838048586991222	12.78	0.0
C 	11.067804660365125	13.489999999999997	0.0
C 	12.297560733739028	12.779999999999998	0.0
C 	13.527316807112932	13.489999999999998	0.0
C 	14.757072880486833	12.779999999999998	0.0
C 	15.986828953860737	13.489999999999997	0.0
C 	17.216585027234636	12.779999999999996	0.0
C 	18.446341100608542	13.489999999999997	0.0
C 	19.676097173982445	12.779999999999998	0.0
C 	20.905853247356347	13.489999999999997	0.0
C 	22.13560932073025	12.779999999999996	0.0
C 	23.36536539410415	13.489999999999995	0.0
C 	24.595121467478055	12.779999999999996	0.0
C 	25.824877540851958	13.489999999999997	0.0
C 	27.05463361422586	12.779999999999998	0.0
C 	28.284389687599763	13.489999999999997	0.0
C 	29.514145760973662	12.779999999999996	0.0
C 	30.743901834347568	13.489999999999997	0.0
C 	31.97365790772147	12.779999999999996	0.0
C 	33.20341398109537	13.489999999999997	0.0
C 	34.43317005446928	12.779999999999998	0.0
C 	35.66292612784318	13.489999999999995	0.0
C 	36.89268220121708	12.779999999999994	0.0
C 	38.122438274590984	13.489999999999995	0.0
C 	39.35219434796489	12.779999999999996	0.0
C 	40.581950421338796	13.489999999999997	0.0
C 	41.811706494712695	12.779999999999996	0.0
C 	43.041462568086594	13.489999999999993	0.0
C 	44.2712186414605	12.779999999999994	0.0
C 	45.5009747148344	13.489999999999995	0.0
C 	46.730730788208305	12.779999999999996	0.0
C 	47.96048686158221	13.489999999999997	0.0
C 	49.19024293495611	12.779999999999998	0.0
C 	50.41999900833001	13.489999999999995	0.0
C 	51.649755081703915	12.779999999999996	0.0
C 	52.879511155077815	13.489999999999993	0.0
C 	54.10926722845172	12.779999999999998	0.0
C 	55.33902330182563	13.489999999999998	0.0
C 	56.56877937519952	12.779999999999998	0.0
C 	57.798535448573425	13.489999999999997	0.0
C 	59.02829152194733	12.779999999999994	0.0
C 	60.25804759532123	13.489999999999991	0.0
C 	61.487803668695136	12.779999999999998	0.0
C 	62.71755974206904	13.489999999999998	0.0
C 	63.94731581544294	12.779999999999994	0.0
C 	65.17707188881684	13.489999999999995	0.0
C 	66.40682796219075	12.77999999999999	0.0
C 	67.63658403556465	13.489999999999988	0.0
C 	8.60829251361732	14.909999999999998	0.0
C 	9.838048586991222	15.619999999999996	0.0
C 	11.067804660365125	14.909999999999997	0.0
C 	12.297560733739026	15.619999999999996	0.0
C 	13.527316807112934	14.909999999999998	0.0
C 	14.757072880486831	15.619999999999996	0.0
C 	15.986828953860737	14.909999999999998	0.0
C 	17.21658502723464	15.619999999999997	0.0
C 	18.446341100608542	14.909999999999997	0.0
C 	19.676097173982445	15.619999999999996	0.0
C 	20.905853247356347	14.909999999999997	0.0
C 	22.135609320730246	15.619999999999996	0.0
C 	23.365365394104153	14.909999999999995	0.0
C 	24.595121467478055	15.619999999999996	0.0
C 	25.824877540851958	14.909999999999997	0.0
C 	27.05463361422586	15.619999999999996	0.0
C 	28.284389687599763	14.909999999999997	0.0
C 	29.514145760973665	15.619999999999996	0.0
C 	30.743901834347568	14.909999999999997	0.0
C 	31.973657907721474	15.619999999999997	0.0
C 	33.203413981095366	14.909999999999993	0.0
C 	34.43317005446927	15.619999999999994	0.0
C 	35.662926127843185	14.909999999999998	0.0
C 	36.892682201217085	15.619999999999996	0.0
C 	38.122438274590984	14.909999999999995	0.0
C 	39.35219434796489	15.619999999999996	0.0
C 	40.58195042133879	14.909999999999993	0.0
C 	41.811706494712695	15.619999999999994	0.0
C 	43.0414625680866	14.909999999999998	0.0
C 	44.2712186414605	15.619999999999996	0.0
C 	45.5009747148344	14.909999999999995	0.0
C 	46.730730788208305	15.619999999999996	0.0
C 	47.960486861582204	14.909999999999993	0.0
C 	49.19024293495611	15.619999999999994	0.0
C 	50.41999900833002	14.909999999999998	0.0
C 	51.649755081703915	15.619999999999996	0.0
C 	52.87951115507782	14.909999999999997	0.0
C 	54.10926722845171	15.619999999999994	0.0
C 	55.33902330182562	14.909999999999995	0.0
C 	56.568779375199526	15.619999999999994	0.0
C 	57.798535448573425	14.909999999999991	0.0
C 	59.028291521947324	15.619999999999992	0.0
C 	60.25804759532124	14.909999999999998	0.0
C 	61.487803668695136	15.619999999999996	0.0
C 	62.717559742069035	14.909999999999993	0.0
C 	63.94731581544294	15.619999999999994	0.0
C 	65.17707188881684	14.909999999999993	0.0
C 	66.40682796219075	15.619999999999994	0.0
C 	67.63658403556465	14.909999999999997	0.0
C 	68.86634010893854	15.61999999999999	0.0
C 	9.838048586991222	17.039999999999996	0.0
C 	11.067804660365127	17.749999999999996	0.0
C 	12.297560733739028	17.039999999999996	0.0
C 	13.527316807112932	17.749999999999996	0.0
C 	14.757072880486833	17.039999999999996	0.0
C 	15.986828953860735	17.749999999999996	0.0
C 	17.21658502723464	17.039999999999996	0.0
C 	18.446341100608546	17.749999999999996	0.0
C 	19.676097173982445	17.039999999999996	0.0
C 	20.905853247356347	17.749999999999996	0.0
C 	22.13560932073025	17.039999999999996	0.0
C 	23.365365394104153	17.749999999999996	0.0
C 	24.595121467478055	17.039999999999996	0.0
C 	25.82487754085196	17.749999999999996	0.0
C 	27.05463361422586	17.039999999999996	0.0
C 	28.28438968759977	17.75	0.0
C 	29.514145760973665	17.039999999999996	0.0
C 	30.74390183434757	17.749999999999996	0.0
C 	31.973657907721467	17.039999999999992	0.0
C 	33.20341398109537	17.749999999999993	0.0
C 	34.43317005446927	17.039999999999996	0.0
C 	35.66292612784318	17.749999999999996	0.0
C 	36.892682201217085	17.039999999999996	0.0
C 	38.122438274590984	17.749999999999996	0.0
C 	39.35219434796488	17.039999999999992	0.0
C 	40.58195042133879	17.749999999999993	0.0
C 	41.811706494712695	17.039999999999992	0.0
C 	43.041462568086594	17.749999999999993	0.0
C 	44.2712186414605	17.039999999999996	0.0
C 	45.500974714834406	17.749999999999996	0.0
C 	46.7307307882083	17.039999999999992	0.0
C 	47.960486861582204	17.749999999999993	0.0
C 	49.19024293495611	17.039999999999992	0.0
C 	50.41999900833002	17.749999999999993	0.0
C 	51.649755081703915	17.039999999999996	0.0
C 	52.87951115507782	17.749999999999996	0.0
C 	54.10926722845172	17.039999999999992	0.0
C 	55.33902330182562	17.749999999999993	0.0
C 	56.568779375199526	17.039999999999996	0.0
C 	57.79853544857343	17.749999999999996	0.0
C 	59.028291521947324	17.039999999999992	0.0
C 	60.25804759532123	17.749999999999993	0.0
C 	61.487803668695136	17.039999999999996	0.0
C 	62.71755974206904	17.749999999999996	0.0
C 	63.94731581544294	17.04	0.0
C 	65.17707188881684	17.749999999999993	0.0
C 	66.40682796219075	17.039999999999996	0.0
C 	67.63658403556464	17.74999999999999	0.0
C 	68.86634010893856	17.03999999999999	0.0
C 	70.09609618231246	17.74999999999999	0.0
C 	11.067804660365125	19.169999999999995	0.0
C 	12.297560733739026	19.879999999999995	0.0
C 	13.52731680711293	19.169999999999995	0.0
C 	14.757072880486831	19.879999999999995	0.0
C 	15.986828953860737	19.169999999999998	0.0
C 	17.216585027234636	19.879999999999992	0.0
C 	18.446341100608542	19.169999999999995	0.0
C 	19.676097173982445	19.879999999999995	0.0
C 	20.905853247356347	19.169999999999995	0.0
C 	22.135609320730246	19.879999999999995	0.0
C 	23.365365394104153	19.169999999999995	0.0
C 	24.59512146747805	19.879999999999995	0.0
C 	25.824877540851958	19.169999999999995	0.0
C 	27.05463361422586	19.879999999999995	0.0
C 	28.284389687599763	19.169999999999995	0.0
C 	29.51414576097367	19.879999999999995	0.0
C 	30.743901834347565	19.16999999999999	0.0
C 	31.97365790772147	19.879999999999992	0.0
C 	33.20341398109537	19.169999999999995	0.0
C 	34.43317005446927	19.879999999999992	0.0
C 	35.66292612784318	19.169999999999995	0.0
C 	36.89268220121708	19.879999999999992	0.0
C 	38.122438274590984	19.169999999999995	0.0
C 	39.35219434796488	19.879999999999992	0.0
C 	40.58195042133879	19.16999999999999	0.0
C 	41.81170649471269	19.87999999999999	0.0
C 	43.0414625680866	19.169999999999995	0.0
C 	44.27121864146049	19.879999999999992	0.0
C 	45.5009747148344	19.16999999999999	0.0
C 	46.730730788208305	19.879999999999992	0.0
C 	47.960486861582204	19.169999999999995	0.0
C 	49.1902429349561	19.879999999999992	0.0
C 	50.41999900833002	19.169999999999995	0.0
C 	51.649755081703915	19.879999999999992	0.0
C 	52.879511155077815	19.16999999999999	0.0
C 	54.10926722845172	19.879999999999992	0.0
C 	55.33902330182562	19.16999999999999	0.0
C 	56.56877937519952	19.879999999999992	0.0
C 	57.79853544857343	19.169999999999995	0.0
C 	59.02829152194733	19.879999999999992	0.0
C 	60.25804759532123	19.169999999999995	0.0
C 	61.48780366869513	19.879999999999992	0.0
C 	62.717559742069035	19.16999999999999	0.0
C 	63.94731581544294	19.879999999999992	0.0
C 	65.17707188881684	19.169999999999995	0.0
C 	66.40682796219075	19.87999999999999	0.0
C 	67.63658403556465	19.169999999999995	0.0
C 	68.86634010893854	19.87999999999999	0.0
C 	70.09609618231245	19.16999999999999	0.0
C 	71.32585225568636	19.879999999999992	0.0
C 	12.297560733739028	21.299999999999994	0.0
C 	13.527316807112932	22.009999999999994	0.0
C 	14.757072880486831	21.299999999999994	0.0
C 	15.986828953860735	22.009999999999994	0.0
C 	17.216585027234636	21.299999999999994	0.0
C 	18.44634110060854	22.009999999999994	0.0
C 	19.676097173982445	21.299999999999994	0.0
C 	20.905853247356347	22.009999999999994	0.0
C 	22.13560932073025	21.299999999999994	0.0
C 	23.365365394104153	22.009999999999994	0.0
C 	24.595121467478055	21.299999999999994	0.0
C 	25.824877540851958	22.009999999999994	0.0
C 	27.05463361422586	21.299999999999994	0.0
C 	28.284389687599766	22.009999999999994	0.0
C 	29.514145760973662	21.29999999999999	0.0
C 	30.743901834347568	22.00999999999999	0.0
C 	31.97365790772147	21.299999999999994	0.0
C 	33.20341398109537	22.009999999999994	0.0
C 	34.43317005446928	21.299999999999994	0.0
C 	35.662926127843185	22.009999999999994	0.0
C 	36.89268220121708	21.299999999999994	0.0
C 	38.122438274590984	22.009999999999994	0.0
C 	39.35219434796489	21.299999999999994	0.0
C 	40.58195042133879	22.009999999999994	0.0
C 	41.811706494712695	21.299999999999994	0.0
C 	43.0414625680866	22.009999999999994	0.0
C 	44.2712186414605	21.29999999999999	0.0
C 	45.5009747148344	22.00999999999999	0.0
C 	46.730730788208305	21.299999999999994	0.0
C 	47.96048686158221	22.009999999999994	0.0
C 	49.19024293495611	21.299999999999994	0.0
C 	50.41999900833002	22.009999999999994	0.0
C 	51.649755081703915	21.299999999999994	0.0
C 	52.879511155077815	22.00999999999999	0.0
C 	54.10926722845172	21.299999999999994	0.0
C 	55.33902330182563	22.009999999999994	0.0
C 	56.568779375199526	21.29999999999999	0.0
C 	57.798535448573425	22.00999999999999	0.0
C 	59.02829152194733	21.299999999999994	0.0
C 	60.25804759532124	22.009999999999994	0.0
C 	61.48780366869513	21.29999999999999	0.0
C 	62.717559742069035	22.00999999999999	0.0
C 	63.94731581544294	21.299999999999994	0.0
C 	65.17707188881684	22.009999999999987	0.0
C 	66.40682796219075	21.299999999999994	0.0
C 	67.63658403556465	22.009999999999994	0.0
C 	68.86634010893854	21.29999999999999	0.0
C 	70.09609618231245	22.00999999999999	0.0
C 	71.32585225568636	21.299999999999983	0.0
C 	72.55560832906026	22.00999999999999	0.0
C 	13.527316807112932	23.429999999999996	0.0
C 	14.757072880486836	24.139999999999997	0.0
C 	15.986828953860737	23.429999999999996	0.0
C 	17.216585027234643	24.139999999999997	0.0
C 	18.446341100608542	23.429999999999996	0.0
C 	19.676097173982445	24.139999999999997	0.0
C 	20.90585324735635	23.429999999999996	0.0
C 	22.135609320730254	24.139999999999997	0.0
C 	23.365365394104156	23.429999999999993	0.0
C 	24.595121467478062	24.139999999999997	0.0
C 	25.824877540851958	23.429999999999993	0.0
C 	27.054633614225864	24.139999999999993	0.0
C 	28.284389687599766	23.429999999999996	0.0
C 	29.514145760973673	24.139999999999997	0.0
C 	30.743901834347575	23.429999999999996	0.0
C 	31.973657907721478	24.139999999999997	0.0
C 	33.20341398109537	23.429999999999993	0.0
C 	34.43317005446928	24.139999999999993	0.0
C 	35.66292612784318	23.429999999999993	0.0
C 	36.892682201217085	24.139999999999993	0.0
C 	38.122438274590984	23.429999999999993	0.0
C 	39.35219434796489	24.139999999999993	0.0
C 	40.58195042133879	23.429999999999996	0.0
C 	41.811706494712695	24.139999999999993	0.0
C 	43.041462568086594	23.42999999999999	0.0
C 	44.2712186414605	24.13999999999999	0.0
C 	45.5009747148344	23.429999999999993	0.0
C 	46.730730788208305	24.139999999999993	0.0
C 	47.96048686158221	23.429999999999993	0.0
C 	49.19024293495611	24.139999999999993	0.0
C 	50.41999900833001	23.429999999999993	0.0
C 	51.649755081703915	24.13999999999999	0.0
C 	52.87951115507782	23.429999999999993	0.0
C 	54.10926722845172	24.139999999999993	0.0
C 	55.33902330182563	23.429999999999993	0.0
C 	56.56877937519953	24.139999999999993	0.0
C 	57.798535448573425	23.429999999999993	0.0
C 	59.02829152194733	24.139999999999993	0.0
C 	60.25804759532124	23.429999999999993	0.0
C 	61.487803668695136	24.13999999999999	0.0
C 	62.71755974206904	23.429999999999993	0.0
C 	63.947315815442934	24.139999999999986	0.0
C 	65.17707188881684	23.429999999999993	0.0
C 	66.40682796219075	24.139999999999993	0.0
C 	67.63658403556464	23.42999999999999	0.0
C 	68.86634010893856	24.139999999999997	0.0
C 	70.09609618231245	23.42999999999999	0.0
C 	71.32585225568636	24.139999999999997	0.0
C 	72.55560832906026	23.42999999999999	0.0
C 	73.78536440243417	24.13999999999999	0.0
C 	14.757072880486835	25.559999999999995	0.0
C 	15.986828953860735	26.269999999999996	0.0
C 	17.21658502723464	25.559999999999995	0.0
C 	18.44634110060854	26.269999999999996	0.0
C 	19.676097173982445	25.56	0.0
C 	20.905853247356344	26.269999999999996	0.0
C 	22.13560932073025	25.56	0.0
C 	23.365365394104153	26.269999999999996	0.0
C 	24.595121467478055	25.559999999999995	0.0
C 	25.824877540851958	26.269999999999996	0.0
C 	27.054633614225857	25.559999999999995	0.0
C 	28.28438968759976	26.269999999999996	0.0
C 	29.514145760973665	25.559999999999995	0.0
C 	30.743901834347568	26.269999999999996	0.0
C 	31.973657907721474	25.559999999999995	0.0
C 	33.20341398109538	26.269999999999996	0.0
C 	34.43317005446927	25.55999999999999	0.0
C 	35.66292612784318	26.269999999999992	0.0
C 	36.892682201217085	25.559999999999995	0.0
C 	38.12243827459098	26.269999999999992	0.0
C 	39.35219434796489	25.559999999999995	0.0
C 	40.58195042133879	26.269999999999992	0.0
C 	41.81170649471269	25.55999999999999	0.0
C 	43.041462568086594	26.269999999999992	0.0
C 	44.2712186414605	25.55999999999999	0.0
C 	45.5009747148344	26.26999999999999	0.0
C 	46.730730788208305	25.559999999999995	0.0
C 	47.960486861582204	26.269999999999992	0.0
C 	49.19024293495611	25.55999999999999	0.0
C 	50.41999900833001	26.269999999999992	0.0
C 	51.649755081703915	25.559999999999995	0.0
C 	52.879511155077815	26.269999999999992	0.0
C 	54.10926722845172	25.559999999999995	0.0
C 	55.33902330182562	26.269999999999992	0.0
C 	56.568779375199526	25.55999999999999	0.0
C 	57.79853544857343	26.269999999999992	0.0
C 	59.028291521947324	25.55999999999999	0.0
C 	60.25804759532123	26.269999999999992	0.0
C 	61.487803668695136	25.559999999999995	0.0
C 	62.717559742069035	26.26999999999999	0.0
C 	63.94731581544294	25.55999999999999	0.0
C 	65.17707188881683	26.269999999999985	0.0
C 	66.40682796219075	25.55999999999999	0.0
C 	67.63658403556465	26.269999999999992	0.0
C 	68.86634010893856	25.559999999999995	0.0
C 	70.09609618231246	26.269999999999996	0.0
C 	71.32585225568636	25.559999999999995	0.0
C 	72.55560832906026	26.269999999999996	0.0
C 	73.78536440243415	25.559999999999988	0.0
C 	75.01512047580806	26.26999999999999	0.0
C 	15.986828953860735	27.689999999999994	0.0
C 	17.21658502723464	28.399999999999995	0.0
C 	18.446341100608542	27.689999999999994	0.0
C 	19.676097173982445	28.399999999999995	0.0
C 	20.905853247356344	27.689999999999994	0.0
C 	22.13560932073025	28.399999999999995	0.0
C 	23.365365394104153	27.689999999999994	0.0
C 	24.59512146747806	28.399999999999995	0.0
C 	25.824877540851954	27.689999999999994	0.0
C 	27.054633614225857	28.399999999999995	0.0
C 	28.284389687599763	27.689999999999994	0.0
C 	29.514145760973665	28.399999999999995	0.0
C 	30.74390183434757	27.689999999999994	0.0
C 	31.973657907721474	28.399999999999995	0.0
C 	33.20341398109537	27.68999999999999	0.0
C 	34.43317005446928	28.39999999999999	0.0
C 	35.66292612784318	27.689999999999994	0.0
C 	36.892682201217085	28.399999999999995	0.0
C 	38.122438274590984	27.689999999999994	0.0
C 	39.35219434796489	28.399999999999995	0.0
C 	40.58195042133879	27.689999999999994	0.0
C 	41.811706494712695	28.399999999999995	0.0
C 	43.041462568086594	27.689999999999994	0.0
C 	44.2712186414605	28.399999999999995	0.0
C 	45.500974714834406	27.689999999999994	0.0
C 	46.730730788208305	28.399999999999995	0.0
C 	47.960486861582204	27.68999999999999	0.0
C 	49.19024293495611	28.39999999999999	0.0
C 	50.41999900833002	27.689999999999994	0.0
C 	51.649755081703915	28.399999999999995	0.0
C 	52.87951115507782	27.689999999999994	0.0
C 	54.10926722845173	28.399999999999995	0.0
C 	55.33902330182562	27.68999999999999	0.0
C 	56.568779375199526	28.39999999999999	0.0
C 	57.79853544857343	27.689999999999994	0.0
C 	59.02829152194733	28.39999999999999	0.0
C 	60.25804759532124	27.689999999999994	0.0
C 	61.48780366869513	28.399999999999988	0.0
C 	62.717559742069035	27.689999999999994	0.0
C 	63.94731581544294	28.399999999999995	0.0
C 	65.17707188881684	27.68999999999999	0.0
C 	66.40682796219075	28.39999999999999	0.0
C 	67.63658403556464	27.689999999999987	0.0
C 	68.86634010893856	28.399999999999995	0.0
C 	70.09609618231245	27.689999999999994	0.0
C 	71.32585225568636	28.399999999999995	0.0
C 	72.55560832906026	27.68999999999999	0.0
C 	73.78536440243415	28.39999999999999	0.0
C 	75.01512047580808	27.689999999999994	0.0
C 	76.24487654918197	28.399999999999984	0.0
C 	17.21658502723464	29.819999999999997	0.0
C 	18.446341100608546	30.529999999999998	0.0
C 	19.676097173982445	29.819999999999997	0.0
C 	20.905853247356355	30.529999999999998	0.0
C 	22.13560932073025	29.819999999999993	0.0
C 	23.365365394104156	30.529999999999994	0.0
C 	24.59512146747806	29.819999999999997	0.0
C 	25.82487754085196	30.529999999999998	0.0
C 	27.054633614225867	29.819999999999997	0.0
C 	28.28438968759977	30.529999999999998	0.0
C 	29.514145760973665	29.819999999999997	0.0
C 	30.74390183434757	30.529999999999998	0.0
C 	31.973657907721474	29.819999999999997	0.0
C 	33.20341398109538	30.529999999999998	0.0
C 	34.43317005446928	29.819999999999997	0.0
C 	35.662926127843185	30.529999999999998	0.0
C 	36.892682201217085	29.819999999999993	0.0
C 	38.12243827459099	30.529999999999994	0.0
C 	39.35219434796488	29.819999999999993	0.0
C 	40.58195042133879	30.529999999999994	0.0
C 	41.811706494712695	29.819999999999993	0.0
C 	43.0414625680866	30.529999999999994	0.0
C 	44.2712186414605	29.819999999999993	0.0
C 	45.500974714834406	30.529999999999994	0.0
C 	46.730730788208305	29.81999999999999	0.0
C 	47.960486861582204	30.52999999999999	0.0
C 	49.19024293495611	29.819999999999993	0.0
C 	50.41999900833002	30.529999999999994	0.0
C 	51.649755081703915	29.819999999999993	0.0
C 	52.87951115507782	30.529999999999994	0.0
C 	54.10926722845172	29.819999999999993	0.0
C 	55.33902330182563	30.52999999999999	0.0
C 	56.568779375199526	29.819999999999993	0.0
C 	57.798535448573425	30.52999999999999	0.0
C 	59.02829152194734	29.819999999999993	0.0
C 	60.25804759532124	30.529999999999994	0.0
C 	61.487803668695136	29.819999999999993	0.0
C 	62.71755974206904	30.529999999999994	0.0
C 	63.947315815442934	29.81999999999999	0.0
C 	65.17707188881685	30.529999999999998	0.0
C 	66.40682796219073	29.819999999999986	0.0
C 	67.63658403556465	30.529999999999994	0.0
C 	68.86634010893856	29.819999999999993	0.0
C 	70.09609618231245	30.529999999999994	0.0
C 	71.32585225568637	29.819999999999997	0.0
C 	72.55560832906026	30.52999999999999	0.0
C 	73.78536440243417	29.819999999999997	0.0
C 	75.01512047580806	30.529999999999987	0.0
C 	76.24487654918197	29.81999999999999	0.0
C 	77.47463262255587	30.52999999999999	0.0
C 	18.446341100608542	31.949999999999996	0.0
C 	19.676097173982445	32.65999999999999	0.0
C 	20.905853247356347	31.949999999999992	0.0
C 	22.135609320730254	32.66	0.0
C 	23.365365394104156	31.949999999999996	0.0
C 	24.595121467478055	32.65999999999999	0.0
C 	25.824877540851958	31.949999999999992	0.0
C 	27.05463361422586	32.66	0.0
C 	28.284389687599766	31.949999999999996	0.0
C 	29.51414576097367	32.66	0.0
C 	30.743901834347568	31.949999999999992	0.0
C 	31.97365790772147	32.66	0.0
C 	33.20341398109537	31.949999999999992	0.0
C 	34.43317005446928	32.66	0.0
C 	35.66292612784318	31.949999999999996	0.0
C 	36.892682201217085	32.66	0.0
C 	38.122438274590984	31.949999999999992	0.0
C 	39.35219434796489	32.65999999999999	0.0
C 	40.58195042133879	31.949999999999992	0.0
C 	41.81170649471269	32.65999999999999	0.0
C 	43.0414625680866	31.949999999999996	0.0
C 	44.2712186414605	32.65999999999999	0.0
C 	45.5009747148344	31.949999999999992	0.0
C 	46.730730788208305	32.65999999999999	0.0
C 	47.96048686158221	31.949999999999992	0.0
C 	49.1902429349561	32.65999999999999	0.0
C 	50.41999900833002	31.949999999999992	0.0
C 	51.649755081703915	32.65999999999999	0.0
C 	52.879511155077815	31.949999999999992	0.0
C 	54.10926722845172	32.65999999999999	0.0
C 	55.33902330182563	31.949999999999992	0.0
C 	56.568779375199526	32.65999999999999	0.0
C 	57.79853544857343	31.949999999999992	0.0
C 	59.028291521947324	32.65999999999999	0.0
C 	60.25804759532124	31.949999999999992	0.0
C 	61.487803668695136	32.65999999999999	0.0
C 	62.717559742069035	31.94999999999999	0.0
C 	63.94731581544294	32.65999999999999	0.0
C 	65.17707188881685	31.949999999999992	0.0
C 	66.40682796219076	32.66	0.0
C 	67.63658403556465	31.949999999999992	0.0
C 	68.86634010893856	32.65999999999999	0.0
C 	70.09609618231245	31.94999999999999	0.0
C 	71.32585225568636	32.65999999999999	0.0
C 	72.55560832906026	31.949999999999996	0.0
C 	73.78536440243415	32.65999999999999	0.0
C 	75.01512047580806	31.949999999999992	0.0
C 	76.24487654918195	32.65999999999998	0.0
C 	77.47463262255587	31.949999999999985	0.0
C 	78.70438869592978	32.65999999999999	0.0
C 	19.676097173982445	34.07999999999999	0.0
C 	20.90585324735635	34.78999999999999	0.0
C 	22.135609320730254	34.07999999999999	0.0
C 	23.365365394104156	34.78999999999999	0.0
C 	24.595121467478055	34.07999999999999	0.0
C 	25.824877540851958	34.78999999999999	0.0
C 	27.054633614225864	34.07999999999999	0.0
C 	28.284389687599766	34.78999999999999	0.0
C 	29.514145760973665	34.07999999999999	0.0
C 	30.743901834347568	34.78999999999999	0.0
C 	31.97365790772147	34.07999999999999	0.0
C 	33.20341398109537	34.78999999999999	0.0
C 	34.43317005446928	34.07999999999999	0.0
C 	35.662926127843185	34.78999999999999	0.0
C 	36.89268220121708	34.07999999999999	0.0
C 	38.122438274590984	34.78999999999999	0.0
C 	39.35219434796489	34.07999999999999	0.0
C 	40.581950421338796	34.78999999999999	0.0
C 	41.811706494712695	34.07999999999999	0.0
C 	43.0414625680866	34.78999999999999	0.0
C 	44.2712186414605	34.07999999999999	0.0
C 	45.5009747148344	34.78999999999999	0.0
C 	46.730730788208305	34.07999999999999	0.0
C 	47.96048686158221	34.78999999999999	0.0
C 	49.19024293495611	34.07999999999999	0.0
C 	50.41999900833002	34.78999999999999	0.0
C 	51.649755081703915	34.07999999999999	0.0
C 	52.87951115507782	34.78999999999999	0.0
C 	54.10926722845172	34.07999999999999	0.0
C 	55.33902330182562	34.78999999999999	0.0
C 	56.56877937519953	34.07999999999999	0.0
C 	57.79853544857343	34.78999999999999	0.0
C 	59.02829152194733	34.07999999999999	0.0
C 	60.25804759532124	34.78999999999999	0.0
C 	61.487803668695136	34.07999999999999	0.0
C 	62.71755974206905	34.79	0.0
C 	63.947315815442934	34.079999999999984	0.0
C 	65.17707188881685	34.78999999999999	0.0
C 	66.40682796219075	34.07999999999999	0.0
C 	67.63658403556465	34.78999999999999	0.0
C 	68.86634010893854	34.07999999999999	0.0
C 	70.09609618231245	34.78999999999999	0.0
C 	71.32585225568636	34.07999999999999	0.0
C 	72.55560832906025	34.789999999999985	0.0
C 	73.78536440243417	34.07999999999999	0.0
C 	75.01512047580808	34.78999999999999	0.0
C 	76.24487654918197	34.07999999999999	0.0
C 	77.47463262255587	34.78999999999999	0.0
C 	78.70438869592977	34.079999999999984	0.0
C 	79.93414476930369	34.78999999999999	0.0
C 	20.90585324735635	36.209999999999994	0.0
C 	22.135609320730254	36.919999999999995	0.0
C 	23.36536539410416	36.209999999999994	0.0
C 	24.595121467478062	36.919999999999995	0.0
C 	25.82487754085196	36.209999999999994	0.0
C 	27.054633614225864	36.919999999999995	0.0
C 	28.284389687599766	36.209999999999994	0.0
C 	29.514145760973673	36.919999999999995	0.0
C 	30.743901834347575	36.209999999999994	0.0
C 	31.973657907721478	36.919999999999995	0.0
C 	33.20341398109537	36.209999999999994	0.0
C 	34.43317005446928	36.919999999999995	0.0
C 	35.662926127843185	36.209999999999994	0.0
C 	36.89268220121709	36.919999999999995	0.0
C 	38.12243827459099	36.209999999999994	0.0
C 	39.3521943479649	36.919999999999995	0.0
C 	40.581950421338796	36.209999999999994	0.0
C 	41.811706494712695	36.919999999999995	0.0
C 	43.041462568086594	36.209999999999994	0.0
C 	44.2712186414605	36.919999999999995	0.0
C 	45.500974714834406	36.209999999999994	0.0
C 	46.730730788208305	36.919999999999995	0.0
C 	47.96048686158221	36.209999999999994	0.0
C 	49.19024293495612	36.919999999999995	0.0
C 	50.41999900833002	36.20999999999999	0.0
C 	51.649755081703915	36.91999999999999	0.0
C 	52.87951115507782	36.209999999999994	0.0
C 	54.10926722845172	36.91999999999999	0.0
C 	55.33902330182563	36.209999999999994	0.0
C 	56.56877937519953	36.919999999999995	0.0
C 	57.79853544857343	36.20999999999999	0.0
C 	59.02829152194733	36.91999999999999	0.0
C 	60.25804759532123	36.20999999999999	0.0
C 	61.48780366869515	36.919999999999995	0.0
C 	62.71755974206904	36.209999999999994	0.0
C 	63.94731581544295	36.919999999999995	0.0
C 	65.17707188881684	36.209999999999994	0.0
C 	66.40682796219075	36.919999999999995	0.0
C 	67.63658403556467	36.209999999999994	0.0
C 	68.86634010893856	36.91999999999999	0.0
C 	70.09609618231246	36.209999999999994	0.0
C 	71.32585225568636	36.91999999999999	0.0
C 	72.55560832906026	36.209999999999994	0.0
C 	73.78536440243417	36.919999999999995	0.0
C 	75.01512047580806	36.20999999999999	0.0
C 	76.24487654918198	36.919999999999995	0.0
C 	77.47463262255586	36.20999999999999	0.0
C 	78.70438869592978	36.919999999999995	0.0
C 	79.93414476930369	36.20999999999999	0.0
C 	81.16390084267759	36.91999999999999	0.0
C 	22.13560932073025	38.33999999999999	0.0
C 	23.365365394104153	39.04999999999999	0.0
C 	24.59512146747806	38.33999999999999	0.0
C 	25.82487754085196	39.04999999999999	0.0
C 	27.05463361422586	38.33999999999999	0.0
C 	28.284389687599763	39.04999999999999	0.0
C 	29.514145760973665	38.33999999999999	0.0
C 	30.74390183434757	39.04999999999999	0.0
C 	31.973657907721474	38.339999999999996	0.0
C 	33.20341398109538	39.04999999999999	0.0
C 	34.43317005446927	38.33999999999999	0.0
C 	35.66292612784318	39.04999999999999	0.0
C 	36.892682201217085	38.33999999999999	0.0
C 	38.12243827459099	39.04999999999999	0.0
C 	39.35219434796489	38.33999999999999	0.0
C 	40.581950421338796	39.04999999999999	0.0
C 	41.811706494712695	38.33999999999999	0.0
C 	43.0414625680866	39.04999999999999	0.0
C 	44.27121864146049	38.33999999999999	0.0
C 	45.5009747148344	39.04999999999999	0.0
C 	46.730730788208305	38.33999999999999	0.0
C 	47.960486861582204	39.04999999999999	0.0
C 	49.19024293495611	38.33999999999999	0.0
C 	50.41999900833002	39.04999999999999	0.0
C 	51.649755081703915	38.33999999999999	0.0
C 	52.879511155077815	39.04999999999999	0.0
C 	54.10926722845173	38.33999999999999	0.0
C 	55.33902330182562	39.04999999999998	0.0
C 	56.568779375199526	38.33999999999999	0.0
C 	57.79853544857343	39.04999999999999	0.0
C 	59.02829152194733	38.33999999999999	0.0
C 	60.25804759532123	39.04999999999999	0.0
C 	61.48780366869513	38.33999999999998	0.0
C 	62.71755974206905	39.04999999999999	0.0
C 	63.94731581544294	38.33999999999999	0.0
C 	65.17707188881685	39.04999999999999	0.0
C 	66.40682796219075	38.33999999999999	0.0
C 	67.63658403556465	39.04999999999999	0.0
C 	68.86634010893856	38.33999999999999	0.0
C 	70.09609618231245	39.04999999999998	0.0
C 	71.32585225568636	38.33999999999999	0.0
C 	72.55560832906025	39.04999999999998	0.0
C 	73.78536440243415	38.33999999999999	0.0
C 	75.01512047580806	39.04999999999999	0.0
C 	76.24487654918197	38.33999999999999	0.0
C 	77.47463262255587	39.05	0.0
C 	78.70438869592977	38.33999999999998	0.0
C 	79.93414476930369	39.04999999999999	0.0
C 	81.16390084267758	38.33999999999998	0.0
C 	82.39365691605148	39.04999999999998	0.0
C 	23.365365394104156	40.46999999999999	0.0
C 	24.59512146747806	41.17999999999999	0.0
C 	25.82487754085196	40.46999999999999	0.0
C 	27.054633614225867	41.17999999999999	0.0
C 	28.284389687599763	40.46999999999999	0.0
C 	29.51414576097367	41.17999999999999	0.0
C 	30.74390183434757	40.46999999999999	0.0
C 	31.973657907721474	41.17999999999999	0.0
C 	33.20341398109537	40.46999999999999	0.0
C 	34.43317005446928	41.17999999999999	0.0
C 	35.66292612784318	40.46999999999999	0.0
C 	36.892682201217085	41.17999999999999	0.0
C 	38.12243827459099	40.46999999999999	0.0
C 	39.3521943479649	41.17999999999999	0.0
C 	40.58195042133879	40.46999999999999	0.0
C 	41.811706494712695	41.17999999999999	0.0
C 	43.0414625680866	40.46999999999999	0.0
C 	44.2712186414605	41.17999999999999	0.0
C 	45.500974714834406	40.46999999999999	0.0
C 	46.73073078820831	41.17999999999999	0.0
C 	47.960486861582204	40.46999999999999	0.0
C 	49.19024293495611	41.17999999999999	0.0
C 	50.41999900833002	40.46999999999999	0.0
C 	51.649755081703915	41.179999999999986	0.0
C 	52.87951115507782	40.46999999999999	0.0
C 	54.10926722845173	41.17999999999999	0.0
C 	55.33902330182563	40.46999999999999	0.0
C 	56.568779375199526	41.17999999999999	0.0
C 	57.798535448573425	40.469999999999985	0.0
C 	59.028291521947345	41.17999999999999	0.0
C 	60.25804759532124	40.46999999999999	0.0
C 	61.48780366869514	41.17999999999999	0.0
C 	62.71755974206904	40.46999999999999	0.0
C 	63.94731581544295	41.17999999999999	0.0
C 	65.17707188881685	40.46999999999999	0.0
C 	66.40682796219075	41.179999999999986	0.0
C 	67.63658403556465	40.46999999999999	0.0
C 	68.86634010893854	41.179999999999986	0.0
C 	70.09609618231246	40.46999999999999	0.0
C 	71.32585225568636	41.17999999999999	0.0
C 	72.55560832906026	40.469999999999985	0.0
C 	73.78536440243417	41.179999999999986	0.0
C 	75.01512047580806	40.469999999999985	0.0
C 	76.24487654918198	41.17999999999999	0.0
C 	77.47463262255587	40.46999999999999	0.0
C 	78.70438869592978	41.17999999999999	0.0
C 	79.93414476930367	40.469999999999985	0.0
C 	81.16390084267758	41.179999999999986	0.0
C 	82.3936569160515	40.46999999999999	0.0
C 	83.62341298942539	41.179999999999986	0.0
C 	24.595121467478055	42.59999999999999	0.0
C 	25.82487754085196	43.30999999999999	0.0
C 	27.05463361422586	42.59999999999999	0.0
C 	28.284389687599766	43.30999999999999	0.0
C 	29.514145760973662	42.59999999999999	0.0
C 	30.743901834347568	43.30999999999999	0.0
C 	31.97365790772147	42.59999999999999	0.0
C 	33.20341398109537	43.30999999999999	0.0
C 	34.43317005446927	42.59999999999999	0.0
C 	35.66292612784318	43.30999999999999	0.0
C 	36.89268220121708	42.59999999999999	0.0
C 	38.122438274590984	43.30999999999999	0.0
C 	39.35219434796489	42.59999999999999	0.0
C 	40.581950421338796	43.30999999999999	0.0
C 	41.81170649471269	42.59999999999999	0.0
C 	43.041462568086594	43.30999999999999	0.0
C 	44.2712186414605	42.59999999999999	0.0
C 	45.5009747148344	43.30999999999999	0.0
C 	46.730730788208305	42.59999999999999	0.0
C 	47.96048686158221	43.30999999999999	0.0
C 	49.19024293495611	42.59999999999999	0.0
C 	50.41999900833001	43.30999999999999	0.0
C 	51.64975508170392	42.599999999999994	0.0
C 	52.879511155077815	43.30999999999999	0.0
C 	54.10926722845172	42.59999999999999	0.0
C 	55.33902330182563	43.30999999999999	0.0
C 	56.568779375199526	42.59999999999999	0.0
C 	57.798535448573425	43.30999999999999	0.0
C 	59.028291521947324	42.59999999999998	0.0
C 	60.258047595321244	43.30999999999999	0.0
C 	61.487803668695136	42.59999999999999	0.0
C 	62.71755974206904	43.30999999999999	0.0
C 	63.94731581544294	42.59999999999999	0.0
C 	65.17707188881684	43.30999999999999	0.0
C 	66.40682796219076	42.599999999999994	0.0
C 	67.63658403556465	43.30999999999999	0.0
C 	68.86634010893856	42.59999999999999	0.0
C 	70.09609618231245	43.30999999999998	0.0
C 	71.32585225568636	42.59999999999999	0.0
C 	72.55560832906026	43.30999999999999	0.0
C 	73.78536440243415	42.59999999999999	0.0
C 	75.01512047580806	43.30999999999999	0.0
C 	76.24487654918197	42.59999999999998	0.0
C 	77.47463262255587	43.30999999999999	0.0
C 	78.70438869592978	42.59999999999999	0.0
C 	79.93414476930367	43.30999999999999	0.0
C 	81.16390084267758	42.59999999999999	0.0
C 	82.39365691605148	43.30999999999999	0.0
C 	83.62341298942539	42.59999999999999	0.0
C 	84.85316906279928	43.30999999999998	0.0
C 	25.82487754085196	44.72999999999999	0.0
C 	27.054633614225864	45.43999999999999	0.0
C 	28.284389687599766	44.72999999999999	0.0
C 	29.514145760973673	45.43999999999999	0.0
C 	30.743901834347568	44.72999999999999	0.0
C 	31.97365790772147	45.43999999999999	0.0
C 	33.20341398109537	44.72999999999999	0.0
C 	34.43317005446928	45.43999999999999	0.0
C 	35.662926127843185	44.72999999999999	0.0
C 	36.892682201217085	45.43999999999999	0.0
C 	38.122438274590984	44.72999999999999	0.0
C 	39.35219434796489	45.43999999999999	0.0
C 	40.581950421338796	44.72999999999999	0.0
C 	41.811706494712695	45.43999999999999	0.0
C 	43.0414625680866	44.72999999999999	0.0
C 	44.27121864146051	45.43999999999999	0.0
C 	45.500974714834406	44.72999999999999	0.0
C 	46.730730788208305	45.43999999999999	0.0
C 	47.960486861582204	44.72999999999999	0.0
C 	49.19024293495611	45.43999999999998	0.0
C 	50.41999900833002	44.72999999999999	0.0
C 	51.64975508170391	45.43999999999998	0.0
C 	52.87951115507782	44.72999999999999	0.0
C 	54.10926722845172	45.43999999999999	0.0
C 	55.33902330182562	44.72999999999998	0.0
C 	56.568779375199526	45.43999999999998	0.0
C 	57.798535448573425	44.72999999999998	0.0
C 	59.02829152194734	45.43999999999999	0.0
C 	60.25804759532124	44.72999999999999	0.0
C 	61.48780366869514	45.43999999999999	0.0
C 	62.717559742069035	44.72999999999998	0.0
C 	63.94731581544294	45.43999999999998	0.0
C 	65.17707188881685	44.72999999999999	0.0
C 	66.40682796219075	45.43999999999998	0.0
C 	67.63658403556465	44.72999999999999	0.0
C 	68.86634010893856	45.43999999999999	0.0
C 	70.09609618231245	44.72999999999999	0.0
C 	71.32585225568636	45.43999999999998	0.0
C 	72.55560832906026	44.72999999999998	0.0
C 	73.78536440243417	45.43999999999999	0.0
C 	75.01512047580806	44.72999999999998	0.0
C 	76.24487654918198	45.43999999999999	0.0
C 	77.47463262255587	44.72999999999999	0.0
C 	78.70438869592978	45.43999999999999	0.0
C 	79.93414476930369	44.72999999999999	0.0
C 	81.16390084267758	45.43999999999998	0.0
C 	82.39365691605148	44.72999999999999	0.0
C 	83.62341298942538	45.43999999999998	0.0
C 	84.8531690627993	44.72999999999998	0.0
C 	86.08292513617319	45.43999999999998	0.0
C 	27.054633614225864	46.85999999999999	0.0
C 	28.28438968759977	47.56999999999999	0.0
C 	29.514145760973673	46.85999999999999	0.0
C 	30.74390183434758	47.56999999999999	0.0
C 	31.973657907721474	46.85999999999999	0.0
C 	33.20341398109538	47.56999999999999	0.0
C 	34.43317005446928	46.85999999999999	0.0
C 	35.662926127843185	47.56999999999999	0.0
C 	36.892682201217085	46.85999999999999	0.0
C 	38.122438274590984	47.56999999999999	0.0
C 	39.35219434796489	46.85999999999999	0.0
C 	40.581950421338796	47.56999999999999	0.0
C 	41.8117064947127	46.85999999999999	0.0
C 	43.0414625680866	47.56999999999999	0.0
C 	44.2712186414605	46.85999999999999	0.0
C 	45.500974714834406	47.56999999999999	0.0
C 	46.73073078820831	46.859999999999985	0.0
C 	47.960486861582204	47.569999999999986	0.0
C 	49.19024293495612	46.85999999999999	0.0
C 	50.41999900833002	47.56999999999999	0.0
C 	51.649755081703915	46.859999999999985	0.0
C 	52.87951115507782	47.569999999999986	0.0
C 	54.10926722845172	46.859999999999985	0.0
C 	55.339023301825634	47.56999999999999	0.0
C 	56.56877937519953	46.85999999999999	0.0
C 	57.79853544857344	47.56999999999999	0.0
C 	59.02829152194733	46.859999999999985	0.0
C 	60.25804759532124	47.569999999999986	0.0
C 	61.48780366869515	46.85999999999999	0.0
C 	62.71755974206904	47.569999999999986	0.0
C 	63.94731581544295	46.85999999999999	0.0
C 	65.17707188881685	47.56999999999999	0.0
C 	66.40682796219075	46.859999999999985	0.0
C 	67.63658403556465	47.569999999999986	0.0
C 	68.86634010893856	46.859999999999985	0.0
C 	70.09609618231246	47.56999999999999	0.0
C 	71.32585225568636	46.859999999999985	0.0
C 	72.55560832906028	47.56999999999999	0.0
C 	73.78536440243417	46.859999999999985	0.0
C 	75.01512047580808	47.569999999999986	0.0
C 	76.24487654918197	46.859999999999985	0.0
C 	77.47463262255587	47.569999999999986	0.0
C 	78.70438869592978	46.85999999999999	0.0
C 	79.93414476930367	47.569999999999986	0.0
C 	81.16390084267758	46.85999999999999	0.0
C 	82.39365691605148	47.56999999999999	0.0
C 	83.62341298942539	46.859999999999985	0.0
C 	84.8531690627993	47.569999999999986	0.0
C 	86.08292513617319	46.85999999999998	0.0
C 	87.31268120954711	47.569999999999986	0.0
C 	28.284389687599763	48.98999999999999	0.0
C 	29.51414576097367	49.69999999999999	0.0
C 	30.74390183434757	48.98999999999999	0.0
C 	31.973657907721478	49.69999999999999	0.0
C 	33.20341398109537	48.98999999999999	0.0
C 	34.43317005446928	49.69999999999999	0.0
C 	35.66292612784318	48.98999999999999	0.0
C 	36.892682201217085	49.69999999999999	0.0
C 	38.122438274590984	48.98999999999999	0.0
C 	39.35219434796488	49.69999999999999	0.0
C 	40.58195042133879	48.98999999999999	0.0
C 	41.811706494712695	49.69999999999999	0.0
C 	43.041462568086594	48.98999999999999	0.0
C 	44.2712186414605	49.69999999999999	0.0
C 	45.5009747148344	48.98999999999999	0.0
C 	46.730730788208305	49.69999999999998	0.0
C 	47.96048686158221	48.98999999999999	0.0
C 	49.1902429349561	49.69999999999998	0.0
C 	50.41999900833002	48.98999999999999	0.0
C 	51.64975508170392	49.69999999999999	0.0
C 	52.879511155077815	48.98999999999999	0.0
C 	54.10926722845172	49.69999999999999	0.0
C 	55.33902330182562	48.98999999999998	0.0
C 	56.56877937519953	49.69999999999999	0.0
C 	57.79853544857343	48.98999999999999	0.0
C 	59.02829152194734	49.69999999999999	0.0
C 	60.25804759532124	48.98999999999999	0.0
C 	61.487803668695136	49.69999999999999	0.0
C 	62.71755974206905	48.98999999999999	0.0
C 	63.94731581544294	49.69999999999998	0.0
C 	65.17707188881685	48.98999999999999	0.0
C 	66.40682796219075	49.69999999999999	0.0
C 	67.63658403556465	48.98999999999999	0.0
C 	68.86634010893856	49.69999999999999	0.0
C 	70.09609618231245	48.98999999999998	0.0
C 	71.32585225568637	49.69999999999999	0.0
C 	72.55560832906025	48.98999999999998	0.0
C 	73.78536440243417	49.69999999999999	0.0
C 	75.01512047580806	48.98999999999999	0.0
C 	76.24487654918197	49.69999999999999	0.0
C 	77.47463262255587	48.98999999999998	0.0
C 	78.70438869592978	49.69999999999998	0.0
C 	79.93414476930369	48.98999999999999	0.0
C 	81.16390084267758	49.69999999999998	0.0
C 	82.39365691605148	48.98999999999999	0.0
C 	83.62341298942539	49.69999999999999	0.0
C 	84.85316906279928	48.98999999999998	0.0
C 	86.08292513617319	49.69999999999998	0.0
C 	87.3126812095471	48.98999999999998	0.0
C 	88.542437282921	49.69999999999999	0.0
C 	29.51414576097367	51.11999999999999	0.0
C 	30.74390183434757	51.82999999999999	0.0
C 	31.973657907721474	51.11999999999999	0.0
C 	33.20341398109538	51.82999999999999	0.0
C 	34.43317005446928	51.11999999999999	0.0
C 	35.66292612784318	51.82999999999999	0.0
C 	36.892682201217085	51.11999999999999	0.0
C 	38.12243827459099	51.82999999999999	0.0
C 	39.35219434796489	51.12	0.0
C 	40.581950421338796	51.83	0.0
C 	41.811706494712695	51.11999999999999	0.0
C 	43.041462568086594	51.82999999999999	0.0
C 	44.2712186414605	51.12	0.0
C 	45.5009747148344	51.82999999999999	0.0
C 	46.73073078820831	51.11999999999999	0.0
C 	47.96048686158221	51.82999999999999	0.0
C 	49.19024293495611	51.11999999999999	0.0
C 	50.41999900833002	51.82999999999999	0.0
C 	51.649755081703915	51.11999999999998	0.0
C 	52.879511155077815	51.829999999999984	0.0
C 	54.10926722845171	51.11999999999999	0.0
C 	55.33902330182563	51.83	0.0
C 	56.568779375199526	51.11999999999999	0.0
C 	57.79853544857343	51.82999999999999	0.0
C 	59.02829152194733	51.11999999999999	0.0
C 	60.25804759532124	51.82999999999999	0.0
C 	61.48780366869514	51.11999999999999	0.0
C 	62.717559742069035	51.829999999999984	0.0
C 	63.94731581544295	51.11999999999999	0.0
C 	65.17707188881685	51.82999999999999	0.0
C 	66.40682796219075	51.11999999999999	0.0
C 	67.63658403556465	51.82999999999999	0.0
C 	68.86634010893854	51.11999999999998	0.0
C 	70.09609618231246	51.82999999999999	0.0
C 	71.32585225568636	51.11999999999999	0.0
C 	72.55560832906026	51.82999999999999	0.0
C 	73.78536440243417	51.11999999999999	0.0
C 	75.01512047580806	51.82999999999999	0.0
C 	76.24487654918198	51.11999999999999	0.0
C 	77.47463262255587	51.829999999999984	0.0
C 	78.70438869592978	51.11999999999999	0.0
C 	79.93414476930367	51.829999999999984	0.0
C 	81.16390084267758	51.11999999999999	0.0
C 	82.39365691605148	51.82999999999999	0.0
C 	83.62341298942538	51.11999999999998	0.0
C 	84.8531690627993	51.82999999999999	0.0
C 	86.08292513617319	51.11999999999998	0.0
C 	87.3126812095471	51.82999999999999	0.0
C 	88.542437282921	51.11999999999998	0.0
C 	89.7721933562949	51.829999999999984	0.0
C 	54.12713840821889	0.28650957665527516	2.15
C 	55.37149389388117	0.9705997938797046	2.15
C 	55.401232130115545	2.390288364413987	2.15
C 	56.645587615777835	3.0743785816384235	2.15
C 	56.6753258520122	4.494067152172706	2.15
C 	51.668165673128684	0.33801771274068443	2.15
C 	52.91252115879097	1.022107929965121	2.15
C 	52.942259395025346	2.4417965004994033	2.15
C 	54.18661488068763	3.125886717723833	2.15
C 	54.216353116921994	4.5455752882581155	2.15
C 	55.46070860258428	5.229665505482552	2.15
C 	55.49044683881865	6.649354076016834	2.15
C 	56.73480232448093	7.333444293241271	2.15
C 	56.764540560715304	8.753132863775553	2.15
C 	58.00889604637759	9.437223080999983	2.15
C 	58.03863428261196	10.856911651534265	2.15
C 	59.28298976827424	11.541001868758702	2.15
C 	59.31272800450861	12.960690439292984	2.15
C 	60.557083490170896	13.64478065651742	2.15
C 	60.58682172640527	15.064469227051703	2.15
C 	61.83117721206755	15.748559444276133	2.15
C 	61.86091544830192	17.168248014810416	2.15
C 	63.105270933964206	17.852338232034853	2.15
C 	63.13500917019857	19.272026802569133	2.15
C 	64.37936465586085	19.95611701979357	2.15
C 	64.40910289209522	21.375805590327854	2.15
C 	65.6534583777575	22.059895807552284	2.15
C 	65.68319661399187	23.479584378086564	2.15
C 	66.92755209965418	24.163674595310994	2.15
C 	66.95729033588854	25.583363165845277	2.15
C 	68.20164582155083	26.26745338306972	2.15
C 	68.23138405778519	27.687141953604	2.15
C 	69.47573954344747	28.37123217082843	2.15
C 	69.50547777968184	29.790920741362715	2.15
C 	70.74983326534414	30.475010958587145	2.15
C 	70.7795715015785	31.894699529121425	2.15
C 	72.02392698724078	32.57878974634587	2.15
C 	72.05366522347515	33.99847831688015	2.15
C 	73.29802070913742	34.68256853410458	2.15
C 	73.32775894537178	36.102257104638866	2.15
C 	74.57211443103408	36.786347321863296	2.15
C 	74.60185266726845	38.20603589239758	2.15
C 	49.209192938038484	0.3895258488260939	2.15
C 	50.45354842370076	1.0736160660505305	2.15
C 	50.48328665993513	2.493304636584813	2.15
C 	51.72764214559742	3.1773948538092496	2.15
C 	51.75738038183179	4.5970834243435315	2.15
C 	53.00173586749408	5.281173641567961	2.15
C 	53.03147410372844	6.700862212102244	2.15
C 	54.27582958939073	7.38495242932668	2.15
C 	54.305567825625104	8.804640999860963	2.15
C 	55.54992331128739	9.4887312170854	2.15
C 	55.57966154752175	10.908419787619682	2.15
C 	56.824017033184035	11.592510004844112	2.15
C 	56.8537552694184	13.012198575378394	2.15
C 	58.09811075508069	13.69628879260283	2.15
C 	58.12784899131506	15.115977363137112	2.15
C 	59.37220447697735	15.80006758036155	2.15
C 	59.40194271321172	17.219756150895833	2.15
C 	60.64629819887399	17.903846368120263	2.15
C 	60.67603643510836	19.323534938654543	2.15
C 	61.92039192077065	20.00762515587898	2.15
C 	61.95013015700502	21.427313726413264	2.15
C 	63.19448564266731	22.1114039436377	2.15
C 	63.224223878901675	23.53109251417198	2.15
C 	64.46857936456396	24.21518273139641	2.15
C 	64.49831760079833	25.634871301930694	2.15
C 	65.74267308646063	26.318961519155124	2.15
C 	65.77241132269499	27.738650089689404	2.15
C 	67.01676680835726	28.42274030691385	2.15
C 	67.04650504459163	29.842428877448132	2.15
C 	68.29086053025392	30.52651909467256	2.15
C 	68.32059876648829	31.946207665206842	2.15
C 	69.56495425215059	32.63029788243127	2.15
C 	69.59469248838495	34.049986452965555	2.15
C 	70.83904797404723	34.73407667019	2.15
C 	70.8687862102816	36.15376524072428	2.15
C 	72.11314169594388	36.83785545794871	2.15
C 	72.14287993217825	38.257544028483	2.15
C 	73.38723541784053	38.94163424570742	2.15
C 	73.4169736540749	40.3613228162417	2.15
C 	46.75022020294828	0.4410339849115034	2.15
C 	47.99457568861057	1.1251242021359327	2.15
C 	48.02431392484494	2.544812772670215	2.15
C 	49.26866941050722	3.2289029898946517	2.15
C 	49.29840764674159	4.648591560428934	2.15
C 	50.54276313240386	5.332681777653371	2.15
C 	50.57250136863823	6.752370348187653	2.15
C 	51.81685685430052	7.436460565412083	2.15
C 	51.84659509053489	8.856149135946366	2.15
C 	53.09095057619718	9.540239353170803	2.15
C 	53.120688812431546	10.959927923705084	2.15
C 	54.365044298093835	11.644018140929521	2.15
C 	54.3947825343282	13.063706711463803	2.15
C 	55.63913801999048	13.747796928688233	2.15
C 	55.668876256224856	15.167485499222515	2.15
C 	56.91323174188714	15.851575716446952	2.15
C 	56.9429699781215	17.271264286981236	2.15
C 	58.18732546378379	17.95535450420567	2.15
C 	58.21706370001816	19.375043074739953	2.15
C 	59.46141918568044	20.059133291964383	2.15
C 	59.491157421914814	21.478821862498666	2.15
C 	60.7355129075771	22.162912079723103	2.15
C 	60.76525114381147	23.582600650257383	2.15
C 	62.00960662947375	24.26669086748182	2.15
C 	62.03934486570812	25.686379438016104	2.15
C 	63.283700351370406	26.370469655240534	2.15
C 	63.31343858760478	27.790158225774814	2.15
C 	64.55779407326706	28.474248442999244	2.15
C 	64.58753230950143	29.893937013533527	2.15
C 	65.83188779516371	30.57802723075797	2.15
C 	65.86162603139807	31.99771580129225	2.15
C 	67.10598151706039	32.68180601851668	2.15
C 	67.13571975329475	34.101494589050965	2.15
C 	68.38007523895702	34.785584806275395	2.15
C 	68.40981347519138	36.20527337680968	2.15
C 	69.65416896085368	36.88936359403412	2.15
C 	69.68390719708805	38.3090521645684	2.15
C 	70.92826268275034	38.99314238179283	2.15
C 	70.95800091898471	40.41283095232711	2.15
C 	72.20235640464698	41.09692116955154	2.15
C 	72.23209464088134	42.516609740085826	2.15
C 	44.29124746785807	0.4925421209969128	2.15
C 	45.53560295352035	1.1766323382213495	2.15
C 	45.565341189754726	2.596320908755632	2.15
C 	46.809696675417015	3.2804111259800615	2.15
C 	46.83943491165138	4.700099696514344	2.15
C 	48.08379039731367	5.38418991373878	2.15
C 	48.113528633548036	6.803878484273063	2.15
C 	49.35788411921032	7.4879687014975	2.15
C 	49.38762235544469	8.907657272031782	2.15
C 	50.631977841106966	9.59174748925621	2.15
C 	50.66171607734133	11.011436059790494	2.15
C 	51.90607156300362	11.69552627701493	2.15
C 	51.93580979923799	13.115214847549213	2.15
C 	53.180165284900276	13.79930506477365	2.15
C 	53.20990352113465	15.218993635307932	2.15
C 	54.45425900679694	15.903083852532362	2.15
C 	54.483997243031304	17.322772423066642	2.15
C 	55.72835272869358	18.00686264029108	2.15
C 	55.758090964927945	19.426551210825362	2.15
C 	57.002446450590234	20.1106414280498	2.15
C 	57.03218468682461	21.530329998584083	2.15
C 	58.2765401724869	22.21442021580851	2.15
C 	58.30627840872126	23.634108786342793	2.15
C 	59.55063389438355	24.31819900356723	2.15
C 	59.58037213061792	25.737887574101514	2.15
C 	60.82472761628019	26.42197779132595	2.15
C 	60.854465852514565	27.84166636186023	2.15
C 	62.098821338176855	28.52575657908466	2.15
C 	62.12855957441122	29.945445149618944	2.15
C 	63.37291506007351	30.629535366843374	2.15
C 	63.402653296307875	32.049223937377654	2.15
C 	64.64700878197017	32.7333141546021	2.15
C 	64.67674701820454	34.15300272513638	2.15
C 	65.92110250386682	34.83709294236081	2.15
C 	65.95084074010119	36.256781512895095	2.15
C 	67.19519622576347	36.940871730119525	2.15
C 	67.22493446199783	38.3605603006538	2.15
C 	68.46928994766013	39.044650517878246	2.15
C 	68.4990281838945	40.46433908841253	2.15
C 	69.74338366955678	41.14842930563696	2.15
C 	69.77312190579114	42.56811787617124	2.15
C 	71.01747739145344	43.25220809339567	2.15
C 	71.0472156276878	44.67189666392996	2.15
C 	41.832274732767864	0.5440502570823221	2.15
C 	43.076630218430154	1.2281404743067517	2.15
C 	43.106368454664526	2.647829044841034	2.15
C 	44.35072394032681	3.3319192620654707	2.15
C 	44.380462176561174	4.7516078325997535	2.15
C 	45.62481766222346	5.4356980498241825	2.15
C 	45.65455589845782	6.855386620358465	2.15
C 	46.89891138412011	7.539476837582901	2.15
C 	46.928649620354484	8.959165408117183	2.15
C 	48.173005106016774	9.64325562534162	2.15
C 	48.20274334225114	11.062944195875902	2.15
C 	49.44709882791342	11.747034413100332	2.15
C 	49.47683706414779	13.166722983634616	2.15
C 	50.72119254981007	13.85081320085905	2.15
C 	50.75093078604444	15.270501771393334	2.15
C 	51.995286271706725	15.95459198861777	2.15
C 	52.02502450794109	17.37428055915205	2.15
C 	53.26937999360338	18.05837077637648	2.15
C 	53.299118229837745	19.478059346910765	2.15
C 	54.54347371550003	20.162149564135202	2.15
C 	54.5732119517344	21.581838134669482	2.15
C 	55.81756743739669	22.26592835189392	2.15
C 	55.847305673631055	23.685616922428203	2.15
C 	57.09166115929334	24.369707139652633	2.15
C 	57.1213993955277	25.789395710186916	2.15
C 	58.36575488118999	26.47348592741135	2.15
C 	58.395493117424365	27.893174497945633	2.15
C 	59.63984860308665	28.57726471517007	2.15
C 	59.66958683932101	29.996953285704354	2.15
C 	60.9139423249833	30.681043502928784	2.15
C 	60.94368056121767	32.100732073463064	2.15
C 	62.18803604687996	32.784822290687494	2.15
C 	62.21777428311432	34.20451086122178	2.15
C 	63.46212976877661	34.88860107844622	2.15
C 	63.49186800501098	36.308289648980505	2.15
C 	64.73622349067327	36.992379866204935	2.15
C 	64.76596172690763	38.41206843673921	2.15
C 	66.01031721256992	39.09615865396364	2.15
C 	66.04005544880428	40.515847224497925	2.15
C 	67.28441093446658	41.19993744172237	2.15
C 	67.31414917070094	42.61962601225665	2.15
C 	68.55850465636323	43.30371622948108	2.15
C 	68.58824289259759	44.723404800015366	2.15
C 	69.83259837825989	45.407495017239796	2.15
C 	39.37330199767766	0.5955583931677315	2.15
C 	40.61765748333994	1.2796486103921683	2.15
C 	40.64739571957431	2.6993371809264506	2.15
C 	41.8917512052366	3.38342739815088	2.15
C 	41.92148944147097	4.803115968685162	2.15
C 	43.16584492713326	5.487206185909599	2.15
C 	43.19558316336762	6.906894756443881	2.15
C 	44.439938649029905	7.590984973668311	2.15
C 	44.46967688526428	9.010673544202593	2.15
C 	45.71403237092656	9.69476376142703	2.15
C 	45.743770607160926	11.114452331961312	2.15
C 	46.988126092823215	11.798542549185749	2.15
C 	47.01786432905758	13.21823111972003	2.15
C 	48.26221981471987	13.90232133694446	2.15
C 	48.29195805095424	15.322009907478742	2.15
C 	49.53631353661653	16.00610012470318	2.15
C 	49.5660517728509	17.42578869523746	2.15
C 	50.81040725851317	18.109878912461898	2.15
C 	50.84014549474754	19.529567482996182	2.15
C 	52.08450098040982	20.21365770022061	2.15
C 	52.114239216644194	21.633346270754892	2.15
C 	53.35859470230648	22.31743648797933	2.15
C 	53.38833293854085	23.737125058513612	2.15
C 	54.63268842420314	24.42121527573805	2.15
C 	54.662426660437504	25.84090384627233	2.15
C 	55.90678214609978	26.52499406349676	2.15
C 	55.93652038233415	27.944682634031043	2.15
C 	57.18087586799644	28.62877285125548	2.15
C 	57.21061410423081	30.048461421789764	2.15
C 	58.454969589893096	30.732551639014197	2.15
C 	58.48470782612746	32.15224020954848	2.15
C 	59.72906331178975	32.83633042677291	2.15
C 	59.758801548024124	34.256018997307194	2.15
C 	61.00315703368641	34.940109214531624	2.15
C 	61.03289526992078	36.35979778506591	2.15
C 	62.277250755583054	37.04388800229035	2.15
C 	62.30698899181742	38.46357657282463	2.15
C 	63.55134447747971	39.14766679004906	2.15
C 	63.58108271371408	40.56735536058334	2.15
C 	64.82543819937636	41.25144557780777	2.15
C 	64.85517643561073	42.671134148342055	2.15
C 	66.09953192127303	43.3552243655665	2.15
C 	66.12927015750739	44.77491293610078	2.15
C 	67.37362564316967	45.45900315332521	2.15
C 	36.91432926258745	0.6470665292531375	2.15
C 	38.15868474824974	1.331156746477574	2.15
C 	38.18842298448411	2.7508453170118528	2.15
C 	39.432778470146395	3.434935534236293	2.15
C 	39.46251670638076	4.854624104770572	2.15
C 	40.70687219204304	5.538714321995005	2.15
C 	40.73661042827741	6.958402892529284	2.15
C 	41.9809659139397	7.642493109753724	2.15
C 	42.01070415017407	9.062181680288003	2.15
C 	43.25505963583636	9.746271897512436	2.15
C 	43.284797872070726	11.165960468046714	2.15
C 	44.52915335773301	11.850050685271155	2.15
C 	44.558891593967374	13.269739255805433	2.15
C 	45.80324707962966	13.953829473029874	2.15
C 	45.83298531586403	15.373518043564152	2.15
C 	47.07734080152632	16.057608260788587	2.15
C 	47.107079037760684	17.477296831322864	2.15
C 	48.351434523422974	18.161387048547304	2.15
C 	48.38117275965734	19.581075619081584	2.15
C 	49.62552824531963	20.265165836306025	2.15
C 	49.655266481554	21.6848544068403	2.15
C 	50.89962196721628	22.368944624064735	2.15
C 	50.92936020345064	23.788633194599015	2.15
C 	52.173715689112925	24.472723411823456	2.15
C 	52.20345392534729	25.892411982357732	2.15
C 	53.44780941100958	26.576502199582173	2.15
C 	53.47754764724395	27.996190770116453	2.15
C 	54.721903132906235	28.680280987340886	2.15
C 	54.7516413691406	30.099969557875163	2.15
C 	55.99599685480289	30.784059775099603	2.15
C 	56.025735091037255	32.20374834563388	2.15
C 	57.27009057669954	32.88783856285832	2.15
C 	57.29982881293391	34.307527133392604	2.15
C 	58.5441842985962	34.991617350617034	2.15
C 	58.573922534830565	36.41130592115132	2.15
C 	59.818278020492855	37.09539613837574	2.15
C 	59.84801625672722	38.515084708910024	2.15
C 	61.0923717423895	39.19917492613447	2.15
C 	61.122109978623875	40.61886349666875	2.15
C 	62.366465464286165	41.30295371389318	2.15
C 	62.39620370052053	42.722642284427465	2.15
C 	63.64055918618281	43.406732501651895	2.15
C 	63.67029742241718	44.82642107218618	2.15
C 	64.91465290807947	45.51051128941062	2.15
C 	34.45535652749725	0.6985746653385504	2.15
C 	35.699712013159534	1.3826648825629835	2.15
C 	35.729450249393906	2.802353453097266	2.15
C 	36.97380573505619	3.486443670321699	2.15
C 	37.003543971290554	4.906132240855982	2.15
C 	38.247899456952844	5.590222458080418	2.15
C 	38.27763769318721	7.009911028614701	2.15
C 	39.52199317884949	7.69400124583913	2.15
C 	39.551731415083864	9.113689816373412	2.15
C 	40.79608690074615	9.79778003359785	2.15
C 	40.82582513698051	11.217468604132131	2.15
C 	42.0701806226428	11.901558821356561	2.15
C 	42.09991885887717	13.321247391890843	2.15
C 	43.34427434453946	14.00533760911528	2.15
C 	43.37401258077383	15.425026179649562	2.15
C 	44.61836806643611	16.109116396873997	2.15
C 	44.64810630267048	17.52880496740828	2.15
C 	45.89246178833276	18.21289518463271	2.15
C 	45.922200024567125	19.632583755166994	2.15
C 	47.166555510229415	20.31667397239143	2.15
C 	47.19629374646379	21.73636254292571	2.15
C 	48.44064923212608	22.420452760150148	2.15
C 	48.47038746836044	23.840141330684432	2.15
C 	49.71474295402273	24.52423154790886	2.15
C 	49.7444811902571	25.943920118443142	2.15
C 	50.988836675919366	26.62801033566758	2.15
C 	51.01857491215374	28.047698906201862	2.15
C 	52.26293039781603	28.7317891234263	2.15
C 	52.29266863405039	30.15147769396058	2.15
C 	53.53702411971268	30.83556791118501	2.15
C 	53.56676235594705	32.25525648171929	2.15
C 	54.81111784160934	32.93934669894373	2.15
C 	54.84085607784371	34.359035269478014	2.15
C 	56.085211563505986	35.04312548670245	2.15
C 	56.11494979974035	36.462814057236734	2.15
C 	57.35930528540264	37.14690427446116	2.15
C 	57.38904352163701	38.56659284499544	2.15
C 	58.633399007299296	39.25068306221987	2.15
C 	58.66313724353366	40.670371632754154	2.15
C 	59.90749272919596	41.3544618499786	2.15
C 	59.937230965430324	42.77415042051288	2.15
C 	61.18158645109261	43.45824063773731	2.15
C 	61.21132468732698	44.877929208271595	2.15
C 	62.455680172989254	45.562019425496025	2.15
C 	31.996383792407045	0.7500828014239598	2.15
C 	33.240739278069334	1.4341730186483963	2.15
C 	33.27047751430371	2.853861589182679	2.15
C 	34.51483299996599	3.537951806407112	2.15
C 	34.544571236200355	4.957640376941394	2.15
C 	35.78892672186264	5.641730594165828	2.15
C 	35.818664958097	7.061419164700109	2.15
C 	37.063020443759285	7.745509381924546	2.15
C 	37.09275867999366	9.16519795245883	2.15
C 	38.33711416565595	9.849288169683257	2.15
C 	38.36685240189031	11.268976740217541	2.15
C 	39.611207887552595	11.953066957441978	2.15
C 	39.64094612378696	13.37275552797626	2.15
C 	40.88530160944924	14.05684574520069	2.15
C 	40.915039845683616	15.476534315734972	2.15
C 	42.159395331345905	16.160624532959407	2.15
C 	42.18913356758027	17.58031310349369	2.15
C 	43.43348905324256	18.264403320718127	2.15
C 	43.463227289476926	19.68409189125241	2.15
C 	44.70758277513921	20.368182108476837	2.15
C 	44.73732101137358	21.78787067901112	2.15
C 	45.98167649703587	22.471960896235558	2.15
C 	46.011414733270236	23.89164946676984	2.15
C 	47.25577021893252	24.57573968399428	2.15
C 	47.285508455166884	25.99542825452856	2.15
C 	48.52986394082917	26.67951847175299	2.15
C 	48.559602177063546	28.099207042287272	2.15
C 	49.80395766272583	28.78329725951171	2.15
C 	49.833695898960194	30.20298583004599	2.15
C 	51.078051384622476	30.887076047270426	2.15
C 	51.10778962085684	32.30676461780471	2.15
C 	52.352145106519124	32.99085483502914	2.15
C 	52.3818833427535	34.41054340556342	2.15
C 	53.62623882841579	35.09463362278786	2.15
C 	53.65597706465015	36.51432219332214	2.15
C 	54.900332550312434	37.198412410546574	2.15
C 	54.9300707865468	38.61810098108086	2.15
C 	56.17442627220909	39.30219119830529	2.15
C 	56.20416450844346	40.72187976883957	2.15
C 	57.44851999410575	41.405969986064	2.15
C 	57.47825823034012	42.825658556598285	2.15
C 	58.7226137160024	43.50974877382273	2.15
C 	58.752351952236765	44.92943734435701	2.15
C 	59.996707437899055	45.613527561581435	2.15
C 	29.537411057316838	0.8015909375093657	2.15
C 	30.781766542979128	1.4856811547338022	2.15
C 	30.811504779213493	2.905369725268081	2.15
C 	32.05586026487578	3.589459942492521	2.15
C 	32.08559850111015	5.0091485130268	2.15
C 	33.32995398677244	5.693238730251236	2.15
C 	33.3596922230068	7.112927300785516	2.15
C 	34.604047708669086	7.797017518009953	2.15
C 	34.63378594490346	9.216706088544232	2.15
C 	35.87814143056574	9.90079630576867	2.15
C 	35.907879666800106	11.32048487630295	2.15
C 	37.15223515246239	12.004575093527382	2.15
C 	37.181973388696754	13.424263664061662	2.15
C 	38.426328874359044	14.108353881286101	2.15
C 	38.456067110593416	15.528042451820381	2.15
C 	39.7004225962557	16.212132669044813	2.15
C 	39.730160832490064	17.631821239579093	2.15
C 	40.97451631815235	18.315911456803533	2.15
C 	41.00425455438671	19.735600027337814	2.15
C 	42.248610040049	20.41969024456225	2.15
C 	42.278348276283374	21.83937881509653	2.15
C 	43.522703761945664	22.523469032320964	2.15
C 	43.55244199818003	23.943157602855244	2.15
C 	44.79679748384232	24.62724782007968	2.15
C 	44.826535720076684	26.04693639061396	2.15
C 	46.07089120573897	26.731026607838402	2.15
C 	46.10062944197334	28.150715178372682	2.15
C 	47.34498492763562	28.834805395597115	2.15
C 	47.37472316386999	30.254493966131392	2.15
C 	48.61907864953228	30.938584183355832	2.15
C 	48.64881688576664	32.35827275389011	2.15
C 	49.89317237142893	33.04236297111455	2.15
C 	49.922910607663304	34.46205154164883	2.15
C 	51.16726609332557	35.14614175887326	2.15
C 	51.19700432955994	36.56583032940754	2.15
C 	52.44135981522223	37.249920546631984	2.15
C 	52.47109805145659	38.66960911716626	2.15
C 	53.71545353711888	39.3536993343907	2.15
C 	53.745191773353255	40.77338790492498	2.15
C 	54.989547259015545	41.45747812214941	2.15
C 	55.01928549524991	42.877166692683694	2.15
C 	56.2636409809122	43.561256909908124	2.15
C 	56.293379217146565	44.9809454804424	2.15
C 	57.53773470280884	45.665035697666845	2.15
C 	27.078438322226628	0.8530990735947788	2.15
C 	28.322793807888917	1.5371892908192117	2.15
C 	28.352532044123283	2.9568778613534943	2.15
C 	29.596887529785572	3.6409680785779273	2.15
C 	29.62662576601994	5.06065664911221	2.15
C 	30.870981251682224	5.744746866336646	2.15
C 	30.90071948791659	7.164435436870929	2.15
C 	32.14507497357888	7.848525654095361	2.15
C 	32.17481320981325	9.268214224629643	2.15
C 	33.419168695475534	9.952304441854077	2.15
C 	33.4489069317099	11.37199301238836	2.15
C 	34.69326241737219	12.056083229612796	2.15
C 	34.723000653606555	13.47577180014708	2.15
C 	35.96735613926884	14.159862017371507	2.15
C 	35.99709437550321	15.579550587905791	2.15
C 	37.24144986116549	16.263640805130226	2.15
C 	37.27118809739986	17.68332937566451	2.15
C 	38.51554358306214	18.36741959288894	2.15
C 	38.545281819296505	19.78710816342322	2.15
C 	39.789637304958795	20.471198380647657	2.15
C 	39.81937554119317	21.89088695118194	2.15
C 	41.06373102685545	22.574977168406377	2.15
C 	41.093469263089816	23.99466573894066	2.15
C 	42.337824748752105	24.678755956165087	2.15
C 	42.36756298498647	26.09844452669937	2.15
C 	43.61191847064876	26.782534743923808	2.15
C 	43.64165670688313	28.20222331445809	2.15
C 	44.886012192545415	28.886313531682525	2.15
C 	44.91575042877978	30.30600210221681	2.15
C 	46.16010591444207	30.99009231944124	2.15
C 	46.189844150676436	32.40978088997552	2.15
C 	47.43419963633872	33.09387110719996	2.15
C 	47.46393787257309	34.51355967773424	2.15
C 	48.70829335823538	35.19764989495868	2.15
C 	48.738031594469746	36.617338465492956	2.15
C 	49.98238708013203	37.301428682717386	2.15
C 	50.012125316366394	38.72111725325167	2.15
C 	51.256480802028676	39.40520747047611	2.15
C 	51.28621903826305	40.82489604101039	2.15
C 	52.53057452392533	41.50898625823483	2.15
C 	52.5603127601597	42.92867482876911	2.15
C 	53.804668245821986	43.61276504599354	2.15
C 	53.83440648205635	45.03245361652782	2.15
C 	55.07876196771864	45.71654383375225	2.15
C 	24.619465587136425	0.9046072096801882	2.15
C 	25.86382107279871	1.5886974269046248	2.15
C 	25.893559309033076	3.008385997438907	2.15
C 	27.137914794695366	3.69247621466334	2.15
C 	27.167653030929735	5.112164785197622	2.15
C 	28.412008516592017	5.796255002422056	2.15
C 	28.441746752826383	7.215943572956338	2.15
C 	29.686102238488676	7.900033790180775	2.15
C 	29.71584047472304	9.319722360715057	2.15
C 	30.960195960385324	10.00381257793949	2.15
C 	30.989934196619693	11.423501148473772	2.15
C 	32.23428968228198	12.107591365698205	2.15
C 	32.26402791851635	13.527279936232487	2.15
C 	33.50838340417863	14.211370153456924	2.15
C 	33.538121640413	15.631058723991208	2.15
C 	34.78247712607529	16.315148941215636	2.15
C 	34.81221536230966	17.73483751174992	2.15
C 	36.05657084797194	18.418927728974356	2.15
C 	36.086309084206306	19.838616299508637	2.15
C 	37.33066456986859	20.522706516733066	2.15
C 	37.36040280610296	21.94239508726735	2.15
C 	38.60475829176524	22.626485304491787	2.15
C 	38.63449652799961	24.046173875026067	2.15
C 	39.8788520136619	24.730264092250504	2.15
C 	39.908590249896264	26.149952662784788	2.15
C 	41.152945735558546	26.834042880009218	2.15
C 	41.18268397179292	28.2537314505435	2.15
C 	42.42703945745521	28.937821667767935	2.15
C 	42.456777693689574	30.35751023830222	2.15
C 	43.701133179351864	31.041600455526655	2.15
C 	43.73087141558623	32.46128902606094	2.15
C 	44.97522690124851	33.14537924328537	2.15
C 	45.004965137482884	34.56506781381965	2.15
C 	46.24932062314517	35.24915803104409	2.15
C 	46.27905885937953	36.668846601578366	2.15
C 	47.52341434504182	37.3529368188028	2.15
C 	47.55315258127619	38.77262538933709	2.15
C 	48.79750806693847	39.45671560656152	2.15
C 	48.82724630317284	40.8764041770958	2.15
C 	50.07160178883513	41.56049439432024	2.15
C 	50.1013400250695	42.98018296485452	2.15
C 	51.34569551073177	43.66427318207896	2.15
C 	51.37543374696614	45.083961752613234	2.15
C 	52.61978923262843	45.768051969837664	2.15
C 	22.160492852046218	0.9561153457655941	2.15
C 	23.404848337708508	1.6402055629900307	2.15
C 	23.434586573942873	3.0598941335243097	2.15
C 	24.67894205960516	3.74398435074875	2.15
C 	24.708680295839528	5.163672921283029	2.15
C 	25.95303578150181	5.847763138507465	2.15
C 	25.982774017736176	7.267451709041744	2.15
C 	27.22712950339847	7.951541926266181	2.15
C 	27.256867739632835	9.37123049680046	2.15
C 	28.501223225295117	10.0553207140249	2.15
C 	28.530961461529486	11.475009284559178	2.15
C 	29.775316947191776	12.159099501783615	2.15
C 	29.80505518342614	13.578788072317893	2.15
C 	31.049410669088427	14.26287828954233	2.15
C 	31.079148905322793	15.682566860076609	2.15
C 	32.323504390985086	16.36665707730105	2.15
C 	32.35324262721945	17.78634564783533	2.15
C 	33.597598112881734	18.470435865059763	2.15
C 	33.6273363491161	19.89012443559404	2.15
C 	34.87169183477839	20.57421465281848	2.15
C 	34.90143007101276	21.99390322335276	2.15
C 	36.145785556675044	22.677993440577193	2.15
C 	36.17552379290941	24.09768201111147	2.15
C 	37.41987927857169	24.78177222833591	2.15
C 	37.44961751480606	26.20146079887019	2.15
C 	38.69397300046834	26.88555101609463	2.15
C 	38.72371123670271	28.305239586628907	2.15
C 	39.968066722365	28.98932980385334	2.15
C 	39.99780495859937	30.40901837438762	2.15
C 	41.24216044426166	31.09310859161206	2.15
C 	41.27189868049602	32.51279716214634	2.15
C 	42.516254166158305	33.19688737937078	2.15
C 	42.54599240239268	34.61657594990506	2.15
C 	43.79034788805497	35.300666167129485	2.15
C 	43.82008612428933	36.72035473766377	2.15
C 	45.064441609951615	37.40444495488821	2.15
C 	45.09417984618598	38.82413352542249	2.15
C 	46.33853533184827	39.508223742646926	2.15
C 	46.36827356808264	40.92791231318121	2.15
C 	47.612629053744925	41.61200253040564	2.15
C 	47.64236728997929	43.03169110093992	2.15
C 	48.88672277564158	43.71578131816437	2.15
C 	48.916461011875946	45.13546988869864	2.15
C 	50.16081649753823	45.819560105923074	2.15
C 	19.70152011695601	1.0076234818510053	2.15
C 	20.9458756026183	1.69171369907544	2.15
C 	20.975613838852667	3.1114022696097208	2.15
C 	22.219969324514953	3.7954924868341555	2.15
C 	22.24970756074932	5.2151810573684365	2.15
C 	23.494063046411608	5.899271274592874	2.15
C 	23.523801282645973	7.318959845127155	2.15
C 	24.768156768308266	8.00305006235159	2.15
C 	24.79789500454263	9.42273863288587	2.15
C 	26.04225049020491	10.106828850110306	2.15
C 	26.07198872643928	11.526517420644586	2.15
C 	27.31634421210157	12.210607637869025	2.15
C 	27.346082448335935	13.630296208403305	2.15
C 	28.59043793399822	14.31438642562774	2.15
C 	28.620176170232586	15.734074996162018	2.15
C 	29.864531655894876	16.418165213386455	2.15
C 	29.894269892129245	17.83785378392074	2.15
C 	31.138625377791527	18.521944001145176	2.15
C 	31.168363614025893	19.941632571679456	2.15
C 	32.41271909968818	20.625722788903886	2.15
C 	32.442457335922555	22.04541135943817	2.15
C 	33.68681282158484	22.729501576662607	2.15
C 	33.7165510578192	24.149190147196887	2.15
C 	34.96090654348149	24.833280364421316	2.15
C 	34.99064477971586	26.2529689349556	2.15
C 	36.23500026537814	26.937059152180037	2.15
C 	36.26473850161251	28.356747722714317	2.15
C 	37.509093987274795	29.040837939938754	2.15
C 	37.53883222350916	30.460526510473038	2.15
C 	38.78318770917144	31.144616727697468	2.15
C 	38.81292594540581	32.56430529823175	2.15
C 	40.0572814310681	33.24839551545619	2.15
C 	40.08701966730247	34.668084085990465	2.15
C 	41.33137515296476	35.3521743032149	2.15
C 	41.361113389199126	36.771862873749185	2.15
C 	42.60546887486141	37.455953090973615	2.15
C 	42.635207111095774	38.8756416615079	2.15
C 	43.879562596758056	39.559731878732336	2.15
C 	43.90930083299243	40.97942044926662	2.15
C 	45.15365631865472	41.66351066649106	2.15
C 	45.183394554889084	43.08319923702534	2.15
C 	46.427750040551366	43.76728945424977	2.15
C 	46.45748827678573	45.18697802478405	2.15
C 	47.70184376244802	45.871068242008484	2.15
C 	17.24254738186581	1.0591316179364147	2.15
C 	18.486902867528094	1.7432218351608495	2.15
C 	18.51664110376246	3.16291040569513	2.15
C 	19.760996589424746	3.847000622919565	2.15
C 	19.790734825659115	5.266689193453845	2.15
C 	21.0350903113214	5.9507794106782805	2.15
C 	21.064828547555766	7.370467981212561	2.15
C 	22.309184033218056	8.054558198436998	2.15
C 	22.33892226945242	9.47424676897128	2.15
C 	23.583277755114707	10.158336986195716	2.15
C 	23.613015991349076	11.578025556729996	2.15
C 	24.857371477011366	12.26211577395443	2.15
C 	24.88710971324573	13.681804344488711	2.15
C 	26.131465198908014	14.36589456171315	2.15
C 	26.16120343514238	15.785583132247428	2.15
C 	27.40555892080467	16.469673349471865	2.15
C 	27.435297157039038	17.88936192000615	2.15
C 	28.67965264270132	18.57345213723058	2.15
C 	28.709390878935686	19.99314070776486	2.15
C 	29.95374636459798	20.6772309249893	2.15
C 	29.983484600832345	22.09691949552358	2.15
C 	31.227840086494627	22.781009712748013	2.15
C 	31.257578322728996	24.20069828328229	2.15
C 	32.501933808391286	24.88478850050673	2.15
C 	32.53167204462565	26.30447707104101	2.15
C 	33.776027530287934	26.988567288265443	2.15
C 	33.8057657665223	28.40825585879972	2.15
C 	35.050121252184596	29.09234607602416	2.15
C 	35.07985948841896	30.51203464655844	2.15
C 	36.324214974081244	31.19612486378288	2.15
C 	36.35395321031561	32.61581343431716	2.15
C 	37.59830869597789	33.2999036515416	2.15
C 	37.62804693221226	34.71959222207587	2.15
C 	38.872402417874554	35.403682439300304	2.15
C 	38.90214065410892	36.82337100983459	2.15
C 	40.1464961397712	37.50746122705903	2.15
C 	40.17623437600557	38.92714979759331	2.15
C 	41.42058986166786	39.611240014817746	2.15
C 	41.45032809790222	41.03092858535202	2.15
C 	42.69468358356451	41.71501880257646	2.15
C 	42.72442181979888	43.13470737311074	2.15
C 	43.96877730546117	43.81879759033518	2.15
C 	43.99851554169553	45.238486160869456	2.15
C 	45.242871027357815	45.92257637809389	2.15
C 	13.50948092487895	-0.9931390337368932	2.15
C 	14.753836410541236	-0.3090488165124566	2.15
C 	14.783574646775604	1.110639754021824	2.15
C 	16.02793013243789	1.7947299712462605	2.15
C 	16.057668368672257	3.214418541780541	2.15
C 	17.302023854334543	3.8985087590049763	2.15
C 	17.331762090568912	5.318197329539257	2.15
C 	18.576117576231194	6.002287546763691	2.15
C 	18.60585581246556	7.421976117297972	2.15
C 	19.85021129812785	8.106066334522406	2.15
C 	19.879949534362215	9.525754905056688	2.15
C 	21.1243050200245	10.209845122281125	2.15
C 	21.15404325625887	11.629533692815407	2.15
C 	22.39839874192116	12.31362391003984	2.15
C 	22.428136978155525	13.733312480574122	2.15
C 	23.67249246381781	14.417402697798558	2.15
C 	23.702230700052176	15.837091268332838	2.15
C 	24.946586185714466	16.521181485557275	2.15
C 	24.976324421948835	17.940870056091555	2.15
C 	26.220679907611114	18.624960273315992	2.15
C 	26.25041814384548	20.044648843850272	2.15
C 	27.494773629507772	20.728739061074705	2.15
C 	27.524511865742138	22.14842763160899	2.15
C 	28.76886735140442	22.832517848833422	2.15
C 	28.79860558763879	24.252206419367706	2.15
C 	30.04296107330108	24.936296636592136	2.15
C 	30.072699309535444	26.35598520712642	2.15
C 	31.31705479519773	27.040075424350857	2.15
C 	31.346793031432096	28.459763994885137	2.15
C 	32.59114851709439	29.143854212109567	2.15
C 	32.620886753328755	30.56354278264385	2.15
C 	33.86524223899104	31.247632999868287	2.15
C 	33.8949804752254	32.66732157040257	2.15
C 	35.13933596088769	33.35141178762701	2.15
C 	35.169074197122065	34.771100358161284	2.15
C 	36.41342968278435	35.455190575385714	2.15
C 	36.44316791901871	36.87487914592	2.15
C 	37.687523404680995	37.558969363144435	2.15
C 	37.71726164091536	38.97865793367872	2.15
C 	38.96161712657765	39.662748150903155	2.15
C 	38.99135536281202	41.08243672143744	2.15
C 	40.235710848474305	41.76652693866187	2.15
C 	40.26544908470867	43.186215509196145	2.15
C 	41.50980457037095	43.87030572642058	2.15
C 	41.53954280660532	45.289994296954866	2.15
C 	42.78389829226761	45.9740845141793	2.15
C 	11.050508189788744	-0.9416308976514819	2.15
C 	12.29486367545103	-0.25754068042704714	2.15
C 	12.324601911685397	1.1621478901072335	2.15
C 	13.568957397347683	1.84623810733167	2.15
C 	13.59869563358205	3.265926677865951	2.15
C 	14.843051119244338	3.9500168950903873	2.15
C 	14.872789355478705	5.369705465624668	2.15
C 	16.11714484114099	6.053795682849103	2.15
C 	16.146883077375357	7.473484253383384	2.15
C 	17.391238563037646	8.157574470607818	2.15
C 	17.42097679927201	9.577263041142098	2.15
C 	18.665332284934294	10.261353258366533	2.15
C 	18.695070521168663	11.681041828900815	2.15
C 	19.93942600683095	12.365132046125252	2.15
C 	19.969164243065315	13.784820616659534	2.15
C 	21.213519728727604	14.468910833883967	2.15
C 	21.24325796496197	15.888599404418247	2.15
C 	22.487613450624256	16.572689621642684	2.15
C 	22.517351686858625	17.992378192176965	2.15
C 	23.76170717252091	18.6764684094014	2.15
C 	23.791445408755276	20.096156979935685	2.15
C 	25.035800894417566	20.78024719716012	2.15
C 	25.06553913065193	22.199935767694395	2.15
C 	26.309894616314214	22.884025984918832	2.15
C 	26.339632852548583	24.303714555453116	2.15
C 	27.58398833821087	24.987804772677553	2.15
C 	27.613726574445234	26.407493343211836	2.15
C 	28.858082060107524	27.091583560436263	2.15
C 	28.88782029634189	28.511272130970546	2.15
C 	30.132175782004175	29.195362348194983	2.15
C 	30.161914018238544	30.615050918729267	2.15
C 	31.40626950390083	31.299141135953697	2.15
C 	31.436007740135196	32.71882970648798	2.15
C 	32.680363225797485	33.40291992371242	2.15
C 	32.71010146203185	34.822608494246694	2.15
C 	33.95445694769414	35.50669871147113	2.15
C 	33.984195183928506	36.926387282005415	2.15
C 	35.228550669590796	37.610477499229845	2.15
C 	35.25828890582516	39.03016606976413	2.15
C 	36.50264439148745	39.714256286988565	2.15
C 	36.53238262772182	41.13394485752285	2.15
C 	37.7767381133841	41.818035074747286	2.15
C 	37.806476349618464	43.23772364528156	2.15
C 	39.05083183528075	43.92181386250599	2.15
C 	39.08057007151512	45.341502433040276	2.15
C 	40.3249255571774	46.02559265026471	2.15
C 	8.591535454698539	-0.8901227615660734	2.15
C 	9.835890940360823	-0.20603254434163773	2.15
C 	9.86562917659519	1.213656026192643	2.15
C 	11.109984662257476	1.8977462434170778	2.15
C 	11.139722898491843	3.3174348139513583	2.15
C 	12.384078384154133	4.001525031175795	2.15
C 	12.4138166203885	5.421213601710075	2.15
C 	13.658172106050785	6.105303818934512	2.15
C 	13.687910342285152	7.5249923894687925	2.15
C 	14.932265827947438	8.209082606693228	2.15
C 	14.962004064181805	9.628771177227508	2.15
C 	16.20635954984409	10.312861394451943	2.15
C 	16.23609778607846	11.732549964986223	2.15
C 	17.480453271740746	12.416640182210658	2.15
C 	17.51019150797511	13.836328752744938	2.15
C 	18.754546993637398	14.520418969969377	2.15
C 	18.784285229871763	15.940107540503657	2.15
C 	20.02864071553405	16.624197757728094	2.15
C 	20.058378951768418	18.043886328262374	2.15
C 	21.302734437430704	18.727976545486808	2.15
C 	21.33247267366507	20.147665116021088	2.15
C 	22.57682815932736	20.83175533324553	2.15
C 	22.606566395561725	22.251443903779805	2.15
C 	23.85092188122401	22.935534121004242	2.15
C 	23.88066011745838	24.355222691538525	2.15
C 	25.125015603120666	25.03931290876296	2.15
C 	25.15475383935503	26.459001479297235	2.15
C 	26.399109325017317	27.143091696521676	2.15
C 	26.428847561251683	28.562780267055956	2.15
C 	27.67320304691397	29.24687048428039	2.15
C 	27.702941283148338	30.66655905481467	2.15
C 	28.947296768810624	31.350649272039107	2.15
C 	28.97703500504499	32.77033784257339	2.15
C 	30.22139049070728	33.45442805979782	2.15
C 	30.251128726941644	34.8741166303321	2.15
C 	31.49548421260393	35.558206847556534	2.15
C 	31.5252224488383	36.97789541809082	2.15
C 	32.76957793450058	37.66198563531526	2.15
C 	32.799316170734954	39.08167420584954	2.15
C 	34.04367165639724	39.765764423073975	2.15
C 	34.0734098926316	41.18545299360825	2.15
C 	35.3177653782939	41.86954321083269	2.15
C 	35.347503614528264	43.289231781366965	2.15
C 	36.591859100190554	43.97332199859141	2.15
C 	36.62159733642492	45.393010569125686	2.15
C 	37.865952822087195	46.07710078635012	2.15
C 	6.132562719608332	-0.8386146254806639	2.15
C 	7.376918205270618	-0.1545244082562283	2.15
C 	7.406656441504985	1.2651641622780525	2.15
C 	8.651011927167271	1.9492543795024881	2.15
C 	8.680750163401639	3.368942950036769	2.15
C 	9.925105649063925	4.053033167261203	2.15
C 	9.954843885298292	5.472721737795484	2.15
C 	11.19919937096058	6.15681195501992	2.15
C 	11.228937607194947	7.576500525554201	2.15
C 	12.473293092857233	8.260590742778637	2.15
C 	12.5030313290916	9.68027931331292	2.15
C 	13.747386814753886	10.364369530537353	2.15
C 	13.777125050988253	11.784058101071635	2.15
C 	15.02148053665054	12.468148318296068	2.15
C 	15.051218772884907	13.88783688883035	2.15
C 	16.295574258547195	14.571927106054783	2.15
C 	16.32531249478156	15.991615676589065	2.15
C 	17.569667980443846	16.675705893813504	2.15
C 	17.599406216678215	18.095394464347784	2.15
C 	18.843761702340498	18.779484681572217	2.15
C 	18.873499938574863	20.1991732521065	2.15
C 	20.117855424237153	20.883263469330934	2.15
C 	20.147593660471518	22.302952039865215	2.15
C 	21.391949146133804	22.98704225708965	2.15
C 	21.421687382368173	24.406730827623935	2.15
C 	22.66604286803046	25.09082104484837	2.15
C 	22.695781104264825	26.51050961538265	2.15
C 	23.940136589927114	27.194599832607082	2.15
C 	23.96987482616148	28.614288403141366	2.15
C 	25.214230311823766	29.298378620365803	2.15
C 	25.243968548058135	30.718067190900083	2.15
C 	26.488324033720417	31.402157408124513	2.15
C 	26.518062269954783	32.8218459786588	2.15
C 	27.762417755617072	33.50593619588323	2.15
C 	27.792155991851438	34.92562476641751	2.15
C 	29.036511477513724	35.60971498364194	2.15
C 	29.066249713748093	37.02940355417623	2.15
C 	30.31060519941038	37.713493771400664	2.15
C 	30.340343435644744	39.13318234193495	2.15
C 	31.584698921307034	39.817272559159385	2.15
C 	31.6144371575414	41.23696112969367	2.15
C 	32.858792643203685	41.9210513469181	2.15
C 	32.88853087943805	43.340739917452375	2.15
C 	34.13288636510035	44.02483013467681	2.15
C 	34.16262460133471	45.444518705211095	2.15
C 	35.406980086996995	46.12860892243553	2.15
C 	3.6735899845181255	-0.7871064893952545	2.15
C 	4.9179454701804115	-0.10301627217081887	2.15
C 	4.947683706414779	1.3166722983634618	2.15
C 	6.1920391920770665	2.0007625155878976	2.15
C 	6.221777428311433	3.420451086122178	2.15
C 	7.466132913973719	4.104541303346614	2.15
C 	7.495871150208086	5.524229873880895	2.15
C 	8.740226635870373	6.208320091105329	2.15
C 	8.76996487210474	7.62800866163961	2.15
C 	10.014320357767025	8.312098878864047	2.15
C 	10.044058594001392	9.731787449398327	2.15
C 	11.28841407966368	10.415877666622764	2.15
C 	11.318152315898047	11.835566237157044	2.15
C 	12.562507801560333	12.51965645438148	2.15
C 	12.5922460377947	13.93934502491576	2.15
C 	13.836601523456984	14.623435242140195	2.15
C 	13.866339759691352	16.043123812674477	2.15
C 	15.11069524535364	16.72721402989891	2.15
C 	15.140433481588005	18.14690260043319	2.15
C 	16.38478896725029	18.83099281765763	2.15
C 	16.41452720348466	20.25068138819191	2.15
C 	17.65888268914695	20.934771605416344	2.15
C 	17.688620925381315	22.354460175950624	2.15
C 	18.932976411043597	23.03855039317506	2.15
C 	18.962714647277966	24.45823896370934	2.15
C 	20.207070132940252	25.142329180933782	2.15
C 	20.236808369174618	26.56201775146806	2.15
C 	21.481163854836907	27.246107968692492	2.15
C 	21.510902091071273	28.665796539226776	2.15
C 	22.75525757673356	29.349886756451212	2.15
C 	22.784995812967928	30.76957532698549	2.15
C 	24.029351298630214	31.45366554420993	2.15
C 	24.05908953486458	32.87335411474421	2.15
C 	25.30344502052687	33.55744433196864	2.15
C 	25.333183256761235	34.97713290250292	2.15
C 	26.577538742423517	35.66122311972736	2.15
C 	26.607276978657886	37.08091169026164	2.15
C 	27.851632464320172	37.765001907486074	2.15
C 	27.881370700554537	39.18469047802035	2.15
C 	29.125726186216827	39.868780695244794	2.15
C 	29.155464422451193	41.28846926577908	2.15
C 	30.39981990811348	41.97255948300351	2.15
C 	30.429558144347848	43.392248053537784	2.15
C 	31.673913630010134	44.07633827076222	2.15
C 	31.7036518662445	45.4960268412965	2.15
C 	32.94800735190679	46.18011705852094	2.15
C 	2.4589727350902058	-0.05150813608540943	2.15
C 	2.488710971324573	1.3681804344488713	2.15
C 	3.7330664569868595	2.052270651673307	2.15
C 	3.7628046932212267	3.4719592222075875	2.15
C 	5.007160178883512	4.1560494394320235	2.15
C 	5.0368984151178795	5.575738009966304	2.15
C 	6.281253900780166	6.25982822719074	2.15
C 	6.310992137014534	7.67951679772502	2.15
C 	7.55534762267682	8.363607014949455	2.15
C 	7.585085858911186	9.783295585483735	2.15
C 	8.829441344573475	10.467385802708172	2.15
C 	8.859179580807842	11.887074373242454	2.15
C 	10.103535066470126	12.571164590466891	2.15
C 	10.133273302704493	13.99085316100117	2.15
C 	11.37762878836678	14.674943378225606	2.15
C 	11.407367024601147	16.094631948759886	2.15
C 	12.651722510263435	16.77872216598432	2.15
C 	12.6814607464978	18.1984107365186	2.15
C 	13.925816232160086	18.882500953743037	2.15
C 	13.955554468394453	20.302189524277317	2.15
C 	15.19990995405674	20.986279741501754	2.15
C 	15.229648190291107	22.405968312036034	2.15
C 	16.474003675953394	23.09005852926047	2.15
C 	16.503741912187763	24.50974709979475	2.15
C 	17.74809739785005	25.193837317019188	2.15
C 	17.777835634084415	26.613525887553465	2.15
C 	19.0221911197467	27.297616104777905	2.15
C 	19.051929355981066	28.717304675312185	2.15
C 	20.296284841643352	29.401394892536622	2.15
C 	20.32602307787772	30.8210834630709	2.15
C 	21.570378563540007	31.505173680295336	2.15
C 	21.600116799774373	32.92486225082961	2.15
C 	22.844472285436662	33.60895246805405	2.15
C 	22.874210521671028	35.02864103858833	2.15
C 	24.118566007333314	35.71273125581276	2.15
C 	24.148304243567683	37.132419826347046	2.15
C 	25.39265972922997	37.81651004357148	2.15
C 	25.422397965464334	39.23619861410577	2.15
C 	26.66675345112662	39.9202888313302	2.15
C 	26.696491687360986	41.33997740186448	2.15
C 	27.940847173023272	42.02406761908891	2.15
C 	27.97058540925764	43.443756189623194	2.15
C 	29.214940894919927	44.12784640684763	2.15
C 	29.244679131154292	45.547534977381915	2.15
C 	30.489034616816582	46.231625194606345	2.15
C 	8.918656053276575	14.726451514311016	2.15
C 	8.948394289510942	16.146140084845293	2.15
C 	10.192749775173228	16.83023030206973	2.15
C 	10.222488011407593	18.249918872604013	2.15
C 	11.466843497069881	18.934009089828447	2.15
C 	11.496581733304248	20.353697660362727	2.15
C 	12.740937218966534	21.03778787758716	2.15
C 	12.770675455200902	22.457476448121444	2.15
C 	14.015030940863188	23.14156666534588	2.15
C 	14.044769177097553	24.561255235880164	2.15
C 	15.289124662759843	25.245345453104594	2.15
C 	15.31886289899421	26.665034023638874	2.15
C 	16.563218384656498	27.34912424086331	2.15
C 	16.592956620890863	28.768812811397595	2.15
C 	17.83731210655315	29.452903028622032	2.15
C 	17.86705034278752	30.872591599156312	2.15
C 	19.1114058284498	31.556681816380745	2.15
C 	19.141144064684166	32.97637038691502	2.15
C 	20.385499550346456	33.66046060413946	2.15
C 	20.41523778658082	35.08014917467374	2.15
C 	21.659593272243107	35.76423939189818	2.15
C 	21.689331508477476	37.18392796243246	2.15
C 	22.933686994139762	37.86801817965689	2.15
C 	22.963425230374128	39.28770675019118	2.15
C 	24.207780716036417	39.971796967415614	2.15
C 	24.237518952270783	41.39148553794989	2.15
C 	25.48187443793307	42.07557575517432	2.15
C 	25.511612674167438	43.495264325708604	2.15
C 	26.75596815982972	44.17935454293304	2.15
C 	26.785706396064086	45.599043113467324	2.15
C 	28.030061881726375	46.28313333069176	2.15
H 	54.10431117054603	-0.8032513683323066	2.15
H 	56.30384093745612	0.4059503536629874	2.15
H 	57.577934659352785	2.50972914142171	2.15
H 	57.63050013326001	5.019178656943577	2.15
H 	51.64533843545583	-0.7517432322468973	2.15
H 	57.66714936805588	6.768794853024558	2.15
H 	58.94124308995254	8.872573640783267	2.15
H 	60.21533681184919	10.976352428541988	2.15
H 	61.489430533745846	13.080131216300709	2.15
H 	62.7635242556425	15.183910004059415	2.15
H 	64.03761797753916	17.287688791818148	2.15
H 	65.3117116994358	19.391467579576858	2.15
H 	66.58580542133245	21.495246367335564	2.15
H 	67.85989914322913	23.59902515509428	2.15
H 	69.13399286512578	25.702803942853006	2.15
H 	70.40808658702242	27.80658273061172	2.15
H 	71.68218030891909	29.910361518370436	2.15
H 	72.95627403081573	32.01414030612916	2.15
H 	74.23036775271237	34.11791909388786	2.15
H 	75.50446147460903	36.221697881646584	2.15
H 	75.55702694851625	38.731147397168456	2.15
H 	49.186365700365634	-0.7002350961614878	2.15
H 	74.3721479353227	40.88643432101257	2.15
H 	46.72739296527542	-0.6487269600760783	2.15
H 	73.18726892212915	43.04172124485671	2.15
H 	44.268420230185214	-0.5972188239906688	2.15
H 	72.00238990893561	45.19700816870083	2.15
H 	41.80944749509501	-0.5457106879052597	2.15
H 	69.85542561593276	46.49725596222738	2.15
H 	39.3504747600048	-0.49420255181984984	2.15
H 	67.39645288084255	46.548764098312795	2.15
H 	36.891502024914594	-0.44269441573444435	2.15
H 	64.93748014575235	46.600272234398204	2.15
H 	34.432529289824394	-0.3911862796490312	2.15
H 	62.478507410662104	46.65178037048361	2.15
H 	31.973556554734177	-0.3396781435636218	2.15
H 	60.01953467557191	46.70328850656902	2.15
H 	29.51458381964398	-0.2881700074782161	2.15
H 	57.56056194048169	46.754796642654426	2.15
H 	27.055611084553764	-0.23666187139280281	2.15
H 	55.1015892053915	46.80630477873983	2.15
H 	24.596638349463568	-0.18515373530739343	2.15
H 	52.642616470301284	46.857812914825246	2.15
H 	22.137665614373354	-0.1336455992219875	2.15
H 	50.183643735211085	46.909321050910656	2.15
H 	19.678692879283147	-0.08213746313657633	2.15
H 	47.72467100012088	46.960829186996065	2.15
H 	17.219720144192944	-0.030629327051166833	2.15
H 	45.26569826503067	47.012337323081475	2.15
H 	13.486653687206092	-2.082899978724475	2.15
H 	15.686183454116188	-0.8736982567291689	2.15
H 	42.806725529940465	47.063845459166885	2.15
H 	11.027680952115885	-2.0313918426390636	2.15
H 	40.34775279485026	47.115353595252294	2.15
H 	8.568708217025684	-1.9798837065536552	2.15
H 	37.888780059760045	47.166861731337704	2.15
H 	6.109735481935474	-1.9283755704682455	2.15
H 	35.429807324669845	47.218369867423114	2.15
H 	3.650762746845267	-1.8768674343828362	2.15
H 	32.970834589579646	47.26987800350852	2.15
H 	1.5037984538423943	-0.5766196408562789	2.15
H 	1.5563639277496208	1.9328298746655836	2.15
H 	2.8304576496462746	4.0366086624243	2.15
H 	4.104551371542927	6.140387450183016	2.15
H 	5.378645093439582	8.244166237941732	2.15
H 	6.652738815336233	10.347945025700445	2.15
H 	7.926832537232889	12.451723813459166	2.15
H 	30.511861854489446	47.321386139593926	2.15
H 	7.963481772028762	14.20134000954015	2.15
H 	8.016047245935987	16.710789525062	2.15
H 	9.290140967832643	18.81456831282073	2.15
H 	10.564234689729297	20.91834710057944	2.15
H 	11.83832841162595	23.022125888338156	2.15
H 	13.112422133522603	25.12590467609688	2.15
H 	14.386515855419255	27.229683463855583	2.15
H 	15.66060957731591	29.333462251614307	2.15
H 	16.93470329921257	31.437241039373028	2.15
H 	18.208797021109213	33.54101982713173	2.15
H 	19.482890743005868	35.64479861489045	2.15
H 	20.756984464902526	37.74857740264918	2.15
H 	22.031078186799178	39.85235619040789	2.15
H 	23.305171908695833	41.95613497816661	2.15
H 	24.579265630592488	44.05991376592532	2.15
H 	25.853359352489132	46.16369255368403	2.15
H 	28.05288911939924	47.37289427567934	2.15
