2342

C 	0.0	0.0	0.0
C 	1.2297560733739028	0.7099999999999999	0.0
C 	2.4595121467478056	-2.3647750424515833e-16	0.0
C 	3.689268220121708	0.7099999999999995	0.0
C 	4.919024293495611	-4.729550084903167e-16	0.0
C 	6.148780366869514	0.7099999999999993	0.0
C 	7.378536440243416	-7.09432512735475e-16	0.0
C 	8.60829251361732	0.7099999999999991	0.0
C 	9.838048586991222	-9.459100169806333e-16	0.0
C 	11.067804660365125	0.7099999999999989	0.0
C 	12.297560733739026	-1.1823875212257916e-15	0.0
C 	13.527316807112928	0.7099999999999986	0.0
C 	14.757072880486833	-1.41886502547095e-15	0.0
C 	15.986828953860735	0.7099999999999984	0.0
C 	17.21658502723464	-7.671641100159832e-16	0.0
C 	18.44634110060854	0.7099999999999982	0.0
C 	19.676097173982445	-1.8918200339612667e-15	0.0
C 	20.905853247356347	0.7099999999999989	0.0
C 	22.135609320730246	-2.128297538206425e-15	0.0
C 	23.36536539410415	0.7099999999999967	0.0
C 	24.59512146747805	-2.364775042451583e-15	0.0
C 	25.824877540851954	0.7099999999999983	0.0
C 	27.05463361422586	-8.248957072964913e-16	0.0
C 	28.284389687599763	0.7099999999999999	0.0
C 	29.514145760973665	-2.8377300509419e-15	0.0
C 	30.743901834347565	0.7099999999999961	0.0
C 	31.97365790772147	-3.0742075551870582e-15	0.0
C 	33.20341398109537	0.7099999999999976	0.0
C 	34.43317005446928	-1.5343282200319664e-15	0.0
C 	35.66292612784318	0.7099999999999992	0.0
C 	36.892682201217085	-1.7708057242771246e-15	0.0
C 	38.122438274590984	0.7099999999999972	0.0
C 	39.35219434796489	-3.783640067922533e-15	0.0
C 	40.58195042133879	0.7099999999999969	0.0
C 	41.811706494712695	-4.67403893367191e-16	0.0
C 	43.0414625680866	0.7100000000000002	0.0
C 	44.27121864146049	-4.25659507641285e-15	0.0
C 	45.5009747148344	0.7099999999999964	0.0
C 	46.730730788208305	-9.403589018575075e-16	0.0
C 	47.96048686158221	0.7099999999999997	0.0
C 	49.1902429349561	-4.729550084903166e-15	0.0
C 	50.41999900833001	0.709999999999996	0.0
C 	51.64975508170391	-1.413313910347824e-15	0.0
C 	52.879511155077815	0.7099999999999993	0.0
C 	54.10926722845172	-1.6497914145929826e-15	0.0
C 	55.33902330182562	0.7099999999999991	0.0
C 	56.56877937519952	-5.438982597638641e-15	0.0
C 	57.798535448573425	0.7099999999999953	0.0
C 	59.02829152194733	-5.6754601018838e-15	0.0
C 	60.25804759532124	0.709999999999995	0.0
C 	1.2297560733739028	2.1299999999999994	0.0
C 	2.4595121467478056	2.8399999999999994	0.0
C 	3.689268220121708	2.1299999999999994	0.0
C 	4.919024293495611	2.8399999999999994	0.0
C 	6.148780366869514	2.129999999999999	0.0
C 	7.378536440243416	2.839999999999999	0.0
C 	8.60829251361732	2.1299999999999986	0.0
C 	9.838048586991222	2.8399999999999985	0.0
C 	11.067804660365123	2.129999999999998	0.0
C 	12.297560733739028	2.839999999999999	0.0
C 	13.527316807112928	2.1299999999999977	0.0
C 	14.757072880486833	2.839999999999998	0.0
C 	15.986828953860735	2.129999999999998	0.0
C 	17.216585027234636	2.839999999999997	0.0
C 	18.446341100608542	2.129999999999998	0.0
C 	19.676097173982445	2.8399999999999985	0.0
C 	20.905853247356344	2.1299999999999977	0.0
C 	22.13560932073025	2.8399999999999985	0.0
C 	23.36536539410415	2.129999999999997	0.0
C 	24.595121467478055	2.839999999999997	0.0
C 	25.824877540851954	2.1299999999999963	0.0
C 	27.05463361422586	2.839999999999997	0.0
C 	28.284389687599763	2.129999999999998	0.0
C 	29.514145760973665	2.8399999999999985	0.0
C 	30.743901834347568	2.129999999999996	0.0
C 	31.97365790772147	2.8399999999999967	0.0
C 	33.20341398109537	2.129999999999996	0.0
C 	34.43317005446928	2.8399999999999963	0.0
C 	35.66292612784318	2.1299999999999972	0.0
C 	36.89268220121708	2.8399999999999963	0.0
C 	38.122438274590984	2.129999999999997	0.0
C 	39.35219434796489	2.8399999999999976	0.0
C 	40.58195042133879	2.1299999999999986	0.0
C 	41.81170649471269	2.839999999999996	0.0
C 	43.0414625680866	2.129999999999998	0.0
C 	44.2712186414605	2.8399999999999954	0.0
C 	45.5009747148344	2.129999999999998	0.0
C 	46.7307307882083	2.8399999999999954	0.0
C 	47.96048686158221	2.1299999999999977	0.0
C 	49.19024293495611	2.839999999999995	0.0
C 	50.41999900833001	2.1299999999999977	0.0
C 	51.64975508170391	2.8399999999999945	0.0
C 	52.879511155077815	2.1299999999999972	0.0
C 	54.10926722845171	2.8399999999999945	0.0
C 	55.33902330182563	2.130000000000001	0.0
C 	56.56877937519952	2.8399999999999976	0.0
C 	57.798535448573425	2.129999999999997	0.0
C 	59.028291521947324	2.839999999999994	0.0
C 	60.25804759532124	2.129999999999997	0.0
C 	61.487803668695136	2.8399999999999936	0.0
C 	2.4595121467478056	4.259999999999999	0.0
C 	3.689268220121708	4.969999999999999	0.0
C 	4.919024293495611	4.259999999999999	0.0
C 	6.148780366869514	4.969999999999999	0.0
C 	7.378536440243416	4.259999999999999	0.0
C 	8.60829251361732	4.969999999999999	0.0
C 	9.83804858699122	4.259999999999998	0.0
C 	11.067804660365125	4.969999999999999	0.0
C 	12.297560733739028	4.259999999999998	0.0
C 	13.52731680711293	4.969999999999998	0.0
C 	14.757072880486831	4.259999999999998	0.0
C 	15.986828953860735	4.969999999999998	0.0
C 	17.21658502723464	4.259999999999997	0.0
C 	18.446341100608542	4.969999999999998	0.0
C 	19.676097173982445	4.259999999999999	0.0
C 	20.905853247356347	4.969999999999997	0.0
C 	22.135609320730246	4.259999999999996	0.0
C 	23.365365394104153	4.969999999999997	0.0
C 	24.595121467478055	4.259999999999998	0.0
C 	25.824877540851958	4.969999999999997	0.0
C 	27.054633614225857	4.259999999999995	0.0
C 	28.28438968759976	4.969999999999996	0.0
C 	29.514145760973665	4.259999999999997	0.0
C 	30.743901834347568	4.969999999999997	0.0
C 	31.97365790772147	4.259999999999996	0.0
C 	33.20341398109537	4.969999999999995	0.0
C 	34.43317005446927	4.2599999999999945	0.0
C 	35.66292612784318	4.969999999999995	0.0
C 	36.892682201217085	4.259999999999996	0.0
C 	38.122438274590984	4.969999999999997	0.0
C 	39.35219434796489	4.259999999999997	0.0
C 	40.58195042133879	4.969999999999994	0.0
C 	41.81170649471269	4.259999999999995	0.0
C 	43.041462568086594	4.969999999999996	0.0
C 	44.2712186414605	4.259999999999997	0.0
C 	45.500974714834406	4.969999999999998	0.0
C 	46.7307307882083	4.259999999999994	0.0
C 	47.960486861582204	4.9699999999999935	0.0
C 	49.19024293495611	4.259999999999996	0.0
C 	50.41999900833001	4.969999999999997	0.0
C 	51.64975508170391	4.259999999999993	0.0
C 	52.879511155077815	4.9699999999999935	0.0
C 	54.10926722845171	4.259999999999996	0.0
C 	55.33902330182562	4.969999999999997	0.0
C 	56.568779375199526	4.259999999999996	0.0
C 	57.798535448573425	4.969999999999996	0.0
C 	59.028291521947324	4.259999999999995	0.0
C 	60.25804759532123	4.969999999999996	0.0
C 	61.487803668695136	4.259999999999992	0.0
C 	62.717559742069035	4.969999999999993	0.0
C 	3.6892682201217086	6.389999999999999	0.0
C 	4.919024293495611	7.099999999999999	0.0
C 	6.148780366869514	6.389999999999999	0.0
C 	7.378536440243416	7.099999999999999	0.0
C 	8.608292513617318	6.389999999999998	0.0
C 	9.838048586991222	7.099999999999999	0.0
C 	11.067804660365125	6.389999999999998	0.0
C 	12.297560733739028	7.099999999999998	0.0
C 	13.52731680711293	6.389999999999999	0.0
C 	14.757072880486833	7.099999999999998	0.0
C 	15.986828953860735	6.389999999999998	0.0
C 	17.216585027234636	7.099999999999997	0.0
C 	18.44634110060854	6.389999999999997	0.0
C 	19.676097173982445	7.099999999999998	0.0
C 	20.905853247356347	6.389999999999998	0.0
C 	22.13560932073025	7.099999999999997	0.0
C 	23.365365394104153	6.389999999999998	0.0
C 	24.59512146747805	7.099999999999997	0.0
C 	25.824877540851958	6.389999999999998	0.0
C 	27.054633614225857	7.099999999999997	0.0
C 	28.28438968759976	6.389999999999999	0.0
C 	29.514145760973662	7.099999999999997	0.0
C 	30.743901834347568	6.389999999999999	0.0
C 	31.97365790772147	7.099999999999998	0.0
C 	33.20341398109537	6.389999999999995	0.0
C 	34.43317005446928	7.099999999999994	0.0
C 	35.66292612784318	6.389999999999995	0.0
C 	36.892682201217085	7.099999999999996	0.0
C 	38.122438274590984	6.389999999999996	0.0
C 	39.35219434796489	7.099999999999997	0.0
C 	40.58195042133879	6.389999999999994	0.0
C 	41.811706494712695	7.099999999999995	0.0
C 	43.041462568086594	6.389999999999996	0.0
C 	44.2712186414605	7.099999999999997	0.0
C 	45.500974714834406	6.389999999999998	0.0
C 	46.730730788208305	7.099999999999998	0.0
C 	47.960486861582204	6.389999999999995	0.0
C 	49.19024293495611	7.099999999999996	0.0
C 	50.41999900833001	6.389999999999995	0.0
C 	51.649755081703915	7.099999999999996	0.0
C 	52.879511155077815	6.389999999999995	0.0
C 	54.10926722845172	7.099999999999996	0.0
C 	55.33902330182562	6.389999999999995	0.0
C 	56.568779375199526	7.099999999999995	0.0
C 	57.79853544857343	6.389999999999998	0.0
C 	59.02829152194733	7.099999999999999	0.0
C 	60.25804759532123	6.389999999999994	0.0
C 	61.487803668695136	7.099999999999995	0.0
C 	62.71755974206904	6.389999999999994	0.0
C 	63.94731581544294	7.099999999999995	0.0
C 	4.919024293495611	8.519999999999998	0.0
C 	6.148780366869514	9.229999999999999	0.0
C 	7.378536440243416	8.519999999999998	0.0
C 	8.60829251361732	9.229999999999999	0.0
C 	9.838048586991222	8.519999999999998	0.0
C 	11.067804660365125	9.229999999999999	0.0
C 	12.297560733739028	8.519999999999998	0.0
C 	13.52731680711293	9.229999999999997	0.0
C 	14.757072880486833	8.519999999999998	0.0
C 	15.986828953860737	9.229999999999999	0.0
C 	17.216585027234636	8.519999999999998	0.0
C 	18.44634110060854	9.229999999999997	0.0
C 	19.67609717398244	8.519999999999996	0.0
C 	20.905853247356347	9.229999999999997	0.0
C 	22.13560932073025	8.519999999999998	0.0
C 	23.365365394104153	9.229999999999999	0.0
C 	24.595121467478055	8.519999999999996	0.0
C 	25.824877540851954	9.229999999999995	0.0
C 	27.05463361422586	8.519999999999996	0.0
C 	28.284389687599763	9.229999999999997	0.0
C 	29.514145760973662	8.519999999999996	0.0
C 	30.743901834347565	9.229999999999995	0.0
C 	31.97365790772147	8.52	0.0
C 	33.20341398109537	9.229999999999997	0.0
C 	34.43317005446928	8.519999999999994	0.0
C 	35.66292612784318	9.229999999999995	0.0
C 	36.89268220121708	8.519999999999992	0.0
C 	38.122438274590984	9.229999999999993	0.0
C 	39.35219434796489	8.519999999999998	0.0
C 	40.58195042133879	9.229999999999995	0.0
C 	41.811706494712695	8.519999999999994	0.0
C 	43.0414625680866	9.229999999999995	0.0
C 	44.27121864146049	8.519999999999992	0.0
C 	45.5009747148344	9.229999999999993	0.0
C 	46.730730788208305	8.519999999999998	0.0
C 	47.960486861582204	9.229999999999995	0.0
C 	49.19024293495611	8.519999999999996	0.0
C 	50.41999900833001	9.229999999999993	0.0
C 	51.64975508170391	8.519999999999994	0.0
C 	52.879511155077815	9.229999999999995	0.0
C 	54.10926722845171	8.51999999999999	0.0
C 	55.33902330182562	9.229999999999992	0.0
C 	56.568779375199526	8.519999999999998	0.0
C 	57.798535448573425	9.229999999999995	0.0
C 	59.02829152194733	8.519999999999994	0.0
C 	60.25804759532123	9.229999999999993	0.0
C 	61.48780366869513	8.519999999999992	0.0
C 	62.717559742069035	9.229999999999993	0.0
C 	63.94731581544294	8.519999999999992	0.0
C 	65.17707188881684	9.22999999999999	0.0
C 	6.148780366869514	10.649999999999997	0.0
C 	7.378536440243416	11.359999999999998	0.0
C 	8.608292513617318	10.649999999999997	0.0
C 	9.838048586991222	11.359999999999998	0.0
C 	11.067804660365125	10.649999999999997	0.0
C 	12.297560733739028	11.359999999999996	0.0
C 	13.52731680711293	10.649999999999997	0.0
C 	14.757072880486831	11.359999999999996	0.0
C 	15.986828953860735	10.649999999999997	0.0
C 	17.216585027234636	11.359999999999996	0.0
C 	18.44634110060854	10.649999999999997	0.0
C 	19.676097173982445	11.359999999999998	0.0
C 	20.905853247356347	10.649999999999997	0.0
C 	22.13560932073025	11.359999999999996	0.0
C 	23.365365394104153	10.649999999999997	0.0
C 	24.595121467478055	11.359999999999996	0.0
C 	25.824877540851958	10.649999999999997	0.0
C 	27.05463361422586	11.359999999999996	0.0
C 	28.284389687599763	10.649999999999995	0.0
C 	29.514145760973662	11.359999999999994	0.0
C 	30.743901834347565	10.649999999999995	0.0
C 	31.97365790772147	11.359999999999996	0.0
C 	33.20341398109537	10.649999999999997	0.0
C 	34.43317005446928	11.359999999999998	0.0
C 	35.66292612784318	10.649999999999991	0.0
C 	36.89268220121708	11.359999999999992	0.0
C 	38.122438274590984	10.649999999999993	0.0
C 	39.35219434796489	11.359999999999994	0.0
C 	40.58195042133879	10.649999999999993	0.0
C 	41.811706494712695	11.359999999999994	0.0
C 	43.041462568086594	10.649999999999991	0.0
C 	44.2712186414605	11.359999999999992	0.0
C 	45.5009747148344	10.649999999999993	0.0
C 	46.730730788208305	11.359999999999994	0.0
C 	47.960486861582204	10.649999999999995	0.0
C 	49.19024293495611	11.359999999999996	0.0
C 	50.41999900833001	10.649999999999993	0.0
C 	51.649755081703915	11.359999999999994	0.0
C 	52.879511155077815	10.649999999999995	0.0
C 	54.10926722845172	11.359999999999996	0.0
C 	55.33902330182562	10.649999999999993	0.0
C 	56.568779375199526	11.359999999999994	0.0
C 	57.798535448573425	10.649999999999993	0.0
C 	59.02829152194733	11.359999999999992	0.0
C 	60.25804759532124	10.649999999999995	0.0
C 	61.487803668695136	11.359999999999996	0.0
C 	62.717559742069035	10.649999999999991	0.0
C 	63.94731581544294	11.359999999999992	0.0
C 	65.17707188881684	10.649999999999991	0.0
C 	66.40682796219075	11.359999999999992	0.0
C 	7.378536440243417	12.779999999999998	0.0
C 	8.60829251361732	13.489999999999998	0.0
C 	9.838048586991222	12.78	0.0
C 	11.067804660365125	13.489999999999997	0.0
C 	12.297560733739028	12.779999999999998	0.0
C 	13.527316807112932	13.489999999999998	0.0
C 	14.757072880486833	12.779999999999998	0.0
C 	15.986828953860737	13.489999999999997	0.0
C 	17.216585027234636	12.779999999999996	0.0
C 	18.446341100608542	13.489999999999997	0.0
C 	19.676097173982445	12.779999999999998	0.0
C 	20.905853247356347	13.489999999999997	0.0
C 	22.13560932073025	12.779999999999996	0.0
C 	23.36536539410415	13.489999999999995	0.0
C 	24.595121467478055	12.779999999999996	0.0
C 	25.824877540851958	13.489999999999997	0.0
C 	27.05463361422586	12.779999999999998	0.0
C 	28.284389687599763	13.489999999999997	0.0
C 	29.514145760973662	12.779999999999996	0.0
C 	30.743901834347568	13.489999999999997	0.0
C 	31.97365790772147	12.779999999999996	0.0
C 	33.20341398109537	13.489999999999997	0.0
C 	34.43317005446928	12.779999999999998	0.0
C 	35.66292612784318	13.489999999999995	0.0
C 	36.89268220121708	12.779999999999994	0.0
C 	38.122438274590984	13.489999999999995	0.0
C 	39.35219434796489	12.779999999999996	0.0
C 	40.581950421338796	13.489999999999997	0.0
C 	41.811706494712695	12.779999999999996	0.0
C 	43.041462568086594	13.489999999999993	0.0
C 	44.2712186414605	12.779999999999994	0.0
C 	45.5009747148344	13.489999999999995	0.0
C 	46.730730788208305	12.779999999999996	0.0
C 	47.96048686158221	13.489999999999997	0.0
C 	49.19024293495611	12.779999999999998	0.0
C 	50.41999900833001	13.489999999999995	0.0
C 	51.649755081703915	12.779999999999996	0.0
C 	52.879511155077815	13.489999999999993	0.0
C 	54.10926722845172	12.779999999999998	0.0
C 	55.33902330182563	13.489999999999998	0.0
C 	56.56877937519952	12.779999999999998	0.0
C 	57.798535448573425	13.489999999999997	0.0
C 	59.02829152194733	12.779999999999994	0.0
C 	60.25804759532123	13.489999999999991	0.0
C 	61.487803668695136	12.779999999999998	0.0
C 	62.71755974206904	13.489999999999998	0.0
C 	63.94731581544294	12.779999999999994	0.0
C 	65.17707188881684	13.489999999999995	0.0
C 	66.40682796219075	12.77999999999999	0.0
C 	67.63658403556465	13.489999999999988	0.0
C 	8.60829251361732	14.909999999999998	0.0
C 	9.838048586991222	15.619999999999996	0.0
C 	11.067804660365125	14.909999999999997	0.0
C 	12.297560733739026	15.619999999999996	0.0
C 	13.527316807112934	14.909999999999998	0.0
C 	14.757072880486831	15.619999999999996	0.0
C 	15.986828953860737	14.909999999999998	0.0
C 	17.21658502723464	15.619999999999997	0.0
C 	18.446341100608542	14.909999999999997	0.0
C 	19.676097173982445	15.619999999999996	0.0
C 	20.905853247356347	14.909999999999997	0.0
C 	22.135609320730246	15.619999999999996	0.0
C 	23.365365394104153	14.909999999999995	0.0
C 	24.595121467478055	15.619999999999996	0.0
C 	25.824877540851958	14.909999999999997	0.0
C 	27.05463361422586	15.619999999999996	0.0
C 	28.284389687599763	14.909999999999997	0.0
C 	29.514145760973665	15.619999999999996	0.0
C 	30.743901834347568	14.909999999999997	0.0
C 	31.973657907721474	15.619999999999997	0.0
C 	33.203413981095366	14.909999999999993	0.0
C 	34.43317005446927	15.619999999999994	0.0
C 	35.662926127843185	14.909999999999998	0.0
C 	36.892682201217085	15.619999999999996	0.0
C 	38.122438274590984	14.909999999999995	0.0
C 	39.35219434796489	15.619999999999996	0.0
C 	40.58195042133879	14.909999999999993	0.0
C 	41.811706494712695	15.619999999999994	0.0
C 	43.0414625680866	14.909999999999998	0.0
C 	44.2712186414605	15.619999999999996	0.0
C 	45.5009747148344	14.909999999999995	0.0
C 	46.730730788208305	15.619999999999996	0.0
C 	47.960486861582204	14.909999999999993	0.0
C 	49.19024293495611	15.619999999999994	0.0
C 	50.41999900833002	14.909999999999998	0.0
C 	51.649755081703915	15.619999999999996	0.0
C 	52.87951115507782	14.909999999999997	0.0
C 	54.10926722845171	15.619999999999994	0.0
C 	55.33902330182562	14.909999999999995	0.0
C 	56.568779375199526	15.619999999999994	0.0
C 	57.798535448573425	14.909999999999991	0.0
C 	59.028291521947324	15.619999999999992	0.0
C 	60.25804759532124	14.909999999999998	0.0
C 	61.487803668695136	15.619999999999996	0.0
C 	62.717559742069035	14.909999999999993	0.0
C 	63.94731581544294	15.619999999999994	0.0
C 	65.17707188881684	14.909999999999993	0.0
C 	66.40682796219075	15.619999999999994	0.0
C 	67.63658403556465	14.909999999999997	0.0
C 	68.86634010893854	15.61999999999999	0.0
C 	9.838048586991222	17.039999999999996	0.0
C 	11.067804660365127	17.749999999999996	0.0
C 	12.297560733739028	17.039999999999996	0.0
C 	13.527316807112932	17.749999999999996	0.0
C 	14.757072880486833	17.039999999999996	0.0
C 	15.986828953860735	17.749999999999996	0.0
C 	17.21658502723464	17.039999999999996	0.0
C 	18.446341100608546	17.749999999999996	0.0
C 	19.676097173982445	17.039999999999996	0.0
C 	20.905853247356347	17.749999999999996	0.0
C 	22.13560932073025	17.039999999999996	0.0
C 	23.365365394104153	17.749999999999996	0.0
C 	24.595121467478055	17.039999999999996	0.0
C 	25.82487754085196	17.749999999999996	0.0
C 	27.05463361422586	17.039999999999996	0.0
C 	28.28438968759977	17.75	0.0
C 	29.514145760973665	17.039999999999996	0.0
C 	30.74390183434757	17.749999999999996	0.0
C 	31.973657907721467	17.039999999999992	0.0
C 	33.20341398109537	17.749999999999993	0.0
C 	34.43317005446927	17.039999999999996	0.0
C 	35.66292612784318	17.749999999999996	0.0
C 	36.892682201217085	17.039999999999996	0.0
C 	38.122438274590984	17.749999999999996	0.0
C 	39.35219434796488	17.039999999999992	0.0
C 	40.58195042133879	17.749999999999993	0.0
C 	41.811706494712695	17.039999999999992	0.0
C 	43.041462568086594	17.749999999999993	0.0
C 	44.2712186414605	17.039999999999996	0.0
C 	45.500974714834406	17.749999999999996	0.0
C 	46.7307307882083	17.039999999999992	0.0
C 	47.960486861582204	17.749999999999993	0.0
C 	49.19024293495611	17.039999999999992	0.0
C 	50.41999900833002	17.749999999999993	0.0
C 	51.649755081703915	17.039999999999996	0.0
C 	52.87951115507782	17.749999999999996	0.0
C 	54.10926722845172	17.039999999999992	0.0
C 	55.33902330182562	17.749999999999993	0.0
C 	56.568779375199526	17.039999999999996	0.0
C 	57.79853544857343	17.749999999999996	0.0
C 	59.028291521947324	17.039999999999992	0.0
C 	60.25804759532123	17.749999999999993	0.0
C 	61.487803668695136	17.039999999999996	0.0
C 	62.71755974206904	17.749999999999996	0.0
C 	63.94731581544294	17.04	0.0
C 	65.17707188881684	17.749999999999993	0.0
C 	66.40682796219075	17.039999999999996	0.0
C 	67.63658403556464	17.74999999999999	0.0
C 	68.86634010893856	17.03999999999999	0.0
C 	70.09609618231246	17.74999999999999	0.0
C 	11.067804660365125	19.169999999999995	0.0
C 	12.297560733739026	19.879999999999995	0.0
C 	13.52731680711293	19.169999999999995	0.0
C 	14.757072880486831	19.879999999999995	0.0
C 	15.986828953860737	19.169999999999998	0.0
C 	17.216585027234636	19.879999999999992	0.0
C 	18.446341100608542	19.169999999999995	0.0
C 	19.676097173982445	19.879999999999995	0.0
C 	20.905853247356347	19.169999999999995	0.0
C 	22.135609320730246	19.879999999999995	0.0
C 	23.365365394104153	19.169999999999995	0.0
C 	24.59512146747805	19.879999999999995	0.0
C 	25.824877540851958	19.169999999999995	0.0
C 	27.05463361422586	19.879999999999995	0.0
C 	28.284389687599763	19.169999999999995	0.0
C 	29.51414576097367	19.879999999999995	0.0
C 	30.743901834347565	19.16999999999999	0.0
C 	31.97365790772147	19.879999999999992	0.0
C 	33.20341398109537	19.169999999999995	0.0
C 	34.43317005446927	19.879999999999992	0.0
C 	35.66292612784318	19.169999999999995	0.0
C 	36.89268220121708	19.879999999999992	0.0
C 	38.122438274590984	19.169999999999995	0.0
C 	39.35219434796488	19.879999999999992	0.0
C 	40.58195042133879	19.16999999999999	0.0
C 	41.81170649471269	19.87999999999999	0.0
C 	43.0414625680866	19.169999999999995	0.0
C 	44.27121864146049	19.879999999999992	0.0
C 	45.5009747148344	19.16999999999999	0.0
C 	46.730730788208305	19.879999999999992	0.0
C 	47.960486861582204	19.169999999999995	0.0
C 	49.1902429349561	19.879999999999992	0.0
C 	50.41999900833002	19.169999999999995	0.0
C 	51.649755081703915	19.879999999999992	0.0
C 	52.879511155077815	19.16999999999999	0.0
C 	54.10926722845172	19.879999999999992	0.0
C 	55.33902330182562	19.16999999999999	0.0
C 	56.56877937519952	19.879999999999992	0.0
C 	57.79853544857343	19.169999999999995	0.0
C 	59.02829152194733	19.879999999999992	0.0
C 	60.25804759532123	19.169999999999995	0.0
C 	61.48780366869513	19.879999999999992	0.0
C 	62.717559742069035	19.16999999999999	0.0
C 	63.94731581544294	19.879999999999992	0.0
C 	65.17707188881684	19.169999999999995	0.0
C 	66.40682796219075	19.87999999999999	0.0
C 	67.63658403556465	19.169999999999995	0.0
C 	68.86634010893854	19.87999999999999	0.0
C 	70.09609618231245	19.16999999999999	0.0
C 	71.32585225568636	19.879999999999992	0.0
C 	12.297560733739028	21.299999999999994	0.0
C 	13.527316807112932	22.009999999999994	0.0
C 	14.757072880486831	21.299999999999994	0.0
C 	15.986828953860735	22.009999999999994	0.0
C 	17.216585027234636	21.299999999999994	0.0
C 	18.44634110060854	22.009999999999994	0.0
C 	19.676097173982445	21.299999999999994	0.0
C 	20.905853247356347	22.009999999999994	0.0
C 	22.13560932073025	21.299999999999994	0.0
C 	23.365365394104153	22.009999999999994	0.0
C 	24.595121467478055	21.299999999999994	0.0
C 	25.824877540851958	22.009999999999994	0.0
C 	27.05463361422586	21.299999999999994	0.0
C 	28.284389687599766	22.009999999999994	0.0
C 	29.514145760973662	21.29999999999999	0.0
C 	30.743901834347568	22.00999999999999	0.0
C 	31.97365790772147	21.299999999999994	0.0
C 	33.20341398109537	22.009999999999994	0.0
C 	34.43317005446928	21.299999999999994	0.0
C 	35.662926127843185	22.009999999999994	0.0
C 	36.89268220121708	21.299999999999994	0.0
C 	38.122438274590984	22.009999999999994	0.0
C 	39.35219434796489	21.299999999999994	0.0
C 	40.58195042133879	22.009999999999994	0.0
C 	41.811706494712695	21.299999999999994	0.0
C 	43.0414625680866	22.009999999999994	0.0
C 	44.2712186414605	21.29999999999999	0.0
C 	45.5009747148344	22.00999999999999	0.0
C 	46.730730788208305	21.299999999999994	0.0
C 	47.96048686158221	22.009999999999994	0.0
C 	49.19024293495611	21.299999999999994	0.0
C 	50.41999900833002	22.009999999999994	0.0
C 	51.649755081703915	21.299999999999994	0.0
C 	52.879511155077815	22.00999999999999	0.0
C 	54.10926722845172	21.299999999999994	0.0
C 	55.33902330182563	22.009999999999994	0.0
C 	56.568779375199526	21.29999999999999	0.0
C 	57.798535448573425	22.00999999999999	0.0
C 	59.02829152194733	21.299999999999994	0.0
C 	60.25804759532124	22.009999999999994	0.0
C 	61.48780366869513	21.29999999999999	0.0
C 	62.717559742069035	22.00999999999999	0.0
C 	63.94731581544294	21.299999999999994	0.0
C 	65.17707188881684	22.009999999999987	0.0
C 	66.40682796219075	21.299999999999994	0.0
C 	67.63658403556465	22.009999999999994	0.0
C 	68.86634010893854	21.29999999999999	0.0
C 	70.09609618231245	22.00999999999999	0.0
C 	71.32585225568636	21.299999999999983	0.0
C 	72.55560832906026	22.00999999999999	0.0
C 	13.527316807112932	23.429999999999996	0.0
C 	14.757072880486836	24.139999999999997	0.0
C 	15.986828953860737	23.429999999999996	0.0
C 	17.216585027234643	24.139999999999997	0.0
C 	18.446341100608542	23.429999999999996	0.0
C 	19.676097173982445	24.139999999999997	0.0
C 	20.90585324735635	23.429999999999996	0.0
C 	22.135609320730254	24.139999999999997	0.0
C 	23.365365394104156	23.429999999999993	0.0
C 	24.595121467478062	24.139999999999997	0.0
C 	25.824877540851958	23.429999999999993	0.0
C 	27.054633614225864	24.139999999999993	0.0
C 	28.284389687599766	23.429999999999996	0.0
C 	29.514145760973673	24.139999999999997	0.0
C 	30.743901834347575	23.429999999999996	0.0
C 	31.973657907721478	24.139999999999997	0.0
C 	33.20341398109537	23.429999999999993	0.0
C 	34.43317005446928	24.139999999999993	0.0
C 	35.66292612784318	23.429999999999993	0.0
C 	36.892682201217085	24.139999999999993	0.0
C 	38.122438274590984	23.429999999999993	0.0
C 	39.35219434796489	24.139999999999993	0.0
C 	40.58195042133879	23.429999999999996	0.0
C 	41.811706494712695	24.139999999999993	0.0
C 	43.041462568086594	23.42999999999999	0.0
C 	44.2712186414605	24.13999999999999	0.0
C 	45.5009747148344	23.429999999999993	0.0
C 	46.730730788208305	24.139999999999993	0.0
C 	47.96048686158221	23.429999999999993	0.0
C 	49.19024293495611	24.139999999999993	0.0
C 	50.41999900833001	23.429999999999993	0.0
C 	51.649755081703915	24.13999999999999	0.0
C 	52.87951115507782	23.429999999999993	0.0
C 	54.10926722845172	24.139999999999993	0.0
C 	55.33902330182563	23.429999999999993	0.0
C 	56.56877937519953	24.139999999999993	0.0
C 	57.798535448573425	23.429999999999993	0.0
C 	59.02829152194733	24.139999999999993	0.0
C 	60.25804759532124	23.429999999999993	0.0
C 	61.487803668695136	24.13999999999999	0.0
C 	62.71755974206904	23.429999999999993	0.0
C 	63.947315815442934	24.139999999999986	0.0
C 	65.17707188881684	23.429999999999993	0.0
C 	66.40682796219075	24.139999999999993	0.0
C 	67.63658403556464	23.42999999999999	0.0
C 	68.86634010893856	24.139999999999997	0.0
C 	70.09609618231245	23.42999999999999	0.0
C 	71.32585225568636	24.139999999999997	0.0
C 	72.55560832906026	23.42999999999999	0.0
C 	73.78536440243417	24.13999999999999	0.0
C 	14.757072880486835	25.559999999999995	0.0
C 	15.986828953860735	26.269999999999996	0.0
C 	17.21658502723464	25.559999999999995	0.0
C 	18.44634110060854	26.269999999999996	0.0
C 	19.676097173982445	25.56	0.0
C 	20.905853247356344	26.269999999999996	0.0
C 	22.13560932073025	25.56	0.0
C 	23.365365394104153	26.269999999999996	0.0
C 	24.595121467478055	25.559999999999995	0.0
C 	25.824877540851958	26.269999999999996	0.0
C 	27.054633614225857	25.559999999999995	0.0
C 	28.28438968759976	26.269999999999996	0.0
C 	29.514145760973665	25.559999999999995	0.0
C 	30.743901834347568	26.269999999999996	0.0
C 	31.973657907721474	25.559999999999995	0.0
C 	33.20341398109538	26.269999999999996	0.0
C 	34.43317005446927	25.55999999999999	0.0
C 	35.66292612784318	26.269999999999992	0.0
C 	36.892682201217085	25.559999999999995	0.0
C 	38.12243827459098	26.269999999999992	0.0
C 	39.35219434796489	25.559999999999995	0.0
C 	40.58195042133879	26.269999999999992	0.0
C 	41.81170649471269	25.55999999999999	0.0
C 	43.041462568086594	26.269999999999992	0.0
C 	44.2712186414605	25.55999999999999	0.0
C 	45.5009747148344	26.26999999999999	0.0
C 	46.730730788208305	25.559999999999995	0.0
C 	47.960486861582204	26.269999999999992	0.0
C 	49.19024293495611	25.55999999999999	0.0
C 	50.41999900833001	26.269999999999992	0.0
C 	51.649755081703915	25.559999999999995	0.0
C 	52.879511155077815	26.269999999999992	0.0
C 	54.10926722845172	25.559999999999995	0.0
C 	55.33902330182562	26.269999999999992	0.0
C 	56.568779375199526	25.55999999999999	0.0
C 	57.79853544857343	26.269999999999992	0.0
C 	59.028291521947324	25.55999999999999	0.0
C 	60.25804759532123	26.269999999999992	0.0
C 	61.487803668695136	25.559999999999995	0.0
C 	62.717559742069035	26.26999999999999	0.0
C 	63.94731581544294	25.55999999999999	0.0
C 	65.17707188881683	26.269999999999985	0.0
C 	66.40682796219075	25.55999999999999	0.0
C 	67.63658403556465	26.269999999999992	0.0
C 	68.86634010893856	25.559999999999995	0.0
C 	70.09609618231246	26.269999999999996	0.0
C 	71.32585225568636	25.559999999999995	0.0
C 	72.55560832906026	26.269999999999996	0.0
C 	73.78536440243415	25.559999999999988	0.0
C 	75.01512047580806	26.26999999999999	0.0
C 	15.986828953860735	27.689999999999994	0.0
C 	17.21658502723464	28.399999999999995	0.0
C 	18.446341100608542	27.689999999999994	0.0
C 	19.676097173982445	28.399999999999995	0.0
C 	20.905853247356344	27.689999999999994	0.0
C 	22.13560932073025	28.399999999999995	0.0
C 	23.365365394104153	27.689999999999994	0.0
C 	24.59512146747806	28.399999999999995	0.0
C 	25.824877540851954	27.689999999999994	0.0
C 	27.054633614225857	28.399999999999995	0.0
C 	28.284389687599763	27.689999999999994	0.0
C 	29.514145760973665	28.399999999999995	0.0
C 	30.74390183434757	27.689999999999994	0.0
C 	31.973657907721474	28.399999999999995	0.0
C 	33.20341398109537	27.68999999999999	0.0
C 	34.43317005446928	28.39999999999999	0.0
C 	35.66292612784318	27.689999999999994	0.0
C 	36.892682201217085	28.399999999999995	0.0
C 	38.122438274590984	27.689999999999994	0.0
C 	39.35219434796489	28.399999999999995	0.0
C 	40.58195042133879	27.689999999999994	0.0
C 	41.811706494712695	28.399999999999995	0.0
C 	43.041462568086594	27.689999999999994	0.0
C 	44.2712186414605	28.399999999999995	0.0
C 	45.500974714834406	27.689999999999994	0.0
C 	46.730730788208305	28.399999999999995	0.0
C 	47.960486861582204	27.68999999999999	0.0
C 	49.19024293495611	28.39999999999999	0.0
C 	50.41999900833002	27.689999999999994	0.0
C 	51.649755081703915	28.399999999999995	0.0
C 	52.87951115507782	27.689999999999994	0.0
C 	54.10926722845173	28.399999999999995	0.0
C 	55.33902330182562	27.68999999999999	0.0
C 	56.568779375199526	28.39999999999999	0.0
C 	57.79853544857343	27.689999999999994	0.0
C 	59.02829152194733	28.39999999999999	0.0
C 	60.25804759532124	27.689999999999994	0.0
C 	61.48780366869513	28.399999999999988	0.0
C 	62.717559742069035	27.689999999999994	0.0
C 	63.94731581544294	28.399999999999995	0.0
C 	65.17707188881684	27.68999999999999	0.0
C 	66.40682796219075	28.39999999999999	0.0
C 	67.63658403556464	27.689999999999987	0.0
C 	68.86634010893856	28.399999999999995	0.0
C 	70.09609618231245	27.689999999999994	0.0
C 	71.32585225568636	28.399999999999995	0.0
C 	72.55560832906026	27.68999999999999	0.0
C 	73.78536440243415	28.39999999999999	0.0
C 	75.01512047580808	27.689999999999994	0.0
C 	76.24487654918197	28.399999999999984	0.0
C 	17.21658502723464	29.819999999999997	0.0
C 	18.446341100608546	30.529999999999998	0.0
C 	19.676097173982445	29.819999999999997	0.0
C 	20.905853247356355	30.529999999999998	0.0
C 	22.13560932073025	29.819999999999993	0.0
C 	23.365365394104156	30.529999999999994	0.0
C 	24.59512146747806	29.819999999999997	0.0
C 	25.82487754085196	30.529999999999998	0.0
C 	27.054633614225867	29.819999999999997	0.0
C 	28.28438968759977	30.529999999999998	0.0
C 	29.514145760973665	29.819999999999997	0.0
C 	30.74390183434757	30.529999999999998	0.0
C 	31.973657907721474	29.819999999999997	0.0
C 	33.20341398109538	30.529999999999998	0.0
C 	34.43317005446928	29.819999999999997	0.0
C 	35.662926127843185	30.529999999999998	0.0
C 	36.892682201217085	29.819999999999993	0.0
C 	38.12243827459099	30.529999999999994	0.0
C 	39.35219434796488	29.819999999999993	0.0
C 	40.58195042133879	30.529999999999994	0.0
C 	41.811706494712695	29.819999999999993	0.0
C 	43.0414625680866	30.529999999999994	0.0
C 	44.2712186414605	29.819999999999993	0.0
C 	45.500974714834406	30.529999999999994	0.0
C 	46.730730788208305	29.81999999999999	0.0
C 	47.960486861582204	30.52999999999999	0.0
C 	49.19024293495611	29.819999999999993	0.0
C 	50.41999900833002	30.529999999999994	0.0
C 	51.649755081703915	29.819999999999993	0.0
C 	52.87951115507782	30.529999999999994	0.0
C 	54.10926722845172	29.819999999999993	0.0
C 	55.33902330182563	30.52999999999999	0.0
C 	56.568779375199526	29.819999999999993	0.0
C 	57.798535448573425	30.52999999999999	0.0
C 	59.02829152194734	29.819999999999993	0.0
C 	60.25804759532124	30.529999999999994	0.0
C 	61.487803668695136	29.819999999999993	0.0
C 	62.71755974206904	30.529999999999994	0.0
C 	63.947315815442934	29.81999999999999	0.0
C 	65.17707188881685	30.529999999999998	0.0
C 	66.40682796219073	29.819999999999986	0.0
C 	67.63658403556465	30.529999999999994	0.0
C 	68.86634010893856	29.819999999999993	0.0
C 	70.09609618231245	30.529999999999994	0.0
C 	71.32585225568637	29.819999999999997	0.0
C 	72.55560832906026	30.52999999999999	0.0
C 	73.78536440243417	29.819999999999997	0.0
C 	75.01512047580806	30.529999999999987	0.0
C 	76.24487654918197	29.81999999999999	0.0
C 	77.47463262255587	30.52999999999999	0.0
C 	18.446341100608542	31.949999999999996	0.0
C 	19.676097173982445	32.65999999999999	0.0
C 	20.905853247356347	31.949999999999992	0.0
C 	22.135609320730254	32.66	0.0
C 	23.365365394104156	31.949999999999996	0.0
C 	24.595121467478055	32.65999999999999	0.0
C 	25.824877540851958	31.949999999999992	0.0
C 	27.05463361422586	32.66	0.0
C 	28.284389687599766	31.949999999999996	0.0
C 	29.51414576097367	32.66	0.0
C 	30.743901834347568	31.949999999999992	0.0
C 	31.97365790772147	32.66	0.0
C 	33.20341398109537	31.949999999999992	0.0
C 	34.43317005446928	32.66	0.0
C 	35.66292612784318	31.949999999999996	0.0
C 	36.892682201217085	32.66	0.0
C 	38.122438274590984	31.949999999999992	0.0
C 	39.35219434796489	32.65999999999999	0.0
C 	40.58195042133879	31.949999999999992	0.0
C 	41.81170649471269	32.65999999999999	0.0
C 	43.0414625680866	31.949999999999996	0.0
C 	44.2712186414605	32.65999999999999	0.0
C 	45.5009747148344	31.949999999999992	0.0
C 	46.730730788208305	32.65999999999999	0.0
C 	47.96048686158221	31.949999999999992	0.0
C 	49.1902429349561	32.65999999999999	0.0
C 	50.41999900833002	31.949999999999992	0.0
C 	51.649755081703915	32.65999999999999	0.0
C 	52.879511155077815	31.949999999999992	0.0
C 	54.10926722845172	32.65999999999999	0.0
C 	55.33902330182563	31.949999999999992	0.0
C 	56.568779375199526	32.65999999999999	0.0
C 	57.79853544857343	31.949999999999992	0.0
C 	59.028291521947324	32.65999999999999	0.0
C 	60.25804759532124	31.949999999999992	0.0
C 	61.487803668695136	32.65999999999999	0.0
C 	62.717559742069035	31.94999999999999	0.0
C 	63.94731581544294	32.65999999999999	0.0
C 	65.17707188881685	31.949999999999992	0.0
C 	66.40682796219076	32.66	0.0
C 	67.63658403556465	31.949999999999992	0.0
C 	68.86634010893856	32.65999999999999	0.0
C 	70.09609618231245	31.94999999999999	0.0
C 	71.32585225568636	32.65999999999999	0.0
C 	72.55560832906026	31.949999999999996	0.0
C 	73.78536440243415	32.65999999999999	0.0
C 	75.01512047580806	31.949999999999992	0.0
C 	76.24487654918195	32.65999999999998	0.0
C 	77.47463262255587	31.949999999999985	0.0
C 	78.70438869592978	32.65999999999999	0.0
C 	19.676097173982445	34.07999999999999	0.0
C 	20.90585324735635	34.78999999999999	0.0
C 	22.135609320730254	34.07999999999999	0.0
C 	23.365365394104156	34.78999999999999	0.0
C 	24.595121467478055	34.07999999999999	0.0
C 	25.824877540851958	34.78999999999999	0.0
C 	27.054633614225864	34.07999999999999	0.0
C 	28.284389687599766	34.78999999999999	0.0
C 	29.514145760973665	34.07999999999999	0.0
C 	30.743901834347568	34.78999999999999	0.0
C 	31.97365790772147	34.07999999999999	0.0
C 	33.20341398109537	34.78999999999999	0.0
C 	34.43317005446928	34.07999999999999	0.0
C 	35.662926127843185	34.78999999999999	0.0
C 	36.89268220121708	34.07999999999999	0.0
C 	38.122438274590984	34.78999999999999	0.0
C 	39.35219434796489	34.07999999999999	0.0
C 	40.581950421338796	34.78999999999999	0.0
C 	41.811706494712695	34.07999999999999	0.0
C 	43.0414625680866	34.78999999999999	0.0
C 	44.2712186414605	34.07999999999999	0.0
C 	45.5009747148344	34.78999999999999	0.0
C 	46.730730788208305	34.07999999999999	0.0
C 	47.96048686158221	34.78999999999999	0.0
C 	49.19024293495611	34.07999999999999	0.0
C 	50.41999900833002	34.78999999999999	0.0
C 	51.649755081703915	34.07999999999999	0.0
C 	52.87951115507782	34.78999999999999	0.0
C 	54.10926722845172	34.07999999999999	0.0
C 	55.33902330182562	34.78999999999999	0.0
C 	56.56877937519953	34.07999999999999	0.0
C 	57.79853544857343	34.78999999999999	0.0
C 	59.02829152194733	34.07999999999999	0.0
C 	60.25804759532124	34.78999999999999	0.0
C 	61.487803668695136	34.07999999999999	0.0
C 	62.71755974206905	34.79	0.0
C 	63.947315815442934	34.079999999999984	0.0
C 	65.17707188881685	34.78999999999999	0.0
C 	66.40682796219075	34.07999999999999	0.0
C 	67.63658403556465	34.78999999999999	0.0
C 	68.86634010893854	34.07999999999999	0.0
C 	70.09609618231245	34.78999999999999	0.0
C 	71.32585225568636	34.07999999999999	0.0
C 	72.55560832906025	34.789999999999985	0.0
C 	73.78536440243417	34.07999999999999	0.0
C 	75.01512047580808	34.78999999999999	0.0
C 	76.24487654918197	34.07999999999999	0.0
C 	77.47463262255587	34.78999999999999	0.0
C 	78.70438869592977	34.079999999999984	0.0
C 	79.93414476930369	34.78999999999999	0.0
C 	20.90585324735635	36.209999999999994	0.0
C 	22.135609320730254	36.919999999999995	0.0
C 	23.36536539410416	36.209999999999994	0.0
C 	24.595121467478062	36.919999999999995	0.0
C 	25.82487754085196	36.209999999999994	0.0
C 	27.054633614225864	36.919999999999995	0.0
C 	28.284389687599766	36.209999999999994	0.0
C 	29.514145760973673	36.919999999999995	0.0
C 	30.743901834347575	36.209999999999994	0.0
C 	31.973657907721478	36.919999999999995	0.0
C 	33.20341398109537	36.209999999999994	0.0
C 	34.43317005446928	36.919999999999995	0.0
C 	35.662926127843185	36.209999999999994	0.0
C 	36.89268220121709	36.919999999999995	0.0
C 	38.12243827459099	36.209999999999994	0.0
C 	39.3521943479649	36.919999999999995	0.0
C 	40.581950421338796	36.209999999999994	0.0
C 	41.811706494712695	36.919999999999995	0.0
C 	43.041462568086594	36.209999999999994	0.0
C 	44.2712186414605	36.919999999999995	0.0
C 	45.500974714834406	36.209999999999994	0.0
C 	46.730730788208305	36.919999999999995	0.0
C 	47.96048686158221	36.209999999999994	0.0
C 	49.19024293495612	36.919999999999995	0.0
C 	50.41999900833002	36.20999999999999	0.0
C 	51.649755081703915	36.91999999999999	0.0
C 	52.87951115507782	36.209999999999994	0.0
C 	54.10926722845172	36.91999999999999	0.0
C 	55.33902330182563	36.209999999999994	0.0
C 	56.56877937519953	36.919999999999995	0.0
C 	57.79853544857343	36.20999999999999	0.0
C 	59.02829152194733	36.91999999999999	0.0
C 	60.25804759532123	36.20999999999999	0.0
C 	61.48780366869515	36.919999999999995	0.0
C 	62.71755974206904	36.209999999999994	0.0
C 	63.94731581544295	36.919999999999995	0.0
C 	65.17707188881684	36.209999999999994	0.0
C 	66.40682796219075	36.919999999999995	0.0
C 	67.63658403556467	36.209999999999994	0.0
C 	68.86634010893856	36.91999999999999	0.0
C 	70.09609618231246	36.209999999999994	0.0
C 	71.32585225568636	36.91999999999999	0.0
C 	72.55560832906026	36.209999999999994	0.0
C 	73.78536440243417	36.919999999999995	0.0
C 	75.01512047580806	36.20999999999999	0.0
C 	76.24487654918198	36.919999999999995	0.0
C 	77.47463262255586	36.20999999999999	0.0
C 	78.70438869592978	36.919999999999995	0.0
C 	79.93414476930369	36.20999999999999	0.0
C 	81.16390084267759	36.91999999999999	0.0
C 	22.13560932073025	38.33999999999999	0.0
C 	23.365365394104153	39.04999999999999	0.0
C 	24.59512146747806	38.33999999999999	0.0
C 	25.82487754085196	39.04999999999999	0.0
C 	27.05463361422586	38.33999999999999	0.0
C 	28.284389687599763	39.04999999999999	0.0
C 	29.514145760973665	38.33999999999999	0.0
C 	30.74390183434757	39.04999999999999	0.0
C 	31.973657907721474	38.339999999999996	0.0
C 	33.20341398109538	39.04999999999999	0.0
C 	34.43317005446927	38.33999999999999	0.0
C 	35.66292612784318	39.04999999999999	0.0
C 	36.892682201217085	38.33999999999999	0.0
C 	38.12243827459099	39.04999999999999	0.0
C 	39.35219434796489	38.33999999999999	0.0
C 	40.581950421338796	39.04999999999999	0.0
C 	41.811706494712695	38.33999999999999	0.0
C 	43.0414625680866	39.04999999999999	0.0
C 	44.27121864146049	38.33999999999999	0.0
C 	45.5009747148344	39.04999999999999	0.0
C 	46.730730788208305	38.33999999999999	0.0
C 	47.960486861582204	39.04999999999999	0.0
C 	49.19024293495611	38.33999999999999	0.0
C 	50.41999900833002	39.04999999999999	0.0
C 	51.649755081703915	38.33999999999999	0.0
C 	52.879511155077815	39.04999999999999	0.0
C 	54.10926722845173	38.33999999999999	0.0
C 	55.33902330182562	39.04999999999998	0.0
C 	56.568779375199526	38.33999999999999	0.0
C 	57.79853544857343	39.04999999999999	0.0
C 	59.02829152194733	38.33999999999999	0.0
C 	60.25804759532123	39.04999999999999	0.0
C 	61.48780366869513	38.33999999999998	0.0
C 	62.71755974206905	39.04999999999999	0.0
C 	63.94731581544294	38.33999999999999	0.0
C 	65.17707188881685	39.04999999999999	0.0
C 	66.40682796219075	38.33999999999999	0.0
C 	67.63658403556465	39.04999999999999	0.0
C 	68.86634010893856	38.33999999999999	0.0
C 	70.09609618231245	39.04999999999998	0.0
C 	71.32585225568636	38.33999999999999	0.0
C 	72.55560832906025	39.04999999999998	0.0
C 	73.78536440243415	38.33999999999999	0.0
C 	75.01512047580806	39.04999999999999	0.0
C 	76.24487654918197	38.33999999999999	0.0
C 	77.47463262255587	39.05	0.0
C 	78.70438869592977	38.33999999999998	0.0
C 	79.93414476930369	39.04999999999999	0.0
C 	81.16390084267758	38.33999999999998	0.0
C 	82.39365691605148	39.04999999999998	0.0
C 	23.365365394104156	40.46999999999999	0.0
C 	24.59512146747806	41.17999999999999	0.0
C 	25.82487754085196	40.46999999999999	0.0
C 	27.054633614225867	41.17999999999999	0.0
C 	28.284389687599763	40.46999999999999	0.0
C 	29.51414576097367	41.17999999999999	0.0
C 	30.74390183434757	40.46999999999999	0.0
C 	31.973657907721474	41.17999999999999	0.0
C 	33.20341398109537	40.46999999999999	0.0
C 	34.43317005446928	41.17999999999999	0.0
C 	35.66292612784318	40.46999999999999	0.0
C 	36.892682201217085	41.17999999999999	0.0
C 	38.12243827459099	40.46999999999999	0.0
C 	39.3521943479649	41.17999999999999	0.0
C 	40.58195042133879	40.46999999999999	0.0
C 	41.811706494712695	41.17999999999999	0.0
C 	43.0414625680866	40.46999999999999	0.0
C 	44.2712186414605	41.17999999999999	0.0
C 	45.500974714834406	40.46999999999999	0.0
C 	46.73073078820831	41.17999999999999	0.0
C 	47.960486861582204	40.46999999999999	0.0
C 	49.19024293495611	41.17999999999999	0.0
C 	50.41999900833002	40.46999999999999	0.0
C 	51.649755081703915	41.179999999999986	0.0
C 	52.87951115507782	40.46999999999999	0.0
C 	54.10926722845173	41.17999999999999	0.0
C 	55.33902330182563	40.46999999999999	0.0
C 	56.568779375199526	41.17999999999999	0.0
C 	57.798535448573425	40.469999999999985	0.0
C 	59.028291521947345	41.17999999999999	0.0
C 	60.25804759532124	40.46999999999999	0.0
C 	61.48780366869514	41.17999999999999	0.0
C 	62.71755974206904	40.46999999999999	0.0
C 	63.94731581544295	41.17999999999999	0.0
C 	65.17707188881685	40.46999999999999	0.0
C 	66.40682796219075	41.179999999999986	0.0
C 	67.63658403556465	40.46999999999999	0.0
C 	68.86634010893854	41.179999999999986	0.0
C 	70.09609618231246	40.46999999999999	0.0
C 	71.32585225568636	41.17999999999999	0.0
C 	72.55560832906026	40.469999999999985	0.0
C 	73.78536440243417	41.179999999999986	0.0
C 	75.01512047580806	40.469999999999985	0.0
C 	76.24487654918198	41.17999999999999	0.0
C 	77.47463262255587	40.46999999999999	0.0
C 	78.70438869592978	41.17999999999999	0.0
C 	79.93414476930367	40.469999999999985	0.0
C 	81.16390084267758	41.179999999999986	0.0
C 	82.3936569160515	40.46999999999999	0.0
C 	83.62341298942539	41.179999999999986	0.0
C 	24.595121467478055	42.59999999999999	0.0
C 	25.82487754085196	43.30999999999999	0.0
C 	27.05463361422586	42.59999999999999	0.0
C 	28.284389687599766	43.30999999999999	0.0
C 	29.514145760973662	42.59999999999999	0.0
C 	30.743901834347568	43.30999999999999	0.0
C 	31.97365790772147	42.59999999999999	0.0
C 	33.20341398109537	43.30999999999999	0.0
C 	34.43317005446927	42.59999999999999	0.0
C 	35.66292612784318	43.30999999999999	0.0
C 	36.89268220121708	42.59999999999999	0.0
C 	38.122438274590984	43.30999999999999	0.0
C 	39.35219434796489	42.59999999999999	0.0
C 	40.581950421338796	43.30999999999999	0.0
C 	41.81170649471269	42.59999999999999	0.0
C 	43.041462568086594	43.30999999999999	0.0
C 	44.2712186414605	42.59999999999999	0.0
C 	45.5009747148344	43.30999999999999	0.0
C 	46.730730788208305	42.59999999999999	0.0
C 	47.96048686158221	43.30999999999999	0.0
C 	49.19024293495611	42.59999999999999	0.0
C 	50.41999900833001	43.30999999999999	0.0
C 	51.64975508170392	42.599999999999994	0.0
C 	52.879511155077815	43.30999999999999	0.0
C 	54.10926722845172	42.59999999999999	0.0
C 	55.33902330182563	43.30999999999999	0.0
C 	56.568779375199526	42.59999999999999	0.0
C 	57.798535448573425	43.30999999999999	0.0
C 	59.028291521947324	42.59999999999998	0.0
C 	60.258047595321244	43.30999999999999	0.0
C 	61.487803668695136	42.59999999999999	0.0
C 	62.71755974206904	43.30999999999999	0.0
C 	63.94731581544294	42.59999999999999	0.0
C 	65.17707188881684	43.30999999999999	0.0
C 	66.40682796219076	42.599999999999994	0.0
C 	67.63658403556465	43.30999999999999	0.0
C 	68.86634010893856	42.59999999999999	0.0
C 	70.09609618231245	43.30999999999998	0.0
C 	71.32585225568636	42.59999999999999	0.0
C 	72.55560832906026	43.30999999999999	0.0
C 	73.78536440243415	42.59999999999999	0.0
C 	75.01512047580806	43.30999999999999	0.0
C 	76.24487654918197	42.59999999999998	0.0
C 	77.47463262255587	43.30999999999999	0.0
C 	78.70438869592978	42.59999999999999	0.0
C 	79.93414476930367	43.30999999999999	0.0
C 	81.16390084267758	42.59999999999999	0.0
C 	82.39365691605148	43.30999999999999	0.0
C 	83.62341298942539	42.59999999999999	0.0
C 	84.85316906279928	43.30999999999998	0.0
C 	25.82487754085196	44.72999999999999	0.0
C 	27.054633614225864	45.43999999999999	0.0
C 	28.284389687599766	44.72999999999999	0.0
C 	29.514145760973673	45.43999999999999	0.0
C 	30.743901834347568	44.72999999999999	0.0
C 	31.97365790772147	45.43999999999999	0.0
C 	33.20341398109537	44.72999999999999	0.0
C 	34.43317005446928	45.43999999999999	0.0
C 	35.662926127843185	44.72999999999999	0.0
C 	36.892682201217085	45.43999999999999	0.0
C 	38.122438274590984	44.72999999999999	0.0
C 	39.35219434796489	45.43999999999999	0.0
C 	40.581950421338796	44.72999999999999	0.0
C 	41.811706494712695	45.43999999999999	0.0
C 	43.0414625680866	44.72999999999999	0.0
C 	44.27121864146051	45.43999999999999	0.0
C 	45.500974714834406	44.72999999999999	0.0
C 	46.730730788208305	45.43999999999999	0.0
C 	47.960486861582204	44.72999999999999	0.0
C 	49.19024293495611	45.43999999999998	0.0
C 	50.41999900833002	44.72999999999999	0.0
C 	51.64975508170391	45.43999999999998	0.0
C 	52.87951115507782	44.72999999999999	0.0
C 	54.10926722845172	45.43999999999999	0.0
C 	55.33902330182562	44.72999999999998	0.0
C 	56.568779375199526	45.43999999999998	0.0
C 	57.798535448573425	44.72999999999998	0.0
C 	59.02829152194734	45.43999999999999	0.0
C 	60.25804759532124	44.72999999999999	0.0
C 	61.48780366869514	45.43999999999999	0.0
C 	62.717559742069035	44.72999999999998	0.0
C 	63.94731581544294	45.43999999999998	0.0
C 	65.17707188881685	44.72999999999999	0.0
C 	66.40682796219075	45.43999999999998	0.0
C 	67.63658403556465	44.72999999999999	0.0
C 	68.86634010893856	45.43999999999999	0.0
C 	70.09609618231245	44.72999999999999	0.0
C 	71.32585225568636	45.43999999999998	0.0
C 	72.55560832906026	44.72999999999998	0.0
C 	73.78536440243417	45.43999999999999	0.0
C 	75.01512047580806	44.72999999999998	0.0
C 	76.24487654918198	45.43999999999999	0.0
C 	77.47463262255587	44.72999999999999	0.0
C 	78.70438869592978	45.43999999999999	0.0
C 	79.93414476930369	44.72999999999999	0.0
C 	81.16390084267758	45.43999999999998	0.0
C 	82.39365691605148	44.72999999999999	0.0
C 	83.62341298942538	45.43999999999998	0.0
C 	84.8531690627993	44.72999999999998	0.0
C 	86.08292513617319	45.43999999999998	0.0
C 	27.054633614225864	46.85999999999999	0.0
C 	28.28438968759977	47.56999999999999	0.0
C 	29.514145760973673	46.85999999999999	0.0
C 	30.74390183434758	47.56999999999999	0.0
C 	31.973657907721474	46.85999999999999	0.0
C 	33.20341398109538	47.56999999999999	0.0
C 	34.43317005446928	46.85999999999999	0.0
C 	35.662926127843185	47.56999999999999	0.0
C 	36.892682201217085	46.85999999999999	0.0
C 	38.122438274590984	47.56999999999999	0.0
C 	39.35219434796489	46.85999999999999	0.0
C 	40.581950421338796	47.56999999999999	0.0
C 	41.8117064947127	46.85999999999999	0.0
C 	43.0414625680866	47.56999999999999	0.0
C 	44.2712186414605	46.85999999999999	0.0
C 	45.500974714834406	47.56999999999999	0.0
C 	46.73073078820831	46.859999999999985	0.0
C 	47.960486861582204	47.569999999999986	0.0
C 	49.19024293495612	46.85999999999999	0.0
C 	50.41999900833002	47.56999999999999	0.0
C 	51.649755081703915	46.859999999999985	0.0
C 	52.87951115507782	47.569999999999986	0.0
C 	54.10926722845172	46.859999999999985	0.0
C 	55.339023301825634	47.56999999999999	0.0
C 	56.56877937519953	46.85999999999999	0.0
C 	57.79853544857344	47.56999999999999	0.0
C 	59.02829152194733	46.859999999999985	0.0
C 	60.25804759532124	47.569999999999986	0.0
C 	61.48780366869515	46.85999999999999	0.0
C 	62.71755974206904	47.569999999999986	0.0
C 	63.94731581544295	46.85999999999999	0.0
C 	65.17707188881685	47.56999999999999	0.0
C 	66.40682796219075	46.859999999999985	0.0
C 	67.63658403556465	47.569999999999986	0.0
C 	68.86634010893856	46.859999999999985	0.0
C 	70.09609618231246	47.56999999999999	0.0
C 	71.32585225568636	46.859999999999985	0.0
C 	72.55560832906028	47.56999999999999	0.0
C 	73.78536440243417	46.859999999999985	0.0
C 	75.01512047580808	47.569999999999986	0.0
C 	76.24487654918197	46.859999999999985	0.0
C 	77.47463262255587	47.569999999999986	0.0
C 	78.70438869592978	46.85999999999999	0.0
C 	79.93414476930367	47.569999999999986	0.0
C 	81.16390084267758	46.85999999999999	0.0
C 	82.39365691605148	47.56999999999999	0.0
C 	83.62341298942539	46.859999999999985	0.0
C 	84.8531690627993	47.569999999999986	0.0
C 	86.08292513617319	46.85999999999998	0.0
C 	87.31268120954711	47.569999999999986	0.0
C 	28.284389687599763	48.98999999999999	0.0
C 	29.51414576097367	49.69999999999999	0.0
C 	30.74390183434757	48.98999999999999	0.0
C 	31.973657907721478	49.69999999999999	0.0
C 	33.20341398109537	48.98999999999999	0.0
C 	34.43317005446928	49.69999999999999	0.0
C 	35.66292612784318	48.98999999999999	0.0
C 	36.892682201217085	49.69999999999999	0.0
C 	38.122438274590984	48.98999999999999	0.0
C 	39.35219434796488	49.69999999999999	0.0
C 	40.58195042133879	48.98999999999999	0.0
C 	41.811706494712695	49.69999999999999	0.0
C 	43.041462568086594	48.98999999999999	0.0
C 	44.2712186414605	49.69999999999999	0.0
C 	45.5009747148344	48.98999999999999	0.0
C 	46.730730788208305	49.69999999999998	0.0
C 	47.96048686158221	48.98999999999999	0.0
C 	49.1902429349561	49.69999999999998	0.0
C 	50.41999900833002	48.98999999999999	0.0
C 	51.64975508170392	49.69999999999999	0.0
C 	52.879511155077815	48.98999999999999	0.0
C 	54.10926722845172	49.69999999999999	0.0
C 	55.33902330182562	48.98999999999998	0.0
C 	56.56877937519953	49.69999999999999	0.0
C 	57.79853544857343	48.98999999999999	0.0
C 	59.02829152194734	49.69999999999999	0.0
C 	60.25804759532124	48.98999999999999	0.0
C 	61.487803668695136	49.69999999999999	0.0
C 	62.71755974206905	48.98999999999999	0.0
C 	63.94731581544294	49.69999999999998	0.0
C 	65.17707188881685	48.98999999999999	0.0
C 	66.40682796219075	49.69999999999999	0.0
C 	67.63658403556465	48.98999999999999	0.0
C 	68.86634010893856	49.69999999999999	0.0
C 	70.09609618231245	48.98999999999998	0.0
C 	71.32585225568637	49.69999999999999	0.0
C 	72.55560832906025	48.98999999999998	0.0
C 	73.78536440243417	49.69999999999999	0.0
C 	75.01512047580806	48.98999999999999	0.0
C 	76.24487654918197	49.69999999999999	0.0
C 	77.47463262255587	48.98999999999998	0.0
C 	78.70438869592978	49.69999999999998	0.0
C 	79.93414476930369	48.98999999999999	0.0
C 	81.16390084267758	49.69999999999998	0.0
C 	82.39365691605148	48.98999999999999	0.0
C 	83.62341298942539	49.69999999999999	0.0
C 	84.85316906279928	48.98999999999998	0.0
C 	86.08292513617319	49.69999999999998	0.0
C 	87.3126812095471	48.98999999999998	0.0
C 	88.542437282921	49.69999999999999	0.0
C 	29.51414576097367	51.11999999999999	0.0
C 	30.74390183434757	51.82999999999999	0.0
C 	31.973657907721474	51.11999999999999	0.0
C 	33.20341398109538	51.82999999999999	0.0
C 	34.43317005446928	51.11999999999999	0.0
C 	35.66292612784318	51.82999999999999	0.0
C 	36.892682201217085	51.11999999999999	0.0
C 	38.12243827459099	51.82999999999999	0.0
C 	39.35219434796489	51.12	0.0
C 	40.581950421338796	51.83	0.0
C 	41.811706494712695	51.11999999999999	0.0
C 	43.041462568086594	51.82999999999999	0.0
C 	44.2712186414605	51.12	0.0
C 	45.5009747148344	51.82999999999999	0.0
C 	46.73073078820831	51.11999999999999	0.0
C 	47.96048686158221	51.82999999999999	0.0
C 	49.19024293495611	51.11999999999999	0.0
C 	50.41999900833002	51.82999999999999	0.0
C 	51.649755081703915	51.11999999999998	0.0
C 	52.879511155077815	51.829999999999984	0.0
C 	54.10926722845171	51.11999999999999	0.0
C 	55.33902330182563	51.83	0.0
C 	56.568779375199526	51.11999999999999	0.0
C 	57.79853544857343	51.82999999999999	0.0
C 	59.02829152194733	51.11999999999999	0.0
C 	60.25804759532124	51.82999999999999	0.0
C 	61.48780366869514	51.11999999999999	0.0
C 	62.717559742069035	51.829999999999984	0.0
C 	63.94731581544295	51.11999999999999	0.0
C 	65.17707188881685	51.82999999999999	0.0
C 	66.40682796219075	51.11999999999999	0.0
C 	67.63658403556465	51.82999999999999	0.0
C 	68.86634010893854	51.11999999999998	0.0
C 	70.09609618231246	51.82999999999999	0.0
C 	71.32585225568636	51.11999999999999	0.0
C 	72.55560832906026	51.82999999999999	0.0
C 	73.78536440243417	51.11999999999999	0.0
C 	75.01512047580806	51.82999999999999	0.0
C 	76.24487654918198	51.11999999999999	0.0
C 	77.47463262255587	51.829999999999984	0.0
C 	78.70438869592978	51.11999999999999	0.0
C 	79.93414476930367	51.829999999999984	0.0
C 	81.16390084267758	51.11999999999999	0.0
C 	82.39365691605148	51.82999999999999	0.0
C 	83.62341298942538	51.11999999999998	0.0
C 	84.8531690627993	51.82999999999999	0.0
C 	86.08292513617319	51.11999999999998	0.0
C 	87.3126812095471	51.82999999999999	0.0
C 	88.542437282921	51.11999999999998	0.0
C 	89.7721933562949	51.829999999999984	0.0
C 	50.656689995350106	-0.881452616421474	2.15
C 	52.054247758666435	-0.6299922851676658	2.15
C 	52.535255605414754	0.7060584067473361	2.15
C 	53.932813368731075	0.9575187380011443	2.15
C 	54.41382121547939	2.293569429916146	2.15
C 	55.81137897879571	2.545029761169951	2.15
C 	56.29238682554402	3.881080453084953	2.15
C 	48.34258231546577	-0.04832258701409019	2.15
C 	49.7401400787821	0.20313774423971465	2.15
C 	50.22114792553041	1.5391884361547132	2.15
C 	51.61870568884673	1.7906487674085265	2.15
C 	52.09971353559505	3.126699459323525	2.15
C 	53.49727129891138	3.3781597905773366	2.15
C 	53.97827914565969	4.714210482492335	2.15
C 	55.37583690897601	4.96567081374614	2.15
C 	55.856844755724325	6.301721505661138	2.15
C 	57.254402519040646	6.553181836914954	2.15
C 	57.73541036578896	7.889232528829952	2.15
C 	59.132968129105286	8.140692860083764	2.15
C 	59.6139759758536	9.476743551998762	2.15
C 	44.149909025516806	-0.8027035807755183	2.15
C 	45.547466788833134	-0.5512432495217101	2.15
C 	46.028474635581446	0.7848074423932918	2.15
C 	47.42603239889776	1.0362677736471018	2.15
C 	47.90704024564608	2.3723184655621035	2.15
C 	49.304598008962394	2.6237787968159068	2.15
C 	49.78560585571071	3.9598294887309087	2.15
C 	51.18316361902704	4.211289819984717	2.15
C 	51.664171465775354	5.547340511899719	2.15
C 	53.061729229091675	5.798800843153529	2.15
C 	53.54273707583999	7.134851535068531	2.15
C 	54.940294839156316	7.386311866322332	2.15
C 	55.42130268590463	8.722362558237334	2.15
C 	56.81886044922095	8.973822889491146	2.15
C 	57.29986829596926	10.309873581406148	2.15
C 	58.69742605928559	10.561333912659956	2.15
C 	59.1784339060339	11.897384604574958	2.15
C 	60.57599166935022	12.148844935828759	2.15
C 	61.056999516098536	13.48489562774376	2.15
C 	62.454557279414864	13.736355958997569	2.15
C 	62.93556512616318	15.072406650912571	2.15
C 	41.83580134563247	0.03042644863187044	2.15
C 	43.23335910894879	0.28188677988567545	2.15
C 	43.7143669556971	1.6179374718006774	2.15
C 	45.11192471901343	1.8693978030544856	2.15
C 	45.59293256576175	3.2054484949694872	2.15
C 	46.99049032907808	3.4569088262232954	2.15
C 	47.47149817582639	4.792959518138297	2.15
C 	48.869055939142704	5.044419849392101	2.15
C 	49.35006378589102	6.380470541307103	2.15
C 	50.747621549207345	6.631930872560911	2.15
C 	51.22862939595566	7.967981564475913	2.15
C 	52.626187159271986	8.219441895729723	2.15
C 	53.1071950060203	9.555492587644725	2.15
C 	54.50475276933662	9.806952918898528	2.15
C 	54.98576061608493	11.14300361081353	2.15
C 	56.38331837940125	11.394463942067338	2.15
C 	56.864326226149565	12.73051463398234	2.15
C 	58.26188398946589	12.981974965236148	2.15
C 	58.74289183621421	14.31802565715115	2.15
C 	60.14044959953053	14.569485988404955	2.15
C 	60.621457446278846	15.905536680319956	2.15
C 	62.01901520959517	16.156997011573765	2.15
C 	62.50002305634348	17.493047703488767	2.15
C 	63.8975808196598	17.74450803474258	2.15
C 	64.37858866640812	19.080558726657582	2.15
C 	65.77614642972445	19.33201905791138	2.15
C 	66.25715427647276	20.668069749826383	2.15
C 	37.6431280556835	-0.7239545451295558	2.15
C 	39.040685818999826	-0.472494213875751	2.15
C 	39.52169366574814	0.8635564780392475	2.15
C 	40.91925142906447	1.115016809293059	2.15
C 	41.40025927581278	2.451067501208058	2.15
C 	42.79781703912909	2.7025278324618642	2.15
C 	43.278824885877405	4.038578524376863	2.15
C 	44.67638264919373	4.290038855630677	2.15
C 	45.157390495942046	5.626089547545677	2.15
C 	46.554948259258374	5.8775498787994875	2.15
C 	47.03595610600669	7.213600570714487	2.15
C 	48.433513869323015	7.465060901968291	2.15
C 	48.91452171607133	8.80111159388329	2.15
C 	50.31207947938765	9.052571925137102	2.15
C 	50.79308732613596	10.3886226170521	2.15
C 	52.19064508945229	10.640082948305913	2.15
C 	52.6716529362006	11.976133640220912	2.15
C 	54.06921069951692	12.227593971474718	2.15
C 	54.550218546265235	13.563644663389717	2.15
C 	55.947776309581556	13.81510499464353	2.15
C 	56.42878415632987	15.151155686558528	2.15
C 	57.8263419196462	15.402616017812337	2.15
C 	58.307349766394516	16.73866670972734	2.15
C 	59.70490752971083	16.990127040981143	2.15
C 	60.18591537645914	18.326177732896145	2.15
C 	61.58347313977547	18.577638064149962	2.15
C 	62.06448098652378	19.913688756064957	2.15
C 	63.462038749840104	20.165149087318763	2.15
C 	63.943046596588424	21.501199779233765	2.15
C 	65.34060435990475	21.752660110487568	2.15
C 	65.82161220665306	23.08871080240257	2.15
C 	67.21916996996939	23.34017113365637	2.15
C 	67.7001778167177	24.67622182557137	2.15
C 	69.09773558003401	24.927682156825192	2.15
C 	69.57874342678232	26.263732848740194	2.15
C 	35.32902037579917	0.10917548427782793	2.15
C 	36.726578139115496	0.3606358155316361	2.15
C 	37.20758598586381	1.696686507446638	2.15
C 	38.60514374918012	1.9481468387004413	2.15
C 	39.086151595928435	3.2841975306154434	2.15
C 	40.48370935924476	3.5356578618692516	2.15
C 	40.96471720599308	4.871708553784253	2.15
C 	42.3622749693094	5.123168885038059	2.15
C 	42.843282816057716	6.4592195769530605	2.15
C 	44.24084057937404	6.710679908206867	2.15
C 	44.72184842612235	8.046730600121869	2.15
C 	46.11940618943867	8.29819093137568	2.15
C 	46.60041403618698	9.634241623290682	2.15
C 	47.99797179950331	9.885701954544484	2.15
C 	48.478979646251624	11.221752646459485	2.15
C 	49.87653740956796	11.473212977713294	2.15
C 	50.35754525631627	12.809263669628296	2.15
C 	51.755103019632585	13.060724000882105	2.15
C 	52.2361108663809	14.396774692797107	2.15
C 	53.633668629697226	14.648235024050908	2.15
C 	54.11467647644554	15.98428571596591	2.15
C 	55.51223423976186	16.23574604721972	2.15
C 	55.99324208651018	17.571796739134722	2.15
C 	57.3907998498265	17.823257070388532	2.15
C 	57.87180769657481	19.159307762303534	2.15
C 	59.269365459891134	19.410768093557337	2.15
C 	59.750373306639446	20.74681878547234	2.15
C 	61.147931069955774	20.998279116726145	2.15
C 	61.628938916704094	22.334329808641147	2.15
C 	63.026496680020415	22.58579013989496	2.15
C 	63.50750452676873	23.921840831809963	2.15
C 	64.90506229008504	24.173301163063762	2.15
C 	65.38607013683337	25.509351854978764	2.15
C 	66.78362790014968	25.760812186232567	2.15
C 	67.26463574689801	27.09686287814757	2.15
C 	68.66219351021432	27.348323209401386	2.15
C 	69.14320135696263	28.684373901316388	2.15
C 	70.54075912027896	28.93583423257019	2.15
C 	71.02176696702728	30.271884924485192	2.15
C 	72.41932473034359	30.523345255738995	2.15
C 	72.90033257709192	31.859395947653997	2.15
C 	31.1363470858502	-0.6452055094835952	2.15
C 	32.53390484916652	-0.39374517822978683	2.15
C 	33.01491269591483	0.9423055136852151	2.15
C 	34.41247045923116	1.1937658449390198	2.15
C 	34.89347830597948	2.529816536854022	2.15
C 	36.29103606929579	2.781276868107832	2.15
C 	36.772043916044105	4.117327560022834	2.15
C 	38.16960167936043	4.368787891276635	2.15
C 	38.65060952610875	5.704838583191637	2.15
C 	40.048167289425066	5.956298914445447	2.15
C 	40.52917513617338	7.292349606360449	2.15
C 	41.92673289948971	7.543809937614251	2.15
C 	42.40774074623802	8.879860629529253	2.15
C 	43.80529850955434	9.131320960783064	2.15
C 	44.28630635630265	10.467371652698066	2.15
C 	45.68386411961898	10.718831983951873	2.15
C 	46.16487196636729	12.054882675866875	2.15
C 	47.562429729683615	12.30634300712068	2.15
C 	48.04343757643193	13.642393699035681	2.15
C 	49.440995339748255	13.89385403028949	2.15
C 	49.92200318649657	15.229904722204491	2.15
C 	51.319560949812896	15.4813650534583	2.15
C 	51.800568796561215	16.817415745373303	2.15
C 	53.19812655987752	17.068876076627106	2.15
C 	53.67913440662584	18.404926768542108	2.15
C 	55.07669216994216	18.656387099795918	2.15
C 	55.557700016690475	19.99243779171092	2.15
C 	56.955257780006804	20.243898122964726	2.15
C 	57.43626562675512	21.579948814879728	2.15
C 	58.83382339007143	21.83140914613353	2.15
C 	59.31483123681975	23.167459838048533	2.15
C 	60.71238900013608	23.418920169302343	2.15
C 	61.19339684688439	24.754970861217345	2.15
C 	62.59095461020071	25.006431192471155	2.15
C 	63.071962456949024	26.342481884386157	2.15
C 	64.46952022026535	26.59394221563996	2.15
C 	64.95052806701366	27.92999290755496	2.15
C 	66.34808583032999	28.18145323880876	2.15
C 	66.8290936770783	29.517503930723763	2.15
C 	68.22665144039463	29.768964261977583	2.15
C 	68.70765928714295	31.105014953892585	2.15
C 	70.10521705045927	31.356475285146384	2.15
C 	70.58622489720759	32.692525977061386	2.15
C 	71.9837826605239	32.94398630831519	2.15
C 	72.46479050727221	34.280037000230195	2.15
C 	73.86234827058854	34.531497331484005	2.15
C 	74.34335611733685	35.86754802339901	2.15
C 	75.74091388065317	36.11900835465281	2.15
C 	76.2219217274015	37.45505904656782	2.15
C 	28.822239405965863	0.18792451992378187	2.15
C 	30.219797169282185	0.4393848511775952	2.15
C 	30.700805016030497	1.7754355430925937	2.15
C 	32.09836277934683	2.026895874346402	2.15
C 	32.57937062609514	3.3629465662614004	2.15
C 	33.976928389411455	3.614406897515212	2.15
C 	34.457936236159775	4.9504575894302105	2.15
C 	35.8554939994761	5.201917920684022	2.15
C 	36.336501846224415	6.537968612599021	2.15
C 	37.73405960954073	6.789428943852827	2.15
C 	38.21506745628905	8.125479635767826	2.15
C 	39.61262521960538	8.376939967021638	2.15
C 	40.09363306635369	9.712990658936636	2.15
C 	41.49119082967	9.964450990190443	2.15
C 	41.972198676418316	11.300501682105441	2.15
C 	43.369756439734644	11.551962013359253	2.15
C 	43.850764286482956	12.888012705274251	2.15
C 	45.248322049799285	13.139473036528067	2.15
C 	45.7293298965476	14.475523728443065	2.15
C 	47.12688765986392	14.726984059696868	2.15
C 	47.60789550661223	16.063034751611866	2.15
C 	49.00545326992856	16.31449508286568	2.15
C 	49.48646111667687	17.650545774780678	2.15
C 	50.88401887999319	17.902006106034488	2.15
C 	51.36502672674151	19.23805679794949	2.15
C 	52.76258449005784	19.489517129203293	2.15
C 	53.24359233680615	20.825567821118295	2.15
C 	54.641150100122466	21.07702815237211	2.15
C 	55.12215794687078	22.413078844287107	2.15
C 	56.51971571018711	22.664539175540913	2.15
C 	57.00072355693543	24.000589867455915	2.15
C 	58.39828132025174	24.252050198709718	2.15
C 	58.87928916700006	25.58810089062472	2.15
C 	60.27684693031638	25.839561221878537	2.15
C 	60.75785477706469	27.17561191379353	2.15
C 	62.155412540381015	27.42707224504734	2.15
C 	62.63642038712933	28.763122936962343	2.15
C 	64.03397815044566	29.014583268216143	2.15
C 	64.51498599719397	30.350633960131145	2.15
C 	65.91254376051029	30.602094291384947	2.15
C 	66.3935516072586	31.93814498329995	2.15
C 	67.79110937057493	32.189605314553766	2.15
C 	68.27211721732324	33.52565600646877	2.15
C 	69.66967498063957	33.777116337722575	2.15
C 	70.15068282738788	35.11316702963757	2.15
C 	71.54824059070421	35.364627360891376	2.15
C 	72.02924843745252	36.70067805280638	2.15
C 	73.42680620076884	36.9521383840602	2.15
C 	73.90781404751716	38.2881890759752	2.15
C 	75.30537181083348	38.539649407229	2.15
C 	75.78637965758179	39.875700099144	2.15
C 	77.18393742089812	40.1271604303978	2.15
C 	77.66494526764643	41.463211122312806	2.15
C 	24.629566116016893	-0.5664564738376403	2.15
C 	26.027123879333217	-0.3149961425838329	2.15
C 	26.508131726081533	1.0210545493311673	2.15
C 	27.905689489397854	1.2725148805849755	2.15
C 	28.386697336146167	2.608565572499976	2.15
C 	29.784255099462495	2.860025903753786	2.15
C 	30.265262946210807	4.196076595668786	2.15
C 	31.662820709527125	4.447536926922594	2.15
C 	32.14382855627544	5.7835876188375925	2.15
C 	33.541386319591766	6.035047950091401	2.15
C 	34.022394166340085	7.371098642006403	2.15
C 	35.4199519296564	7.622558973260214	2.15
C 	35.90095977640471	8.958609665175217	2.15
C 	37.29851753972104	9.210069996429018	2.15
C 	37.77952538646935	10.54612068834402	2.15
C 	39.17708314978567	10.79758101959783	2.15
C 	39.658090996533986	12.133631711512832	2.15
C 	41.055648759850314	12.385092042766633	2.15
C 	41.536656606598626	13.721142734681635	2.15
C 	42.93421436991495	13.972603065935445	2.15
C 	43.41522221666326	15.308653757850447	2.15
C 	44.81277997997959	15.560114089104255	2.15
C 	45.2937878267279	16.89616478101926	2.15
C 	46.69134559004422	17.14762511227306	2.15
C 	47.172353436792534	18.483675804188064	2.15
C 	48.569911200108855	18.73513613544187	2.15
C 	49.050919046857175	20.071186827356872	2.15
C 	50.4484768101735	20.322647158610682	2.15
C 	50.929484656921815	21.658697850525684	2.15
C 	52.327042420238136	21.910158181779487	2.15
C 	52.80805026698645	23.24620887369449	2.15
C 	54.20560803030277	23.4976692049483	2.15
C 	54.68661587705109	24.8337198968633	2.15
C 	56.08417364036741	25.08518022811711	2.15
C 	56.56518148711572	26.421230920032112	2.15
C 	57.962739250432044	26.672691251285915	2.15
C 	58.443747097180356	28.008741943200917	2.15
C 	59.841304860496685	28.260202274454723	2.15
C 	60.322312707245	29.596252966369725	2.15
C 	61.71987047056132	29.847713297623535	2.15
C 	62.20087831730963	31.183763989538537	2.15
C 	63.59843608062596	31.43522432079234	2.15
C 	64.07944392737427	32.77127501270734	2.15
C 	65.4770016906906	33.022735343961145	2.15
C 	65.95800953743891	34.35878603587614	2.15
C 	67.35556730075524	34.61024636712996	2.15
C 	67.83657514750355	35.946297059044966	2.15
C 	69.23413291081987	36.19775739029877	2.15
C 	69.71514075756818	37.53380808221377	2.15
C 	71.1126985208845	37.78526841346758	2.15
C 	71.59370636763282	39.121319105382575	2.15
C 	72.99126413094915	39.37277943663639	2.15
C 	73.47227197769746	40.70883012855139	2.15
C 	74.86982974101377	40.960290459805194	2.15
C 	75.35083758776209	42.29634115172019	2.15
C 	76.74839535107841	42.547801482974	2.15
C 	77.22940319782673	43.88385217488899	2.15
C 	22.31545843613256	0.26667355556974015	2.15
C 	23.71301619944888	0.5181338868235509	2.15
C 	24.194024046197196	1.8541845787385511	2.15
C 	25.59158180951352	2.1056449099923586	2.15
C 	26.072589656261833	3.441695601907359	2.15
C 	27.470147419578158	3.693155933161166	2.15
C 	27.951155266326474	5.029206625076166	2.15
C 	29.348713029642795	5.280666956329978	2.15
C 	29.829720876391107	6.616717648244976	2.15
C 	31.227278639707432	6.8681779794987845	2.15
C 	31.708286486455748	8.204228671413787	2.15
C 	33.10584424977206	8.455689002667594	2.15
C 	33.58685209652038	9.791739694582592	2.15
C 	34.98440985983671	10.043200025836404	2.15
C 	35.46541770658502	11.379250717751402	2.15
C 	36.862975469901336	11.63071104900521	2.15
C 	37.343983316649656	12.966761740920209	2.15
C 	38.741541079965984	13.21822207217402	2.15
C 	39.222548926714296	14.554272764089019	2.15
C 	40.62010669003061	14.805733095342825	2.15
C 	41.10111453677893	16.141783787257825	2.15
C 	42.49867230009526	16.393244118511635	2.15
C 	42.97968014684357	17.729294810426634	2.15
C 	44.377237910159884	17.980755141680447	2.15
C 	44.8582457569082	19.316805833595446	2.15
C 	46.255803520224525	19.568266164849256	2.15
C 	46.73681136697284	20.90431685676425	2.15
C 	48.13436913028917	21.155777188018057	2.15
C 	48.615376977037485	22.49182787993306	2.15
C 	50.0129347403538	22.743288211186876	2.15
C 	50.49394258710211	24.07933890310187	2.15
C 	51.89150035041844	24.33079923435568	2.15
C 	52.37250819716675	25.666849926270675	2.15
C 	53.77006596048307	25.918310257524485	2.15
C 	54.25107380723139	27.254360949439487	2.15
C 	55.64863157054772	27.505821280693304	2.15
C 	56.12963941729603	28.8418719726083	2.15
C 	57.52719718061235	29.09333230386211	2.15
C 	58.00820502736066	30.429382995777104	2.15
C 	59.40576279067699	30.68084332703091	2.15
C 	59.88677063742531	32.01689401894591	2.15
C 	61.28432840074163	32.26835435019973	2.15
C 	61.76533624748994	33.60440504211473	2.15
C 	63.16289401080626	33.85586537336854	2.15
C 	63.643901857554575	35.19191606528353	2.15
C 	65.04145962087091	35.44337639653734	2.15
C 	65.52246746761922	36.77942708845234	2.15
C 	66.92002523093554	37.030887419706154	2.15
C 	67.40103307768385	38.36693811162115	2.15
C 	68.79859084100018	38.61839844287496	2.15
C 	69.27959868774849	39.954449134789954	2.15
C 	70.67715645106482	40.205909466043764	2.15
C 	71.15816429781312	41.54196015795876	2.15
C 	72.55572206112946	41.793420489212586	2.15
C 	73.03672990787777	43.129471181127585	2.15
C 	74.43428767119408	43.38093151238139	2.15
C 	74.91529551794241	44.71698220429639	2.15
C 	76.31285328125873	44.968442535550196	2.15
C 	18.12278514618359	-0.4877074381916829	2.15
C 	19.520342909499913	-0.2362471069378755	2.15
C 	20.001350756248225	1.0998035849771248	2.15
C 	21.398908519564547	1.3512639162309321	2.15
C 	21.87991636631286	2.6873146081459325	2.15
C 	23.277474129629187	2.9387749393997438	2.15
C 	23.7584819763775	4.274825631314744	2.15
C 	25.156039739693824	4.526285962568551	2.15
C 	25.63704758644214	5.862336654483551	2.15
C 	27.03460534975846	6.113796985737359	2.15
C 	27.515613196506774	7.449847677652359	2.15
C 	28.9131709598231	7.701308008906168	2.15
C 	29.394178806571414	9.037358700821171	2.15
C 	30.791736569887735	9.288819032074981	2.15
C 	31.272744416636048	10.62486972398998	2.15
C 	32.67030217995237	10.876330055243784	2.15
C 	33.151310026700685	12.212380747158786	2.15
C 	34.548867790017006	12.463841078412596	2.15
C 	35.02987563676532	13.799891770327598	2.15
C 	36.42743340008165	14.051352101581399	2.15
C 	36.90844124682996	15.3874027934964	2.15
C 	38.30599901014628	15.638863124750213	2.15
C 	38.78700685689459	16.974913816665214	2.15
C 	40.18456462021092	17.226374147919017	2.15
C 	40.66557246695923	18.56242483983402	2.15
C 	42.063130230275554	18.81388517108783	2.15
C 	42.54413807702387	20.14993586300283	2.15
C 	43.941695840340195	20.401396194256638	2.15
C 	44.422703687088514	21.73744688617164	2.15
C 	45.82026145040483	21.988907217425442	2.15
C 	46.30126929715314	23.324957909340444	2.15
C 	47.69882706046947	23.576418240594254	2.15
C 	48.17983490721778	24.912468932509256	2.15
C 	49.57739267053411	25.163929263763062	2.15
C 	50.05840051728243	26.499979955678064	2.15
C 	51.455958280598736	26.751440286931867	2.15
C 	51.936966127347056	28.08749097884687	2.15
C 	53.33452389066338	28.338951310100683	2.15
C 	53.81553173741169	29.675002002015685	2.15
C 	55.21308950072802	29.92646233326949	2.15
C 	55.69409734747633	31.262513025184493	2.15
C 	57.09165511079265	31.513973356438296	2.15
C 	57.57266295754097	32.8500240483533	2.15
C 	58.97022072085729	33.10148437960711	2.15
C 	59.451228567605604	34.437535071522106	2.15
C 	60.848786330921925	34.688995402775916	2.15
C 	61.32979417767024	36.02504609469092	2.15
C 	62.727351940986566	36.276506425944724	2.15
C 	63.20835978773488	37.61255711785972	2.15
C 	64.6059175510512	37.864017449113526	2.15
C 	65.08692539779952	39.20006814102853	2.15
C 	66.48448316111583	39.45152847228235	2.15
C 	66.96549100786416	40.787579164197346	2.15
C 	68.36304877118049	41.03903949545115	2.15
C 	68.8440566179288	42.37509018736615	2.15
C 	70.24161438124511	42.62655051861996	2.15
C 	70.72262222799343	43.962601210534956	2.15
C 	72.12017999130975	44.21406154178877	2.15
C 	72.60118783805807	45.55011223370377	2.15
C 	73.99874560137438	45.80157256495758	2.15
C 	15.808677466299256	0.3454225912157017	2.15
C 	17.20623522961558	0.5968829224695099	2.15
C 	17.687243076363895	1.9329336143845102	2.15
C 	19.084800839680216	2.1843939456383175	2.15
C 	19.565808686428532	3.5204446375533176	2.15
C 	20.963366449744854	3.7719049688071253	2.15
C 	21.444374296493166	5.1079556607221255	2.15
C 	22.84193205980949	5.359415991975936	2.15
C 	23.322939906557803	6.6954666838909365	2.15
C 	24.720497669874128	6.946927015144745	2.15
C 	25.20150551662244	8.282977707059743	2.15
C 	26.59906327993876	8.534438038313553	2.15
C 	27.080071126687077	9.870488730228555	2.15
C 	28.477628890003402	10.121949061482363	2.15
C 	28.958636736751718	11.457999753397365	2.15
C 	30.35619450006804	11.709460084651171	2.15
C 	30.83720234681635	13.04551077656617	2.15
C 	32.234760110132676	13.29697110781998	2.15
C 	32.71576795688099	14.633021799734982	2.15
C 	34.11332572019732	14.884482130988792	2.15
C 	34.59433356694563	16.22053282290379	2.15
C 	35.99189133026195	16.471993154157595	2.15
C 	36.47289917701026	17.808043846072596	2.15
C 	37.870456940326584	18.059504177326406	2.15
C 	38.3514647870749	19.39555486924141	2.15
C 	39.749022550391224	19.64701520049521	2.15
C 	40.23003039713954	20.983065892410213	2.15
C 	41.62758816045586	21.234526223664023	2.15
C 	42.10859600720418	22.570576915579025	2.15
C 	43.5061537705205	22.822037246832835	2.15
C 	43.98716161726881	24.158087938747837	2.15
C 	45.38471938058514	24.409548270001636	2.15
C 	45.86572722733345	25.745598961916638	2.15
C 	47.26328499064977	25.997059293170448	2.15
C 	47.74429283739809	27.33310998508545	2.15
C 	49.14185060071441	27.58457031633926	2.15
C 	49.622858447462725	28.920621008254262	2.15
C 	51.020416210779054	29.17208133950806	2.15
C 	51.501424057527366	30.508132031423063	2.15
C 	52.89898182084368	30.759592362676873	2.15
C 	53.37998966759199	32.095643054591875	2.15
C 	54.77754743090833	32.347103385845685	2.15
C 	55.25855527765664	33.68315407776068	2.15
C 	56.65611304097296	33.93461440901449	2.15
C 	57.137120887721274	35.27066510092949	2.15
C 	58.5346786510376	35.5221254321833	2.15
C 	59.015686497785914	36.8581761240983	2.15
C 	60.413244261102236	37.10963645535211	2.15
C 	60.89425210785055	38.445687147267115	2.15
C 	62.291809871166876	38.69714747852092	2.15
C 	62.77281771791519	40.03319817043592	2.15
C 	64.17037548123152	40.28465850168972	2.15
C 	64.65138332797983	41.620709193604725	2.15
C 	66.04894109129614	41.87216952485854	2.15
C 	66.52994893804446	43.20822021677354	2.15
C 	67.92750670136078	43.45968054802734	2.15
C 	68.4085145481091	44.79573123994234	2.15
C 	69.80607231142542	45.04719157119615	2.15
C 	70.28708015817374	46.38324226311114	2.15
C 	71.68463792149005	46.63470259436496	2.15
C 	11.616004176350284	-0.4089584025457255	2.15
C 	13.013561939666609	-0.15749807129191645	2.15
C 	13.494569786414923	1.1785526206230839	2.15
C 	14.892127549731248	1.430012951876893	2.15
C 	15.37313539647956	2.766063643791893	2.15
C 	16.770693159795883	3.0175239750457004	2.15
C 	17.2517010065442	4.353574666960701	2.15
C 	18.64925876986052	4.605034998214509	2.15
C 	19.130266616608836	5.941085690129509	2.15
C 	20.527824379925157	6.192546021383317	2.15
C 	21.008832226673473	7.528596713298317	2.15
C 	22.406389989989794	7.7800570445521275	2.15
C 	22.887397836738106	9.116107736467127	2.15
C 	24.284955600054428	9.367568067720935	2.15
C 	24.765963446802743	10.703618759635937	2.15
C 	26.163521210119068	10.955079090889743	2.15
C 	26.64452905686738	12.291129782804742	2.15
C 	28.042086820183705	12.542590114058555	2.15
C 	28.523094666932018	13.878640805973554	2.15
C 	29.920652430248342	14.130101137227362	2.15
C 	30.401660276996658	15.466151829142364	2.15
C 	31.79921804031298	15.71761216039617	2.15
C 	32.28022588706129	17.05366285231117	2.15
C 	33.67778365037762	17.30512318356498	2.15
C 	34.15879149712593	18.641173875479982	2.15
C 	35.55634926044225	18.89263420673379	2.15
C 	36.037357107190566	20.228684898648787	2.15
C 	37.43491487050689	20.480145229902597	2.15
C 	37.9159227172552	21.816195921817595	2.15
C 	39.31348048057153	22.067656253071405	2.15
C 	39.79448832731984	23.4037069449864	2.15
C 	41.19204609063616	23.65516727624021	2.15
C 	41.67305393738447	24.991217968155212	2.15
C 	43.0706117007008	25.24267829940903	2.15
C 	43.551619547449114	26.578728991324024	2.15
C 	44.949177310765435	26.830189322577834	2.15
C 	45.43018515751375	28.16624001449283	2.15
C 	46.827742920830076	28.417700345746635	2.15
C 	47.308750767578395	29.753751037661637	2.15
C 	48.70630853089472	30.005211368915454	2.15
C 	49.18731637764303	31.34126206083045	2.15
C 	50.58487414095935	31.59272239208426	2.15
C 	51.06588198770766	32.92877308399925	2.15
C 	52.463439751023984	33.18023341525306	2.15
C 	52.9444475977723	34.51628410716807	2.15
C 	54.342005361088624	34.76774443842188	2.15
C 	54.82301320783694	36.10379513033688	2.15
C 	56.22057097115326	36.35525546159069	2.15
C 	56.70157881790157	37.691306153505685	2.15
C 	58.0991365812179	37.94276648475949	2.15
C 	58.58014442796621	39.278817176674494	2.15
C 	59.97770219128254	39.53027750792831	2.15
C 	60.45871003803085	40.8663281998433	2.15
C 	61.85626780134717	41.11778853109711	2.15
C 	62.337275648095485	42.45383922301211	2.15
C 	63.73483341141181	42.70529955426591	2.15
C 	64.21584125816013	44.04135024618091	2.15
C 	65.61339902147645	44.292810577434736	2.15
C 	66.09440686822477	45.628861269349734	2.15
C 	67.49196463154108	45.88032160060354	2.15
C 	9.301896496465952	0.42417162686165866	2.15
C 	10.699454259782273	0.6756319581154661	2.15
C 	11.180462106530587	2.0116826500304663	2.15
C 	12.578019869846912	2.2631429812842754	2.15
C 	13.059027716595226	3.5991936731992755	2.15
C 	14.45658547991155	3.850654004453084	2.15
C 	14.937593326659865	5.1867046963680865	2.15
C 	16.335151089976186	5.438165027621892	2.15
C 	16.816158936724502	6.774215719536894	2.15
C 	18.213716700040823	7.0256760507906995	2.15
C 	18.69472454678914	8.361726742705702	2.15
C 	20.09228231010546	8.613187073959509	2.15
C 	20.573290156853776	9.94923776587451	2.15
C 	21.970847920170097	10.200698097128319	2.15
C 	22.451855766918413	11.53674878904332	2.15
C 	23.849413530234735	11.788209120297127	2.15
C 	24.330421376983047	13.124259812212129	2.15
C 	25.727979140299368	13.375720143465934	2.15
C 	26.208986987047684	14.711770835380936	2.15
C 	27.60654475036401	14.963231166634746	2.15
C 	28.087552597112325	16.299281858549747	2.15
C 	29.485110360428646	16.550742189803554	2.15
C 	29.966118207176958	17.886792881718556	2.15
C 	31.363675970493283	18.138253212972362	2.15
C 	31.8446838172416	19.474303904887364	2.15
C 	33.242241580557916	19.725764236141174	2.15
C 	33.723249427306236	21.061814928056176	2.15
C 	35.12080719062256	21.31327525930998	2.15
C 	35.60181503737087	22.64932595122498	2.15
C 	36.99937280068719	22.90078628247879	2.15
C 	37.48038064743551	24.236836974393793	2.15
C 	38.87793841075183	24.488297305647592	2.15
C 	39.35894625750014	25.824347997562594	2.15
C 	40.756504020816465	26.075808328816404	2.15
C 	41.237511867564784	27.411859020731406	2.15
C 	42.635069630881105	27.663319351985216	2.15
C 	43.11607747762942	28.999370043900218	2.15
C 	44.51363524094574	29.25083037515402	2.15
C 	44.99464308769406	30.586881067069022	2.15
C 	46.39220085101039	30.83834139832283	2.15
C 	46.8732086977587	32.17439209023783	2.15
C 	48.27076646107502	32.42585242149164	2.15
C 	48.75177430782333	33.761903113406646	2.15
C 	50.14933207113965	34.01336344466044	2.15
C 	50.63033991788797	35.34941413657545	2.15
C 	52.027897681204294	35.60087446782926	2.15
C 	52.50890552795261	36.936925159744256	2.15
C 	53.906463291268935	37.188385490998066	2.15
C 	54.38747113801725	38.52443618291307	2.15
C 	55.78502890133356	38.775896514166874	2.15
C 	56.26603674808187	40.11194720608187	2.15
C 	57.66359451139821	40.36340753733568	2.15
C 	58.14460235814652	41.69945822925069	2.15
C 	59.54216012146284	41.9509185605045	2.15
C 	60.023167968211155	43.286969252419496	2.15
C 	61.42072573152748	43.5384295836733	2.15
C 	61.901733578275795	44.874480275588304	2.15
C 	63.29929134159212	45.1259406068421	2.15
C 	63.78029918834043	46.461991298757106	2.15
C 	65.17785695165675	46.71345163001092	2.15
C 	5.10922320651698	-0.33020936689976665	2.15
C 	6.506780969833304	-0.07874903564595823	2.15
C 	6.987788816581618	1.257301656269042	2.15
C 	8.385346579897941	1.5087619875228502	2.15
C 	8.866354426646256	2.8448126794378505	2.15
C 	10.263912189962578	3.0962730106916583	2.15
C 	10.744920036710893	4.432323702606658	2.15
C 	12.142477800027214	4.6837840338604675	2.15
C 	12.623485646775528	6.019834725775468	2.15
C 	14.021043410091853	6.271295057029278	2.15
C 	14.502051256840165	7.607345748944278	2.15
C 	15.89960902015649	7.858806080198085	2.15
C 	16.380616866904802	9.194856772113086	2.15
C 	17.778174630221127	9.446317103366894	2.15
C 	18.25918247696944	10.782367795281894	2.15
C 	19.656740240285764	11.033828126535703	2.15
C 	20.137748087034076	12.369878818450701	2.15
C 	21.5353058503504	12.621339149704514	2.15
C 	22.016313697098713	13.957389841619513	2.15
C 	23.413871460415038	14.208850172873317	2.15
C 	23.894879307163354	15.54490086478832	2.15
C 	25.292437070479675	15.79636119604213	2.15
C 	25.773444917227987	17.132411887957126	2.15
C 	27.171002680544312	17.38387221921094	2.15
C 	27.652010527292624	18.719922911125938	2.15
C 	29.04956829060895	18.971383242379744	2.15
C 	29.530576137357265	20.307433934294746	2.15
C 	30.928133900673586	20.558894265548556	2.15
C 	31.4091417474219	21.894944957463554	2.15
C 	32.80669951073823	22.146405288717368	2.15
C 	33.28770735748654	23.48245598063237	2.15
C 	34.68526512080286	23.733916311886173	2.15
C 	35.16627296755117	25.069967003801175	2.15
C 	36.5638307308675	25.321427335054985	2.15
C 	37.04483857761581	26.65747802696998	2.15
C 	38.442396340932135	26.90893835822379	2.15
C 	38.92340418768045	28.244989050138784	2.15
C 	40.32096195099677	28.496449381392598	2.15
C 	40.80196979774509	29.8325000733076	2.15
C 	42.19952756106141	30.08396040456141	2.15
C 	42.68053540780972	31.420011096476404	2.15
C 	44.07809317112604	31.671471427730214	2.15
C 	44.559101017874355	33.00752211964521	2.15
C 	45.95665878119069	33.258982450899026	2.15
C 	46.437666627939	34.595033142814025	2.15
C 	47.83522439125533	34.846493474067834	2.15
C 	48.31623223800364	36.18254416598283	2.15
C 	49.713790001319964	36.43400449723664	2.15
C 	50.194797848068276	37.770055189151634	2.15
C 	51.59235561138459	38.02151552040545	2.15
C 	52.0733634581329	39.35756621232046	2.15
C 	53.47092122144924	39.60902654357426	2.15
C 	53.95192906819754	40.94507723548926	2.15
C 	55.34948683151387	41.19653756674307	2.15
C 	55.830494678262184	42.532588258658066	2.15
C 	57.228052441578505	42.784048589911876	2.15
C 	57.70906028832682	44.12009928182688	2.15
C 	59.10661805164314	44.37155961308069	2.15
C 	59.58762589839145	45.70761030499569	2.15
C 	60.98518366170778	45.95907063624949	2.15
C 	2.795115526632647	0.5029206625076168	2.15
C 	4.192673289948971	0.7543809937614251	2.15
C 	4.673681136697285	2.0904316856764256	2.15
C 	6.071238900013607	2.3418920169302337	2.15
C 	6.552246746761921	3.677942708845234	2.15
C 	7.949804510078245	3.9294030400990425	2.15
C 	8.430812356826559	5.265453732014043	2.15
C 	9.828370120142882	5.516914063267851	2.15
C 	10.309377966891194	6.85296475518285	2.15
C 	11.706935730207519	7.104425086436659	2.15
C 	12.187943576955833	8.440475778351662	2.15
C 	13.585501340272156	8.69193610960547	2.15
C 	14.066509187020468	10.027986801520468	2.15
C 	15.464066950336793	10.279447132774278	2.15
C 	15.945074797085105	11.615497824689276	2.15
C 	17.34263256040143	11.866958155943086	2.15
C 	17.823640407149743	13.203008847858085	2.15
C 	19.221198170466067	13.454469179111895	2.15
C 	19.70220601721438	14.790519871026893	2.15
C 	21.099763780530704	15.041980202280705	2.15
C 	21.580771627279017	16.378030894195703	2.15
C 	22.978329390595345	16.629491225449513	2.15
C 	23.459337237343657	17.96554191736451	2.15
C 	24.856895000659982	18.21700224861832	2.15
C 	25.337902847408294	19.55305294053332	2.15
C 	26.73546061072462	19.80451327178713	2.15
C 	27.21646845747293	21.14056396370213	2.15
C 	28.614026220789253	21.392024294955938	2.15
C 	29.095034067537565	22.728074986870936	2.15
C 	30.49259183085389	22.979535318124746	2.15
C 	30.973599677602206	24.315586010039745	2.15
C 	32.37115744091852	24.567046341293555	2.15
C 	32.85216528766684	25.903097033208557	2.15
C 	34.249723050983164	26.15455736446236	2.15
C 	34.730730897731476	27.49060805637736	2.15
C 	36.1282886610478	27.74206838763117	2.15
C 	36.60929650779612	29.078119079546173	2.15
C 	38.00685427111244	29.329579410799976	2.15
C 	38.48786211786075	30.665630102714978	2.15
C 	39.88541988117707	30.917090433968788	2.15
C 	40.36642772792539	32.253141125883786	2.15
C 	41.76398549124171	32.504601457137596	2.15
C 	42.244993337990024	33.8406521490526	2.15
C 	43.642551101306346	34.092112480306405	2.15
C 	44.123558948054665	35.4281631722214	2.15
C 	45.521116711370986	35.67962350347521	2.15
C 	46.002124558119306	37.01567419539021	2.15
C 	47.39968232143563	37.26713452664402	2.15
C 	47.88069016818394	38.60318521855903	2.15
C 	49.27824793150027	38.85464554981283	2.15
C 	49.75925577824858	40.19069624172783	2.15
C 	51.1568135415649	40.44215657298164	2.15
C 	51.63782138831321	41.77820726489664	2.15
C 	53.03537915162954	42.02966759615045	2.15
C 	53.516386998377854	43.36571828806545	2.15
C 	54.913944761694175	43.617178619319255	2.15
C 	55.39495260844249	44.95322931123426	2.15
C 	56.792510371758816	45.20468964248806	2.15
C 	57.27351821850713	46.54074033440307	2.15
C 	58.67107598182344	46.79220066565688	2.15
C 	1.878565610064637	1.5875110231688085	2.15
C 	2.3595734568129507	2.923561715083809	2.15
C 	3.757131220129274	3.175022046337617	2.15
C 	4.238139066877587	4.511072738252618	2.15
C 	5.635696830193912	4.762533069506426	2.15
C 	6.116704676942225	6.098583761421426	2.15
C 	7.514262440258548	6.350044092675234	2.15
C 	7.9952702870068615	7.686094784590234	2.15
C 	9.392828050323185	7.9375551158440425	2.15
C 	9.8738358970715	9.273605807759042	2.15
C 	11.271393660387824	9.525066139012852	2.15
C 	11.752401507136137	10.861116830927852	2.15
C 	13.149959270452461	11.112577162181662	2.15
C 	13.630967117200774	12.44862785409666	2.15
C 	15.028524880517097	12.700088185350468	2.15
C 	15.50953272726541	14.03613887726547	2.15
C 	16.907090490581734	14.287599208519277	2.15
C 	17.388098337330046	15.623649900434275	2.15
C 	18.78565610064637	15.875110231688085	2.15
C 	19.266663947394683	17.211160923603085	2.15
C 	20.664221710711008	17.462621254856895	2.15
C 	21.145229557459324	18.798671946771897	2.15
C 	22.54278732077565	19.050132278025703	2.15
C 	23.02379516752396	20.386182969940702	2.15
C 	24.421352930840285	20.63764330119451	2.15
C 	24.902360777588598	21.973693993109514	2.15
C 	26.299918540904923	22.225154324363324	2.15
C 	26.78092638765324	23.561205016278326	2.15
C 	28.178484150969556	23.812665347532132	2.15
C 	28.659491997717872	25.14871603944713	2.15
C 	30.057049761034193	25.400176370700937	2.15
C 	30.538057607782505	26.73622706261594	2.15
C 	31.935615371098834	26.98768739386975	2.15
C 	32.416623217847146	28.32373808578475	2.15
C 	33.81418098116347	28.575198417038553	2.15
C 	34.29518882791178	29.911249108953555	2.15
C 	35.69274659122811	30.162709440207365	2.15
C 	36.17375443797642	31.498760132122367	2.15
C 	37.57131220129274	31.75022046337617	2.15
C 	38.052320048041054	33.08627115529117	2.15
C 	39.44987781135738	33.33773148654498	2.15
C 	39.930885658105694	34.67378217845998	2.15
C 	41.328443421422016	34.92524250971379	2.15
C 	41.80945126817033	36.261293201628796	2.15
C 	43.20700903148665	36.5127535328826	2.15
C 	43.68801687823497	37.8488042247976	2.15
C 	45.0855746415513	38.10026455605141	2.15
C 	45.56658248829961	39.436315247966405	2.15
C 	46.96414025161593	39.687775579220215	2.15
C 	47.44514809836424	41.02382627113522	2.15
C 	48.84270586168057	41.27528660238902	2.15
C 	49.32371370842888	42.61133729430403	2.15
C 	50.721271471745204	42.86279762555784	2.15
C 	51.20227931849352	44.19884831747284	2.15
C 	52.599837081809845	44.45030864872665	2.15
C 	53.08084492855816	45.786359340641646	2.15
C 	54.47840269187447	46.03781967189545	2.15
C 	3.321589150309578	5.59566309891381	2.15
C 	3.8025969970578917	6.93171379082881	2.15
C 	5.2001547603742155	7.183174122082618	2.15
C 	5.681162607122529	8.519224813997617	2.15
C 	7.078720370438853	8.770685145251425	2.15
C 	7.559728217187167	10.106735837166427	2.15
C 	8.957285980503489	10.358196168420234	2.15
C 	9.438293827251803	11.694246860335236	2.15
C 	10.835851590568128	11.945707191589046	2.15
C 	11.31685943731644	13.281757883504044	2.15
C 	12.714417200632765	13.533218214757852	2.15
C 	13.195425047381079	14.869268906672854	2.15
C 	14.592982810697402	15.12072923792666	2.15
C 	15.073990657445716	16.456779929841662	2.15
C 	16.471548420762037	16.70824026109547	2.15
C 	16.95255626751035	18.04429095301047	2.15
C 	18.350114030826674	18.295751284264277	2.15
C 	18.831121877574986	19.63180197617928	2.15
C 	20.22867964089131	19.883262307433085	2.15
C 	20.709687487639627	21.219312999348087	2.15
C 	22.107245250955952	21.470773330601894	2.15
C 	22.588253097704264	22.806824022516896	2.15
C 	23.98581086102059	23.058284353770702	2.15
C 	24.4668187077689	24.394335045685704	2.15
C 	25.864376471085226	24.645795376939514	2.15
C 	26.34538431783354	25.981846068854512	2.15
C 	27.742942081149863	26.233306400108322	2.15
C 	28.223949927898175	27.569357092023324	2.15
C 	29.6215076912145	27.820817423277134	2.15
C 	30.102515537962812	29.15686811519213	2.15
C 	31.500073301279137	29.408328446445942	2.15
C 	31.981081148027446	30.744379138360937	2.15
C 	33.37863891134377	30.995839469614747	2.15
C 	33.85964675809208	32.33189016152974	2.15
C 	35.25720452140841	32.58335049278356	2.15
C 	35.738212368156724	33.91940118469856	2.15
C 	37.135770131473045	34.17086151595237	2.15
C 	37.61677797822136	35.50691220786736	2.15
C 	39.014335741537685	35.758372539121176	2.15
C 	39.495343588286	37.09442323103617	2.15
C 	40.892901351602326	37.345883562289984	2.15
C 	41.37390919835064	38.68193425420498	2.15
C 	42.77146696166696	38.93339458545879	2.15
C 	43.25247480841527	40.26944527737379	2.15
C 	44.6500325717316	40.5209056086276	2.15
C 	45.13104041847991	41.8569563005426	2.15
C 	46.52859818179624	42.10841663179641	2.15
C 	47.009606028544546	43.44446732371141	2.15
C 	48.407163791860874	43.69592765496522	2.15
C 	48.88817163860919	45.031978346880216	2.15
C 	50.28572940192551	45.28343867813403	2.15
C 	50.76673724867382	46.619489370049024	2.15
C 	52.16429501199014	46.87094970130284	2.15
C 	6.643178300619156	11.19132619782762	2.15
C 	7.124186147367469	12.52737688974262	2.15
C 	8.521743910683792	12.778837220996426	2.15
C 	9.002751757432106	14.114887912911428	2.15
C 	10.400309520748431	14.366348244165236	2.15
C 	10.881317367496745	15.702398936080238	2.15
C 	12.27887513081307	15.953859267334048	2.15
C 	12.759882977561382	17.289909959249044	2.15
C 	14.157440740877705	17.54137029050285	2.15
C 	14.63844858762602	18.877420982417853	2.15
C 	16.036006350942344	19.128881313671663	2.15
C 	16.517014197690656	20.46493200558666	2.15
C 	17.914571961006978	20.716392336840467	2.15
C 	18.39557980775529	22.05244302875547	2.15
C 	19.793137571071615	22.30390336000928	2.15
C 	20.27414541781993	23.63995405192428	2.15
C 	21.671703181136255	23.89141438317809	2.15
C 	22.152711027884568	25.22746507509309	2.15
C 	23.550268791200892	25.478925406346892	2.15
C 	24.031276637949205	26.814976098261894	2.15
C 	25.42883440126553	27.066436429515704	2.15
C 	25.90984224801384	28.402487121430706	2.15
C 	27.307400011330166	28.653947452684516	2.15
C 	27.78840785807848	29.98999814459951	2.15
C 	29.185965621394804	30.24145847585332	2.15
C 	29.666973468143116	31.577509167768323	2.15
C 	31.06453123145944	31.828969499022133	2.15
C 	31.545539078207753	33.165020190937135	2.15
C 	32.943096841524074	33.41648052219094	2.15
C 	33.42410468827239	34.752531214105936	2.15
C 	34.821662451588715	35.003991545359746	2.15
C 	35.30267029833703	36.34004223727475	2.15
C 	36.70022806165335	36.591502568528554	2.15
C 	37.18123590840166	37.92755326044355	2.15
C 	38.57879367171799	38.17901359169736	2.15
C 	39.0598015184663	39.51506428361237	2.15
C 	40.45735928178262	39.76652461486617	2.15
C 	40.938367128530935	41.102575306781176	2.15
C 	42.33592489184726	41.35403563803498	2.15
C 	42.816932738595575	42.690086329949985	2.15
C 	44.214490501911904	42.94154666120379	2.15
C 	44.695498348660216	44.27759735311879	2.15
C 	46.09305611197654	44.5290576843726	2.15
C 	46.57406395872485	45.8651083762876	2.15
C 	47.97162172204118	46.116568707541404	2.15
C 	9.964767450928735	16.786989296741428	2.15
C 	10.445775297677049	18.12303998865643	2.15
C 	11.843333060993372	18.37450031991024	2.15
C 	12.324340907741684	19.71055101182524	2.15
C 	13.721898671058009	19.962011343079045	2.15
C 	14.202906517806321	21.298062034994043	2.15
C 	15.600464281122646	21.549522366247853	2.15
C 	16.08147212787096	22.88557305816285	2.15
C 	17.47902989118728	23.13703338941666	2.15
C 	17.960037737935593	24.47308408133166	2.15
C 	19.357595501251918	24.724544412585473	2.15
C 	19.838603348000234	26.06059510450047	2.15
C 	21.23616111131656	26.31205543575428	2.15
C 	21.71716895806487	27.64810612766928	2.15
C 	23.114726721381196	27.89956645892309	2.15
C 	23.595734568129508	29.23561715083809	2.15
C 	24.993292331445833	29.487077482091898	2.15
C 	25.47430017819415	30.8231281740069	2.15
C 	26.87185794151047	31.074588505260703	2.15
C 	27.352865788258782	32.410639197175705	2.15
C 	28.750423551575107	32.662099528429515	2.15
C 	29.231431398323423	33.99815022034452	2.15
C 	30.628989161639748	34.24961055159832	2.15
C 	31.10999700838806	35.58566124351333	2.15
C 	32.50755477170438	35.83712157476713	2.15
C 	32.9885626184527	37.17317226668213	2.15
C 	34.38612038176902	37.42463259793594	2.15
C 	34.86712822851733	38.760683289850945	2.15
C 	36.26468599183365	39.01214362110475	2.15
C 	36.74569383858197	40.34819431301975	2.15
C 	38.14325160189829	40.599654644273556	2.15
C 	38.624259448646605	41.93570533618856	2.15
C 	40.02181721196293	42.18716566744237	2.15
C 	40.502825058711245	43.52321635935737	2.15
C 	41.90038282202757	43.77467669061117	2.15
C 	42.38139066877588	45.11072738252618	2.15
C 	43.77894843209221	45.36218771377998	2.15
C 	13.286356601238312	22.38265239565524	2.15
C 	13.767364447986624	23.718703087570237	2.15
C 	15.16492221130295	23.970163418824047	2.15
C 	15.645930058051263	25.30621411073905	2.15
C 	17.043487821367584	25.55767444199285	2.15
C 	17.5244956681159	26.893725133907854	2.15
C 	18.92205343143222	27.145185465161664	2.15
C 	19.403061278180537	28.481236157076662	2.15
C 	20.800619041496862	28.732696488330472	2.15
C 	21.281626888245174	30.068747180245474	2.15
C 	22.6791846515615	30.320207511499277	2.15
C 	23.16019249830981	31.65625820341428	2.15
C 	24.55775026162614	31.907718534668096	2.15
C 	25.03875810837445	33.24376922658309	2.15
C 	26.436315871690773	33.4952295578369	2.15
C 	26.91732371843909	34.8312802497519	2.15
C 	28.31488148175541	35.0827405810057	2.15
C 	28.795889328503723	36.41879127292071	2.15
C 	30.19344709182005	36.670251604174524	2.15
C 	30.674454938568363	38.006302296089515	2.15
C 	32.07201270188469	38.257762627343325	2.15
C 	32.553020548633	39.593813319258324	2.15
C 	33.95057831194932	39.84527365051213	2.15
C 	34.431586158697634	41.18132434242713	2.15
C 	35.829143922013955	41.432784673680935	2.15
C 	36.31015176876227	42.76883536559593	2.15
C 	37.707709532078596	43.02029569684975	2.15
C 	38.18871737882691	44.35634638876475	2.15
C 	39.58627514214323	44.60780672001856	2.15
C 	40.06728298889154	45.94385741193356	2.15
C 	41.46484075220787	46.19531774318736	2.15
C 	16.607945751547888	27.978315494569046	2.15
C 	17.088953598296204	29.314366186484047	2.15
C 	18.48651136161253	29.565826517737857	2.15
C 	18.96751920836084	30.90187720965286	2.15
C 	20.365076971677166	31.15333754090666	2.15
C 	20.84608481842548	32.48938823282166	2.15
C 	22.243642581741803	32.74084856407547	2.15
C 	22.724650428490115	34.07689925599047	2.15
C 	24.12220819180644	34.32835958724428	2.15
C 	24.603216038554756	35.664410279159284	2.15
C 	26.000773801871077	35.91587061041309	2.15
C 	26.48178164861939	37.251921302328086	2.15
C 	27.879339411935714	37.503381633581895	2.15
C 	28.36034725868403	38.8394323254969	2.15
C 	29.75790502200035	39.09089265675071	2.15
C 	30.238912868748667	40.42694334866571	2.15
C 	31.636470632064988	40.67840367991951	2.15
C 	32.117478478813304	42.01445437183452	2.15
C 	33.515036242129625	42.26591470308833	2.15
C 	33.99604408887794	43.601965395003326	2.15
C 	35.39360185219426	43.85342572625713	2.15
C 	35.87460969894258	45.189476418172134	2.15
C 	37.2721674622589	45.44093674942594	2.15
C 	19.92953490185747	33.573978593482856	2.15
C 	20.41054274860578	34.910029285397854	2.15
C 	21.808100511922106	35.161489616651664	2.15
C 	22.289108358670422	36.49754030856667	2.15
C 	23.686666121986743	36.74900063982048	2.15
C 	24.167673968735055	38.08505133173547	2.15
C 	25.56523173205138	38.33651166298928	2.15
C 	26.046239578799693	39.67256235490429	2.15
C 	27.443797342116017	39.92402268615809	2.15
C 	27.92480518886433	41.260073378073095	2.15
C 	29.322362952180654	41.511533709326905	2.15
C 	29.803370798928967	42.847584401241896	2.15
C 	31.20092856224529	43.099044732495706	2.15
C 	31.681936408993604	44.435095424410704	2.15
C 	33.07949417230993	44.68655575566452	2.15
C 	33.56050201905824	46.02260644757952	2.15
C 	34.95805978237456	46.27406677883332	2.15
C 	23.25112405216705	39.169641692396674	2.15
C 	23.732131898915362	40.505692384311665	2.15
C 	25.129689662231684	40.757152715565475	2.15
C 	25.610697508979996	42.09320340748048	2.15
C 	27.00825527229632	42.34466373873428	2.15
C 	27.489263119044633	43.68071443064928	2.15
C 	28.88682088236096	43.9321747619031	2.15
C 	29.36782872910927	45.26822545381809	2.15
C 	30.765386492425595	45.5196857850719	2.15
C 	26.572713202476624	44.76530479131048	2.15
C 	27.053721049224936	46.101355483225475	2.15
C 	28.45127881254126	46.352815814479285	2.15
H 	50.28746566228273	-1.9070126545815764	2.15
H 	52.75779663828554	-1.462529956379424	2.15
H 	54.63636224835018	0.12498106678938625	2.15
H 	56.51492785841481	1.7124920899581866	2.15
H 	57.36516003823049	4.0741028200333025	2.15
H 	47.973357982398404	-1.073882625174196	2.15
H 	57.95795139865975	5.7206441657031935	2.15
H 	59.8365170087244	7.308155188872007	2.15
H 	60.68674918854008	9.669765918947103	2.15
H 	43.78068469244944	-1.8282636189356247	2.15
H 	46.25101566845224	-1.3837809207334684	2.15
H 	61.27954054896932	11.316307264616992	2.15
H 	63.15810615903396	12.903818287785807	2.15
H 	64.00833833884965	15.265429017860912	2.15
H 	41.466577012565104	-0.9951335895282352	2.15
H 	64.6011296992789	16.91197036353082	2.15
H 	66.47969530934355	18.49948138669962	2.15
H 	67.32992748915923	20.86109211677473	2.15
H 	37.27390372261612	-1.7495145832896584	2.15
H 	39.74423469861893	-1.3050318850875093	2.15
H 	67.92271884958849	22.50763346244461	2.15
H 	69.80128445965312	24.09514448561344	2.15
H 	70.6515166394688	26.456755215688542	2.15
H 	34.9597960427318	-0.9163845538822782	2.15
H 	71.24430799989807	28.10329656135843	2.15
H 	73.12287360996268	29.690807584527224	2.15
H 	73.97310578977839	32.05241831460234	2.15
H 	30.76712275278284	-1.670765547643703	2.15
H 	33.23745372878562	-1.2262828494415503	2.15
H 	74.56589715020765	33.698959660272244	2.15
H 	76.44446276027226	35.28647068344104	2.15
H 	77.29469494008796	37.648081413516174	2.15
H 	28.4530150728985	-0.837635518236325	2.15
H 	77.88748630051722	39.29462275918604	2.15
H 	78.7377184803329	41.65623348926115	2.15
H 	24.260341782949524	-1.5920165119977465	2.15
H 	26.730672758952323	-1.1475338137955937	2.15
H 	78.3021764105132	44.076874541837334	2.15
H 	21.946234103065194	-0.7588864825903663	2.15
H 	76.68207761432608	45.994002573710304	2.15
H 	17.75356081311622	-1.513267476351789	2.15
H 	20.22389178911902	-1.0687847781496362	2.15
H 	74.36796993444172	46.8271326031177	2.15
H 	15.439453133231888	-0.6801374469444035	2.15
H 	69.58353127855462	47.215779934322896	2.15
H 	72.0538622545574	47.66026263252507	2.15
H 	11.246779843282917	-1.4345184407058318	2.15
H 	13.717110819285715	-0.9900357425036765	2.15
H 	67.86118896460843	46.905881638763645	2.15
H 	8.932672163398587	-0.6013884112984482	2.15
H 	63.07675030872132	47.294528969968866	2.15
H 	65.5470812847241	47.73901166817103	2.15
H 	4.73999887344961	-1.3557694050598719	2.15
H 	7.21032984945241	-0.911286706857718	2.15
H 	61.35440799477515	46.9846306744096	2.15
H 	2.425891193565279	-0.5226393756524887	2.15
H 	56.56996933888803	47.373278005614836	2.15
H 	59.04030031489081	47.81776070381699	2.15
H 	0.8057923973781633	1.3944886562204624	2.15
H 	1.6560245771938447	3.756099386295569	2.15
H 	54.84762702494183	47.06337971005556	2.15
H 	2.248815937623104	5.402640731965464	2.15
H 	3.099048117438785	7.764251462040569	2.15
H 	4.977613727503423	9.351762485209377	2.15
H 	50.0631883690547	47.45202704126078	2.15
H 	52.533519345057506	47.89650973946295	2.15
H 	5.570405087932682	10.998303830879275	2.15
H 	6.420637267748365	13.359914560954381	2.15
H 	8.299202877813	14.947425584123188	2.15
H 	45.87051507910574	46.69764604749936	2.15
H 	48.34084605510856	47.142128745701505	2.15
H 	8.891994238242262	16.59396692979308	2.15
H 	9.742226418057944	18.95557765986819	2.15
H 	11.620792028122578	20.543088683037	2.15
H 	44.148172765159586	46.38774775194008	2.15
H 	12.213583388551838	22.189630028706897	2.15
H 	13.063815568367517	24.551240758781994	2.15
H 	14.942381178432159	26.13875178195081	2.15
H 	39.363734109272436	46.77639508314532	2.15
H 	41.83406508527524	47.22087778134746	2.15
H 	15.535172538861413	27.785293127620697	2.15
H 	16.385404718677098	30.146903857695808	2.15
H 	18.263970328741735	31.73441488086462	2.15
H 	37.64139179532627	46.466496787586046	2.15
H 	18.856761689170995	33.38095622653452	2.15
H 	19.706993868986675	35.742566956609615	2.15
H 	21.585559479051316	37.33007797977843	2.15
H 	32.85695313943914	46.85514411879129	2.15
H 	35.32728411544192	47.29962681699343	2.15
H 	22.178350839480576	38.97661932544833	2.15
H 	23.028583019296253	41.338230055523425	2.15
H 	24.907148629360893	42.92574107869224	2.15
H 	31.134610825492967	46.54524582323201	2.15
H 	25.49993998979015	44.57228242436214	2.15
H 	26.35017216960583	46.933893154437236	2.15
H 	28.820503145608626	47.378375852639394	2.15
