2358

C 	0.0	0.0	0.0
C 	1.2297560733739028	0.7099999999999999	0.0
C 	2.4595121467478056	-2.3647750424515833e-16	0.0
C 	3.689268220121708	0.7099999999999995	0.0
C 	4.919024293495611	-4.729550084903167e-16	0.0
C 	6.148780366869514	0.7099999999999993	0.0
C 	7.378536440243416	-7.09432512735475e-16	0.0
C 	8.60829251361732	0.7099999999999991	0.0
C 	9.838048586991222	-9.459100169806333e-16	0.0
C 	11.067804660365125	0.7099999999999989	0.0
C 	12.297560733739026	-1.1823875212257916e-15	0.0
C 	13.527316807112928	0.7099999999999986	0.0
C 	14.757072880486833	-1.41886502547095e-15	0.0
C 	15.986828953860735	0.7099999999999984	0.0
C 	17.21658502723464	-7.671641100159832e-16	0.0
C 	18.44634110060854	0.7099999999999982	0.0
C 	19.676097173982445	-1.8918200339612667e-15	0.0
C 	20.905853247356347	0.7099999999999989	0.0
C 	22.135609320730246	-2.128297538206425e-15	0.0
C 	23.36536539410415	0.7099999999999967	0.0
C 	24.59512146747805	-2.364775042451583e-15	0.0
C 	25.824877540851954	0.7099999999999983	0.0
C 	27.05463361422586	-8.248957072964913e-16	0.0
C 	28.284389687599763	0.7099999999999999	0.0
C 	29.514145760973665	-2.8377300509419e-15	0.0
C 	30.743901834347565	0.7099999999999961	0.0
C 	31.97365790772147	-3.0742075551870582e-15	0.0
C 	33.20341398109537	0.7099999999999976	0.0
C 	34.43317005446928	-1.5343282200319664e-15	0.0
C 	35.66292612784318	0.7099999999999992	0.0
C 	36.892682201217085	-1.7708057242771246e-15	0.0
C 	38.122438274590984	0.7099999999999972	0.0
C 	39.35219434796489	-3.783640067922533e-15	0.0
C 	40.58195042133879	0.7099999999999969	0.0
C 	41.811706494712695	-4.67403893367191e-16	0.0
C 	43.0414625680866	0.7100000000000002	0.0
C 	44.27121864146049	-4.25659507641285e-15	0.0
C 	45.5009747148344	0.7099999999999964	0.0
C 	46.730730788208305	-9.403589018575075e-16	0.0
C 	47.96048686158221	0.7099999999999997	0.0
C 	49.1902429349561	-4.729550084903166e-15	0.0
C 	50.41999900833001	0.709999999999996	0.0
C 	51.64975508170391	-1.413313910347824e-15	0.0
C 	52.879511155077815	0.7099999999999993	0.0
C 	54.10926722845172	-1.6497914145929826e-15	0.0
C 	55.33902330182562	0.7099999999999991	0.0
C 	56.56877937519952	-5.438982597638641e-15	0.0
C 	57.798535448573425	0.7099999999999953	0.0
C 	59.02829152194733	-5.6754601018838e-15	0.0
C 	60.25804759532124	0.709999999999995	0.0
C 	1.2297560733739028	2.1299999999999994	0.0
C 	2.4595121467478056	2.8399999999999994	0.0
C 	3.689268220121708	2.1299999999999994	0.0
C 	4.919024293495611	2.8399999999999994	0.0
C 	6.148780366869514	2.129999999999999	0.0
C 	7.378536440243416	2.839999999999999	0.0
C 	8.60829251361732	2.1299999999999986	0.0
C 	9.838048586991222	2.8399999999999985	0.0
C 	11.067804660365123	2.129999999999998	0.0
C 	12.297560733739028	2.839999999999999	0.0
C 	13.527316807112928	2.1299999999999977	0.0
C 	14.757072880486833	2.839999999999998	0.0
C 	15.986828953860735	2.129999999999998	0.0
C 	17.216585027234636	2.839999999999997	0.0
C 	18.446341100608542	2.129999999999998	0.0
C 	19.676097173982445	2.8399999999999985	0.0
C 	20.905853247356344	2.1299999999999977	0.0
C 	22.13560932073025	2.8399999999999985	0.0
C 	23.36536539410415	2.129999999999997	0.0
C 	24.595121467478055	2.839999999999997	0.0
C 	25.824877540851954	2.1299999999999963	0.0
C 	27.05463361422586	2.839999999999997	0.0
C 	28.284389687599763	2.129999999999998	0.0
C 	29.514145760973665	2.8399999999999985	0.0
C 	30.743901834347568	2.129999999999996	0.0
C 	31.97365790772147	2.8399999999999967	0.0
C 	33.20341398109537	2.129999999999996	0.0
C 	34.43317005446928	2.8399999999999963	0.0
C 	35.66292612784318	2.1299999999999972	0.0
C 	36.89268220121708	2.8399999999999963	0.0
C 	38.122438274590984	2.129999999999997	0.0
C 	39.35219434796489	2.8399999999999976	0.0
C 	40.58195042133879	2.1299999999999986	0.0
C 	41.81170649471269	2.839999999999996	0.0
C 	43.0414625680866	2.129999999999998	0.0
C 	44.2712186414605	2.8399999999999954	0.0
C 	45.5009747148344	2.129999999999998	0.0
C 	46.7307307882083	2.8399999999999954	0.0
C 	47.96048686158221	2.1299999999999977	0.0
C 	49.19024293495611	2.839999999999995	0.0
C 	50.41999900833001	2.1299999999999977	0.0
C 	51.64975508170391	2.8399999999999945	0.0
C 	52.879511155077815	2.1299999999999972	0.0
C 	54.10926722845171	2.8399999999999945	0.0
C 	55.33902330182563	2.130000000000001	0.0
C 	56.56877937519952	2.8399999999999976	0.0
C 	57.798535448573425	2.129999999999997	0.0
C 	59.028291521947324	2.839999999999994	0.0
C 	60.25804759532124	2.129999999999997	0.0
C 	61.487803668695136	2.8399999999999936	0.0
C 	2.4595121467478056	4.259999999999999	0.0
C 	3.689268220121708	4.969999999999999	0.0
C 	4.919024293495611	4.259999999999999	0.0
C 	6.148780366869514	4.969999999999999	0.0
C 	7.378536440243416	4.259999999999999	0.0
C 	8.60829251361732	4.969999999999999	0.0
C 	9.83804858699122	4.259999999999998	0.0
C 	11.067804660365125	4.969999999999999	0.0
C 	12.297560733739028	4.259999999999998	0.0
C 	13.52731680711293	4.969999999999998	0.0
C 	14.757072880486831	4.259999999999998	0.0
C 	15.986828953860735	4.969999999999998	0.0
C 	17.21658502723464	4.259999999999997	0.0
C 	18.446341100608542	4.969999999999998	0.0
C 	19.676097173982445	4.259999999999999	0.0
C 	20.905853247356347	4.969999999999997	0.0
C 	22.135609320730246	4.259999999999996	0.0
C 	23.365365394104153	4.969999999999997	0.0
C 	24.595121467478055	4.259999999999998	0.0
C 	25.824877540851958	4.969999999999997	0.0
C 	27.054633614225857	4.259999999999995	0.0
C 	28.28438968759976	4.969999999999996	0.0
C 	29.514145760973665	4.259999999999997	0.0
C 	30.743901834347568	4.969999999999997	0.0
C 	31.97365790772147	4.259999999999996	0.0
C 	33.20341398109537	4.969999999999995	0.0
C 	34.43317005446927	4.2599999999999945	0.0
C 	35.66292612784318	4.969999999999995	0.0
C 	36.892682201217085	4.259999999999996	0.0
C 	38.122438274590984	4.969999999999997	0.0
C 	39.35219434796489	4.259999999999997	0.0
C 	40.58195042133879	4.969999999999994	0.0
C 	41.81170649471269	4.259999999999995	0.0
C 	43.041462568086594	4.969999999999996	0.0
C 	44.2712186414605	4.259999999999997	0.0
C 	45.500974714834406	4.969999999999998	0.0
C 	46.7307307882083	4.259999999999994	0.0
C 	47.960486861582204	4.9699999999999935	0.0
C 	49.19024293495611	4.259999999999996	0.0
C 	50.41999900833001	4.969999999999997	0.0
C 	51.64975508170391	4.259999999999993	0.0
C 	52.879511155077815	4.9699999999999935	0.0
C 	54.10926722845171	4.259999999999996	0.0
C 	55.33902330182562	4.969999999999997	0.0
C 	56.568779375199526	4.259999999999996	0.0
C 	57.798535448573425	4.969999999999996	0.0
C 	59.028291521947324	4.259999999999995	0.0
C 	60.25804759532123	4.969999999999996	0.0
C 	61.487803668695136	4.259999999999992	0.0
C 	62.717559742069035	4.969999999999993	0.0
C 	3.6892682201217086	6.389999999999999	0.0
C 	4.919024293495611	7.099999999999999	0.0
C 	6.148780366869514	6.389999999999999	0.0
C 	7.378536440243416	7.099999999999999	0.0
C 	8.608292513617318	6.389999999999998	0.0
C 	9.838048586991222	7.099999999999999	0.0
C 	11.067804660365125	6.389999999999998	0.0
C 	12.297560733739028	7.099999999999998	0.0
C 	13.52731680711293	6.389999999999999	0.0
C 	14.757072880486833	7.099999999999998	0.0
C 	15.986828953860735	6.389999999999998	0.0
C 	17.216585027234636	7.099999999999997	0.0
C 	18.44634110060854	6.389999999999997	0.0
C 	19.676097173982445	7.099999999999998	0.0
C 	20.905853247356347	6.389999999999998	0.0
C 	22.13560932073025	7.099999999999997	0.0
C 	23.365365394104153	6.389999999999998	0.0
C 	24.59512146747805	7.099999999999997	0.0
C 	25.824877540851958	6.389999999999998	0.0
C 	27.054633614225857	7.099999999999997	0.0
C 	28.28438968759976	6.389999999999999	0.0
C 	29.514145760973662	7.099999999999997	0.0
C 	30.743901834347568	6.389999999999999	0.0
C 	31.97365790772147	7.099999999999998	0.0
C 	33.20341398109537	6.389999999999995	0.0
C 	34.43317005446928	7.099999999999994	0.0
C 	35.66292612784318	6.389999999999995	0.0
C 	36.892682201217085	7.099999999999996	0.0
C 	38.122438274590984	6.389999999999996	0.0
C 	39.35219434796489	7.099999999999997	0.0
C 	40.58195042133879	6.389999999999994	0.0
C 	41.811706494712695	7.099999999999995	0.0
C 	43.041462568086594	6.389999999999996	0.0
C 	44.2712186414605	7.099999999999997	0.0
C 	45.500974714834406	6.389999999999998	0.0
C 	46.730730788208305	7.099999999999998	0.0
C 	47.960486861582204	6.389999999999995	0.0
C 	49.19024293495611	7.099999999999996	0.0
C 	50.41999900833001	6.389999999999995	0.0
C 	51.649755081703915	7.099999999999996	0.0
C 	52.879511155077815	6.389999999999995	0.0
C 	54.10926722845172	7.099999999999996	0.0
C 	55.33902330182562	6.389999999999995	0.0
C 	56.568779375199526	7.099999999999995	0.0
C 	57.79853544857343	6.389999999999998	0.0
C 	59.02829152194733	7.099999999999999	0.0
C 	60.25804759532123	6.389999999999994	0.0
C 	61.487803668695136	7.099999999999995	0.0
C 	62.71755974206904	6.389999999999994	0.0
C 	63.94731581544294	7.099999999999995	0.0
C 	4.919024293495611	8.519999999999998	0.0
C 	6.148780366869514	9.229999999999999	0.0
C 	7.378536440243416	8.519999999999998	0.0
C 	8.60829251361732	9.229999999999999	0.0
C 	9.838048586991222	8.519999999999998	0.0
C 	11.067804660365125	9.229999999999999	0.0
C 	12.297560733739028	8.519999999999998	0.0
C 	13.52731680711293	9.229999999999997	0.0
C 	14.757072880486833	8.519999999999998	0.0
C 	15.986828953860737	9.229999999999999	0.0
C 	17.216585027234636	8.519999999999998	0.0
C 	18.44634110060854	9.229999999999997	0.0
C 	19.67609717398244	8.519999999999996	0.0
C 	20.905853247356347	9.229999999999997	0.0
C 	22.13560932073025	8.519999999999998	0.0
C 	23.365365394104153	9.229999999999999	0.0
C 	24.595121467478055	8.519999999999996	0.0
C 	25.824877540851954	9.229999999999995	0.0
C 	27.05463361422586	8.519999999999996	0.0
C 	28.284389687599763	9.229999999999997	0.0
C 	29.514145760973662	8.519999999999996	0.0
C 	30.743901834347565	9.229999999999995	0.0
C 	31.97365790772147	8.52	0.0
C 	33.20341398109537	9.229999999999997	0.0
C 	34.43317005446928	8.519999999999994	0.0
C 	35.66292612784318	9.229999999999995	0.0
C 	36.89268220121708	8.519999999999992	0.0
C 	38.122438274590984	9.229999999999993	0.0
C 	39.35219434796489	8.519999999999998	0.0
C 	40.58195042133879	9.229999999999995	0.0
C 	41.811706494712695	8.519999999999994	0.0
C 	43.0414625680866	9.229999999999995	0.0
C 	44.27121864146049	8.519999999999992	0.0
C 	45.5009747148344	9.229999999999993	0.0
C 	46.730730788208305	8.519999999999998	0.0
C 	47.960486861582204	9.229999999999995	0.0
C 	49.19024293495611	8.519999999999996	0.0
C 	50.41999900833001	9.229999999999993	0.0
C 	51.64975508170391	8.519999999999994	0.0
C 	52.879511155077815	9.229999999999995	0.0
C 	54.10926722845171	8.51999999999999	0.0
C 	55.33902330182562	9.229999999999992	0.0
C 	56.568779375199526	8.519999999999998	0.0
C 	57.798535448573425	9.229999999999995	0.0
C 	59.02829152194733	8.519999999999994	0.0
C 	60.25804759532123	9.229999999999993	0.0
C 	61.48780366869513	8.519999999999992	0.0
C 	62.717559742069035	9.229999999999993	0.0
C 	63.94731581544294	8.519999999999992	0.0
C 	65.17707188881684	9.22999999999999	0.0
C 	6.148780366869514	10.649999999999997	0.0
C 	7.378536440243416	11.359999999999998	0.0
C 	8.608292513617318	10.649999999999997	0.0
C 	9.838048586991222	11.359999999999998	0.0
C 	11.067804660365125	10.649999999999997	0.0
C 	12.297560733739028	11.359999999999996	0.0
C 	13.52731680711293	10.649999999999997	0.0
C 	14.757072880486831	11.359999999999996	0.0
C 	15.986828953860735	10.649999999999997	0.0
C 	17.216585027234636	11.359999999999996	0.0
C 	18.44634110060854	10.649999999999997	0.0
C 	19.676097173982445	11.359999999999998	0.0
C 	20.905853247356347	10.649999999999997	0.0
C 	22.13560932073025	11.359999999999996	0.0
C 	23.365365394104153	10.649999999999997	0.0
C 	24.595121467478055	11.359999999999996	0.0
C 	25.824877540851958	10.649999999999997	0.0
C 	27.05463361422586	11.359999999999996	0.0
C 	28.284389687599763	10.649999999999995	0.0
C 	29.514145760973662	11.359999999999994	0.0
C 	30.743901834347565	10.649999999999995	0.0
C 	31.97365790772147	11.359999999999996	0.0
C 	33.20341398109537	10.649999999999997	0.0
C 	34.43317005446928	11.359999999999998	0.0
C 	35.66292612784318	10.649999999999991	0.0
C 	36.89268220121708	11.359999999999992	0.0
C 	38.122438274590984	10.649999999999993	0.0
C 	39.35219434796489	11.359999999999994	0.0
C 	40.58195042133879	10.649999999999993	0.0
C 	41.811706494712695	11.359999999999994	0.0
C 	43.041462568086594	10.649999999999991	0.0
C 	44.2712186414605	11.359999999999992	0.0
C 	45.5009747148344	10.649999999999993	0.0
C 	46.730730788208305	11.359999999999994	0.0
C 	47.960486861582204	10.649999999999995	0.0
C 	49.19024293495611	11.359999999999996	0.0
C 	50.41999900833001	10.649999999999993	0.0
C 	51.649755081703915	11.359999999999994	0.0
C 	52.879511155077815	10.649999999999995	0.0
C 	54.10926722845172	11.359999999999996	0.0
C 	55.33902330182562	10.649999999999993	0.0
C 	56.568779375199526	11.359999999999994	0.0
C 	57.798535448573425	10.649999999999993	0.0
C 	59.02829152194733	11.359999999999992	0.0
C 	60.25804759532124	10.649999999999995	0.0
C 	61.487803668695136	11.359999999999996	0.0
C 	62.717559742069035	10.649999999999991	0.0
C 	63.94731581544294	11.359999999999992	0.0
C 	65.17707188881684	10.649999999999991	0.0
C 	66.40682796219075	11.359999999999992	0.0
C 	7.378536440243417	12.779999999999998	0.0
C 	8.60829251361732	13.489999999999998	0.0
C 	9.838048586991222	12.78	0.0
C 	11.067804660365125	13.489999999999997	0.0
C 	12.297560733739028	12.779999999999998	0.0
C 	13.527316807112932	13.489999999999998	0.0
C 	14.757072880486833	12.779999999999998	0.0
C 	15.986828953860737	13.489999999999997	0.0
C 	17.216585027234636	12.779999999999996	0.0
C 	18.446341100608542	13.489999999999997	0.0
C 	19.676097173982445	12.779999999999998	0.0
C 	20.905853247356347	13.489999999999997	0.0
C 	22.13560932073025	12.779999999999996	0.0
C 	23.36536539410415	13.489999999999995	0.0
C 	24.595121467478055	12.779999999999996	0.0
C 	25.824877540851958	13.489999999999997	0.0
C 	27.05463361422586	12.779999999999998	0.0
C 	28.284389687599763	13.489999999999997	0.0
C 	29.514145760973662	12.779999999999996	0.0
C 	30.743901834347568	13.489999999999997	0.0
C 	31.97365790772147	12.779999999999996	0.0
C 	33.20341398109537	13.489999999999997	0.0
C 	34.43317005446928	12.779999999999998	0.0
C 	35.66292612784318	13.489999999999995	0.0
C 	36.89268220121708	12.779999999999994	0.0
C 	38.122438274590984	13.489999999999995	0.0
C 	39.35219434796489	12.779999999999996	0.0
C 	40.581950421338796	13.489999999999997	0.0
C 	41.811706494712695	12.779999999999996	0.0
C 	43.041462568086594	13.489999999999993	0.0
C 	44.2712186414605	12.779999999999994	0.0
C 	45.5009747148344	13.489999999999995	0.0
C 	46.730730788208305	12.779999999999996	0.0
C 	47.96048686158221	13.489999999999997	0.0
C 	49.19024293495611	12.779999999999998	0.0
C 	50.41999900833001	13.489999999999995	0.0
C 	51.649755081703915	12.779999999999996	0.0
C 	52.879511155077815	13.489999999999993	0.0
C 	54.10926722845172	12.779999999999998	0.0
C 	55.33902330182563	13.489999999999998	0.0
C 	56.56877937519952	12.779999999999998	0.0
C 	57.798535448573425	13.489999999999997	0.0
C 	59.02829152194733	12.779999999999994	0.0
C 	60.25804759532123	13.489999999999991	0.0
C 	61.487803668695136	12.779999999999998	0.0
C 	62.71755974206904	13.489999999999998	0.0
C 	63.94731581544294	12.779999999999994	0.0
C 	65.17707188881684	13.489999999999995	0.0
C 	66.40682796219075	12.77999999999999	0.0
C 	67.63658403556465	13.489999999999988	0.0
C 	8.60829251361732	14.909999999999998	0.0
C 	9.838048586991222	15.619999999999996	0.0
C 	11.067804660365125	14.909999999999997	0.0
C 	12.297560733739026	15.619999999999996	0.0
C 	13.527316807112934	14.909999999999998	0.0
C 	14.757072880486831	15.619999999999996	0.0
C 	15.986828953860737	14.909999999999998	0.0
C 	17.21658502723464	15.619999999999997	0.0
C 	18.446341100608542	14.909999999999997	0.0
C 	19.676097173982445	15.619999999999996	0.0
C 	20.905853247356347	14.909999999999997	0.0
C 	22.135609320730246	15.619999999999996	0.0
C 	23.365365394104153	14.909999999999995	0.0
C 	24.595121467478055	15.619999999999996	0.0
C 	25.824877540851958	14.909999999999997	0.0
C 	27.05463361422586	15.619999999999996	0.0
C 	28.284389687599763	14.909999999999997	0.0
C 	29.514145760973665	15.619999999999996	0.0
C 	30.743901834347568	14.909999999999997	0.0
C 	31.973657907721474	15.619999999999997	0.0
C 	33.203413981095366	14.909999999999993	0.0
C 	34.43317005446927	15.619999999999994	0.0
C 	35.662926127843185	14.909999999999998	0.0
C 	36.892682201217085	15.619999999999996	0.0
C 	38.122438274590984	14.909999999999995	0.0
C 	39.35219434796489	15.619999999999996	0.0
C 	40.58195042133879	14.909999999999993	0.0
C 	41.811706494712695	15.619999999999994	0.0
C 	43.0414625680866	14.909999999999998	0.0
C 	44.2712186414605	15.619999999999996	0.0
C 	45.5009747148344	14.909999999999995	0.0
C 	46.730730788208305	15.619999999999996	0.0
C 	47.960486861582204	14.909999999999993	0.0
C 	49.19024293495611	15.619999999999994	0.0
C 	50.41999900833002	14.909999999999998	0.0
C 	51.649755081703915	15.619999999999996	0.0
C 	52.87951115507782	14.909999999999997	0.0
C 	54.10926722845171	15.619999999999994	0.0
C 	55.33902330182562	14.909999999999995	0.0
C 	56.568779375199526	15.619999999999994	0.0
C 	57.798535448573425	14.909999999999991	0.0
C 	59.028291521947324	15.619999999999992	0.0
C 	60.25804759532124	14.909999999999998	0.0
C 	61.487803668695136	15.619999999999996	0.0
C 	62.717559742069035	14.909999999999993	0.0
C 	63.94731581544294	15.619999999999994	0.0
C 	65.17707188881684	14.909999999999993	0.0
C 	66.40682796219075	15.619999999999994	0.0
C 	67.63658403556465	14.909999999999997	0.0
C 	68.86634010893854	15.61999999999999	0.0
C 	9.838048586991222	17.039999999999996	0.0
C 	11.067804660365127	17.749999999999996	0.0
C 	12.297560733739028	17.039999999999996	0.0
C 	13.527316807112932	17.749999999999996	0.0
C 	14.757072880486833	17.039999999999996	0.0
C 	15.986828953860735	17.749999999999996	0.0
C 	17.21658502723464	17.039999999999996	0.0
C 	18.446341100608546	17.749999999999996	0.0
C 	19.676097173982445	17.039999999999996	0.0
C 	20.905853247356347	17.749999999999996	0.0
C 	22.13560932073025	17.039999999999996	0.0
C 	23.365365394104153	17.749999999999996	0.0
C 	24.595121467478055	17.039999999999996	0.0
C 	25.82487754085196	17.749999999999996	0.0
C 	27.05463361422586	17.039999999999996	0.0
C 	28.28438968759977	17.75	0.0
C 	29.514145760973665	17.039999999999996	0.0
C 	30.74390183434757	17.749999999999996	0.0
C 	31.973657907721467	17.039999999999992	0.0
C 	33.20341398109537	17.749999999999993	0.0
C 	34.43317005446927	17.039999999999996	0.0
C 	35.66292612784318	17.749999999999996	0.0
C 	36.892682201217085	17.039999999999996	0.0
C 	38.122438274590984	17.749999999999996	0.0
C 	39.35219434796488	17.039999999999992	0.0
C 	40.58195042133879	17.749999999999993	0.0
C 	41.811706494712695	17.039999999999992	0.0
C 	43.041462568086594	17.749999999999993	0.0
C 	44.2712186414605	17.039999999999996	0.0
C 	45.500974714834406	17.749999999999996	0.0
C 	46.7307307882083	17.039999999999992	0.0
C 	47.960486861582204	17.749999999999993	0.0
C 	49.19024293495611	17.039999999999992	0.0
C 	50.41999900833002	17.749999999999993	0.0
C 	51.649755081703915	17.039999999999996	0.0
C 	52.87951115507782	17.749999999999996	0.0
C 	54.10926722845172	17.039999999999992	0.0
C 	55.33902330182562	17.749999999999993	0.0
C 	56.568779375199526	17.039999999999996	0.0
C 	57.79853544857343	17.749999999999996	0.0
C 	59.028291521947324	17.039999999999992	0.0
C 	60.25804759532123	17.749999999999993	0.0
C 	61.487803668695136	17.039999999999996	0.0
C 	62.71755974206904	17.749999999999996	0.0
C 	63.94731581544294	17.04	0.0
C 	65.17707188881684	17.749999999999993	0.0
C 	66.40682796219075	17.039999999999996	0.0
C 	67.63658403556464	17.74999999999999	0.0
C 	68.86634010893856	17.03999999999999	0.0
C 	70.09609618231246	17.74999999999999	0.0
C 	11.067804660365125	19.169999999999995	0.0
C 	12.297560733739026	19.879999999999995	0.0
C 	13.52731680711293	19.169999999999995	0.0
C 	14.757072880486831	19.879999999999995	0.0
C 	15.986828953860737	19.169999999999998	0.0
C 	17.216585027234636	19.879999999999992	0.0
C 	18.446341100608542	19.169999999999995	0.0
C 	19.676097173982445	19.879999999999995	0.0
C 	20.905853247356347	19.169999999999995	0.0
C 	22.135609320730246	19.879999999999995	0.0
C 	23.365365394104153	19.169999999999995	0.0
C 	24.59512146747805	19.879999999999995	0.0
C 	25.824877540851958	19.169999999999995	0.0
C 	27.05463361422586	19.879999999999995	0.0
C 	28.284389687599763	19.169999999999995	0.0
C 	29.51414576097367	19.879999999999995	0.0
C 	30.743901834347565	19.16999999999999	0.0
C 	31.97365790772147	19.879999999999992	0.0
C 	33.20341398109537	19.169999999999995	0.0
C 	34.43317005446927	19.879999999999992	0.0
C 	35.66292612784318	19.169999999999995	0.0
C 	36.89268220121708	19.879999999999992	0.0
C 	38.122438274590984	19.169999999999995	0.0
C 	39.35219434796488	19.879999999999992	0.0
C 	40.58195042133879	19.16999999999999	0.0
C 	41.81170649471269	19.87999999999999	0.0
C 	43.0414625680866	19.169999999999995	0.0
C 	44.27121864146049	19.879999999999992	0.0
C 	45.5009747148344	19.16999999999999	0.0
C 	46.730730788208305	19.879999999999992	0.0
C 	47.960486861582204	19.169999999999995	0.0
C 	49.1902429349561	19.879999999999992	0.0
C 	50.41999900833002	19.169999999999995	0.0
C 	51.649755081703915	19.879999999999992	0.0
C 	52.879511155077815	19.16999999999999	0.0
C 	54.10926722845172	19.879999999999992	0.0
C 	55.33902330182562	19.16999999999999	0.0
C 	56.56877937519952	19.879999999999992	0.0
C 	57.79853544857343	19.169999999999995	0.0
C 	59.02829152194733	19.879999999999992	0.0
C 	60.25804759532123	19.169999999999995	0.0
C 	61.48780366869513	19.879999999999992	0.0
C 	62.717559742069035	19.16999999999999	0.0
C 	63.94731581544294	19.879999999999992	0.0
C 	65.17707188881684	19.169999999999995	0.0
C 	66.40682796219075	19.87999999999999	0.0
C 	67.63658403556465	19.169999999999995	0.0
C 	68.86634010893854	19.87999999999999	0.0
C 	70.09609618231245	19.16999999999999	0.0
C 	71.32585225568636	19.879999999999992	0.0
C 	12.297560733739028	21.299999999999994	0.0
C 	13.527316807112932	22.009999999999994	0.0
C 	14.757072880486831	21.299999999999994	0.0
C 	15.986828953860735	22.009999999999994	0.0
C 	17.216585027234636	21.299999999999994	0.0
C 	18.44634110060854	22.009999999999994	0.0
C 	19.676097173982445	21.299999999999994	0.0
C 	20.905853247356347	22.009999999999994	0.0
C 	22.13560932073025	21.299999999999994	0.0
C 	23.365365394104153	22.009999999999994	0.0
C 	24.595121467478055	21.299999999999994	0.0
C 	25.824877540851958	22.009999999999994	0.0
C 	27.05463361422586	21.299999999999994	0.0
C 	28.284389687599766	22.009999999999994	0.0
C 	29.514145760973662	21.29999999999999	0.0
C 	30.743901834347568	22.00999999999999	0.0
C 	31.97365790772147	21.299999999999994	0.0
C 	33.20341398109537	22.009999999999994	0.0
C 	34.43317005446928	21.299999999999994	0.0
C 	35.662926127843185	22.009999999999994	0.0
C 	36.89268220121708	21.299999999999994	0.0
C 	38.122438274590984	22.009999999999994	0.0
C 	39.35219434796489	21.299999999999994	0.0
C 	40.58195042133879	22.009999999999994	0.0
C 	41.811706494712695	21.299999999999994	0.0
C 	43.0414625680866	22.009999999999994	0.0
C 	44.2712186414605	21.29999999999999	0.0
C 	45.5009747148344	22.00999999999999	0.0
C 	46.730730788208305	21.299999999999994	0.0
C 	47.96048686158221	22.009999999999994	0.0
C 	49.19024293495611	21.299999999999994	0.0
C 	50.41999900833002	22.009999999999994	0.0
C 	51.649755081703915	21.299999999999994	0.0
C 	52.879511155077815	22.00999999999999	0.0
C 	54.10926722845172	21.299999999999994	0.0
C 	55.33902330182563	22.009999999999994	0.0
C 	56.568779375199526	21.29999999999999	0.0
C 	57.798535448573425	22.00999999999999	0.0
C 	59.02829152194733	21.299999999999994	0.0
C 	60.25804759532124	22.009999999999994	0.0
C 	61.48780366869513	21.29999999999999	0.0
C 	62.717559742069035	22.00999999999999	0.0
C 	63.94731581544294	21.299999999999994	0.0
C 	65.17707188881684	22.009999999999987	0.0
C 	66.40682796219075	21.299999999999994	0.0
C 	67.63658403556465	22.009999999999994	0.0
C 	68.86634010893854	21.29999999999999	0.0
C 	70.09609618231245	22.00999999999999	0.0
C 	71.32585225568636	21.299999999999983	0.0
C 	72.55560832906026	22.00999999999999	0.0
C 	13.527316807112932	23.429999999999996	0.0
C 	14.757072880486836	24.139999999999997	0.0
C 	15.986828953860737	23.429999999999996	0.0
C 	17.216585027234643	24.139999999999997	0.0
C 	18.446341100608542	23.429999999999996	0.0
C 	19.676097173982445	24.139999999999997	0.0
C 	20.90585324735635	23.429999999999996	0.0
C 	22.135609320730254	24.139999999999997	0.0
C 	23.365365394104156	23.429999999999993	0.0
C 	24.595121467478062	24.139999999999997	0.0
C 	25.824877540851958	23.429999999999993	0.0
C 	27.054633614225864	24.139999999999993	0.0
C 	28.284389687599766	23.429999999999996	0.0
C 	29.514145760973673	24.139999999999997	0.0
C 	30.743901834347575	23.429999999999996	0.0
C 	31.973657907721478	24.139999999999997	0.0
C 	33.20341398109537	23.429999999999993	0.0
C 	34.43317005446928	24.139999999999993	0.0
C 	35.66292612784318	23.429999999999993	0.0
C 	36.892682201217085	24.139999999999993	0.0
C 	38.122438274590984	23.429999999999993	0.0
C 	39.35219434796489	24.139999999999993	0.0
C 	40.58195042133879	23.429999999999996	0.0
C 	41.811706494712695	24.139999999999993	0.0
C 	43.041462568086594	23.42999999999999	0.0
C 	44.2712186414605	24.13999999999999	0.0
C 	45.5009747148344	23.429999999999993	0.0
C 	46.730730788208305	24.139999999999993	0.0
C 	47.96048686158221	23.429999999999993	0.0
C 	49.19024293495611	24.139999999999993	0.0
C 	50.41999900833001	23.429999999999993	0.0
C 	51.649755081703915	24.13999999999999	0.0
C 	52.87951115507782	23.429999999999993	0.0
C 	54.10926722845172	24.139999999999993	0.0
C 	55.33902330182563	23.429999999999993	0.0
C 	56.56877937519953	24.139999999999993	0.0
C 	57.798535448573425	23.429999999999993	0.0
C 	59.02829152194733	24.139999999999993	0.0
C 	60.25804759532124	23.429999999999993	0.0
C 	61.487803668695136	24.13999999999999	0.0
C 	62.71755974206904	23.429999999999993	0.0
C 	63.947315815442934	24.139999999999986	0.0
C 	65.17707188881684	23.429999999999993	0.0
C 	66.40682796219075	24.139999999999993	0.0
C 	67.63658403556464	23.42999999999999	0.0
C 	68.86634010893856	24.139999999999997	0.0
C 	70.09609618231245	23.42999999999999	0.0
C 	71.32585225568636	24.139999999999997	0.0
C 	72.55560832906026	23.42999999999999	0.0
C 	73.78536440243417	24.13999999999999	0.0
C 	14.757072880486835	25.559999999999995	0.0
C 	15.986828953860735	26.269999999999996	0.0
C 	17.21658502723464	25.559999999999995	0.0
C 	18.44634110060854	26.269999999999996	0.0
C 	19.676097173982445	25.56	0.0
C 	20.905853247356344	26.269999999999996	0.0
C 	22.13560932073025	25.56	0.0
C 	23.365365394104153	26.269999999999996	0.0
C 	24.595121467478055	25.559999999999995	0.0
C 	25.824877540851958	26.269999999999996	0.0
C 	27.054633614225857	25.559999999999995	0.0
C 	28.28438968759976	26.269999999999996	0.0
C 	29.514145760973665	25.559999999999995	0.0
C 	30.743901834347568	26.269999999999996	0.0
C 	31.973657907721474	25.559999999999995	0.0
C 	33.20341398109538	26.269999999999996	0.0
C 	34.43317005446927	25.55999999999999	0.0
C 	35.66292612784318	26.269999999999992	0.0
C 	36.892682201217085	25.559999999999995	0.0
C 	38.12243827459098	26.269999999999992	0.0
C 	39.35219434796489	25.559999999999995	0.0
C 	40.58195042133879	26.269999999999992	0.0
C 	41.81170649471269	25.55999999999999	0.0
C 	43.041462568086594	26.269999999999992	0.0
C 	44.2712186414605	25.55999999999999	0.0
C 	45.5009747148344	26.26999999999999	0.0
C 	46.730730788208305	25.559999999999995	0.0
C 	47.960486861582204	26.269999999999992	0.0
C 	49.19024293495611	25.55999999999999	0.0
C 	50.41999900833001	26.269999999999992	0.0
C 	51.649755081703915	25.559999999999995	0.0
C 	52.879511155077815	26.269999999999992	0.0
C 	54.10926722845172	25.559999999999995	0.0
C 	55.33902330182562	26.269999999999992	0.0
C 	56.568779375199526	25.55999999999999	0.0
C 	57.79853544857343	26.269999999999992	0.0
C 	59.028291521947324	25.55999999999999	0.0
C 	60.25804759532123	26.269999999999992	0.0
C 	61.487803668695136	25.559999999999995	0.0
C 	62.717559742069035	26.26999999999999	0.0
C 	63.94731581544294	25.55999999999999	0.0
C 	65.17707188881683	26.269999999999985	0.0
C 	66.40682796219075	25.55999999999999	0.0
C 	67.63658403556465	26.269999999999992	0.0
C 	68.86634010893856	25.559999999999995	0.0
C 	70.09609618231246	26.269999999999996	0.0
C 	71.32585225568636	25.559999999999995	0.0
C 	72.55560832906026	26.269999999999996	0.0
C 	73.78536440243415	25.559999999999988	0.0
C 	75.01512047580806	26.26999999999999	0.0
C 	15.986828953860735	27.689999999999994	0.0
C 	17.21658502723464	28.399999999999995	0.0
C 	18.446341100608542	27.689999999999994	0.0
C 	19.676097173982445	28.399999999999995	0.0
C 	20.905853247356344	27.689999999999994	0.0
C 	22.13560932073025	28.399999999999995	0.0
C 	23.365365394104153	27.689999999999994	0.0
C 	24.59512146747806	28.399999999999995	0.0
C 	25.824877540851954	27.689999999999994	0.0
C 	27.054633614225857	28.399999999999995	0.0
C 	28.284389687599763	27.689999999999994	0.0
C 	29.514145760973665	28.399999999999995	0.0
C 	30.74390183434757	27.689999999999994	0.0
C 	31.973657907721474	28.399999999999995	0.0
C 	33.20341398109537	27.68999999999999	0.0
C 	34.43317005446928	28.39999999999999	0.0
C 	35.66292612784318	27.689999999999994	0.0
C 	36.892682201217085	28.399999999999995	0.0
C 	38.122438274590984	27.689999999999994	0.0
C 	39.35219434796489	28.399999999999995	0.0
C 	40.58195042133879	27.689999999999994	0.0
C 	41.811706494712695	28.399999999999995	0.0
C 	43.041462568086594	27.689999999999994	0.0
C 	44.2712186414605	28.399999999999995	0.0
C 	45.500974714834406	27.689999999999994	0.0
C 	46.730730788208305	28.399999999999995	0.0
C 	47.960486861582204	27.68999999999999	0.0
C 	49.19024293495611	28.39999999999999	0.0
C 	50.41999900833002	27.689999999999994	0.0
C 	51.649755081703915	28.399999999999995	0.0
C 	52.87951115507782	27.689999999999994	0.0
C 	54.10926722845173	28.399999999999995	0.0
C 	55.33902330182562	27.68999999999999	0.0
C 	56.568779375199526	28.39999999999999	0.0
C 	57.79853544857343	27.689999999999994	0.0
C 	59.02829152194733	28.39999999999999	0.0
C 	60.25804759532124	27.689999999999994	0.0
C 	61.48780366869513	28.399999999999988	0.0
C 	62.717559742069035	27.689999999999994	0.0
C 	63.94731581544294	28.399999999999995	0.0
C 	65.17707188881684	27.68999999999999	0.0
C 	66.40682796219075	28.39999999999999	0.0
C 	67.63658403556464	27.689999999999987	0.0
C 	68.86634010893856	28.399999999999995	0.0
C 	70.09609618231245	27.689999999999994	0.0
C 	71.32585225568636	28.399999999999995	0.0
C 	72.55560832906026	27.68999999999999	0.0
C 	73.78536440243415	28.39999999999999	0.0
C 	75.01512047580808	27.689999999999994	0.0
C 	76.24487654918197	28.399999999999984	0.0
C 	17.21658502723464	29.819999999999997	0.0
C 	18.446341100608546	30.529999999999998	0.0
C 	19.676097173982445	29.819999999999997	0.0
C 	20.905853247356355	30.529999999999998	0.0
C 	22.13560932073025	29.819999999999993	0.0
C 	23.365365394104156	30.529999999999994	0.0
C 	24.59512146747806	29.819999999999997	0.0
C 	25.82487754085196	30.529999999999998	0.0
C 	27.054633614225867	29.819999999999997	0.0
C 	28.28438968759977	30.529999999999998	0.0
C 	29.514145760973665	29.819999999999997	0.0
C 	30.74390183434757	30.529999999999998	0.0
C 	31.973657907721474	29.819999999999997	0.0
C 	33.20341398109538	30.529999999999998	0.0
C 	34.43317005446928	29.819999999999997	0.0
C 	35.662926127843185	30.529999999999998	0.0
C 	36.892682201217085	29.819999999999993	0.0
C 	38.12243827459099	30.529999999999994	0.0
C 	39.35219434796488	29.819999999999993	0.0
C 	40.58195042133879	30.529999999999994	0.0
C 	41.811706494712695	29.819999999999993	0.0
C 	43.0414625680866	30.529999999999994	0.0
C 	44.2712186414605	29.819999999999993	0.0
C 	45.500974714834406	30.529999999999994	0.0
C 	46.730730788208305	29.81999999999999	0.0
C 	47.960486861582204	30.52999999999999	0.0
C 	49.19024293495611	29.819999999999993	0.0
C 	50.41999900833002	30.529999999999994	0.0
C 	51.649755081703915	29.819999999999993	0.0
C 	52.87951115507782	30.529999999999994	0.0
C 	54.10926722845172	29.819999999999993	0.0
C 	55.33902330182563	30.52999999999999	0.0
C 	56.568779375199526	29.819999999999993	0.0
C 	57.798535448573425	30.52999999999999	0.0
C 	59.02829152194734	29.819999999999993	0.0
C 	60.25804759532124	30.529999999999994	0.0
C 	61.487803668695136	29.819999999999993	0.0
C 	62.71755974206904	30.529999999999994	0.0
C 	63.947315815442934	29.81999999999999	0.0
C 	65.17707188881685	30.529999999999998	0.0
C 	66.40682796219073	29.819999999999986	0.0
C 	67.63658403556465	30.529999999999994	0.0
C 	68.86634010893856	29.819999999999993	0.0
C 	70.09609618231245	30.529999999999994	0.0
C 	71.32585225568637	29.819999999999997	0.0
C 	72.55560832906026	30.52999999999999	0.0
C 	73.78536440243417	29.819999999999997	0.0
C 	75.01512047580806	30.529999999999987	0.0
C 	76.24487654918197	29.81999999999999	0.0
C 	77.47463262255587	30.52999999999999	0.0
C 	18.446341100608542	31.949999999999996	0.0
C 	19.676097173982445	32.65999999999999	0.0
C 	20.905853247356347	31.949999999999992	0.0
C 	22.135609320730254	32.66	0.0
C 	23.365365394104156	31.949999999999996	0.0
C 	24.595121467478055	32.65999999999999	0.0
C 	25.824877540851958	31.949999999999992	0.0
C 	27.05463361422586	32.66	0.0
C 	28.284389687599766	31.949999999999996	0.0
C 	29.51414576097367	32.66	0.0
C 	30.743901834347568	31.949999999999992	0.0
C 	31.97365790772147	32.66	0.0
C 	33.20341398109537	31.949999999999992	0.0
C 	34.43317005446928	32.66	0.0
C 	35.66292612784318	31.949999999999996	0.0
C 	36.892682201217085	32.66	0.0
C 	38.122438274590984	31.949999999999992	0.0
C 	39.35219434796489	32.65999999999999	0.0
C 	40.58195042133879	31.949999999999992	0.0
C 	41.81170649471269	32.65999999999999	0.0
C 	43.0414625680866	31.949999999999996	0.0
C 	44.2712186414605	32.65999999999999	0.0
C 	45.5009747148344	31.949999999999992	0.0
C 	46.730730788208305	32.65999999999999	0.0
C 	47.96048686158221	31.949999999999992	0.0
C 	49.1902429349561	32.65999999999999	0.0
C 	50.41999900833002	31.949999999999992	0.0
C 	51.649755081703915	32.65999999999999	0.0
C 	52.879511155077815	31.949999999999992	0.0
C 	54.10926722845172	32.65999999999999	0.0
C 	55.33902330182563	31.949999999999992	0.0
C 	56.568779375199526	32.65999999999999	0.0
C 	57.79853544857343	31.949999999999992	0.0
C 	59.028291521947324	32.65999999999999	0.0
C 	60.25804759532124	31.949999999999992	0.0
C 	61.487803668695136	32.65999999999999	0.0
C 	62.717559742069035	31.94999999999999	0.0
C 	63.94731581544294	32.65999999999999	0.0
C 	65.17707188881685	31.949999999999992	0.0
C 	66.40682796219076	32.66	0.0
C 	67.63658403556465	31.949999999999992	0.0
C 	68.86634010893856	32.65999999999999	0.0
C 	70.09609618231245	31.94999999999999	0.0
C 	71.32585225568636	32.65999999999999	0.0
C 	72.55560832906026	31.949999999999996	0.0
C 	73.78536440243415	32.65999999999999	0.0
C 	75.01512047580806	31.949999999999992	0.0
C 	76.24487654918195	32.65999999999998	0.0
C 	77.47463262255587	31.949999999999985	0.0
C 	78.70438869592978	32.65999999999999	0.0
C 	19.676097173982445	34.07999999999999	0.0
C 	20.90585324735635	34.78999999999999	0.0
C 	22.135609320730254	34.07999999999999	0.0
C 	23.365365394104156	34.78999999999999	0.0
C 	24.595121467478055	34.07999999999999	0.0
C 	25.824877540851958	34.78999999999999	0.0
C 	27.054633614225864	34.07999999999999	0.0
C 	28.284389687599766	34.78999999999999	0.0
C 	29.514145760973665	34.07999999999999	0.0
C 	30.743901834347568	34.78999999999999	0.0
C 	31.97365790772147	34.07999999999999	0.0
C 	33.20341398109537	34.78999999999999	0.0
C 	34.43317005446928	34.07999999999999	0.0
C 	35.662926127843185	34.78999999999999	0.0
C 	36.89268220121708	34.07999999999999	0.0
C 	38.122438274590984	34.78999999999999	0.0
C 	39.35219434796489	34.07999999999999	0.0
C 	40.581950421338796	34.78999999999999	0.0
C 	41.811706494712695	34.07999999999999	0.0
C 	43.0414625680866	34.78999999999999	0.0
C 	44.2712186414605	34.07999999999999	0.0
C 	45.5009747148344	34.78999999999999	0.0
C 	46.730730788208305	34.07999999999999	0.0
C 	47.96048686158221	34.78999999999999	0.0
C 	49.19024293495611	34.07999999999999	0.0
C 	50.41999900833002	34.78999999999999	0.0
C 	51.649755081703915	34.07999999999999	0.0
C 	52.87951115507782	34.78999999999999	0.0
C 	54.10926722845172	34.07999999999999	0.0
C 	55.33902330182562	34.78999999999999	0.0
C 	56.56877937519953	34.07999999999999	0.0
C 	57.79853544857343	34.78999999999999	0.0
C 	59.02829152194733	34.07999999999999	0.0
C 	60.25804759532124	34.78999999999999	0.0
C 	61.487803668695136	34.07999999999999	0.0
C 	62.71755974206905	34.79	0.0
C 	63.947315815442934	34.079999999999984	0.0
C 	65.17707188881685	34.78999999999999	0.0
C 	66.40682796219075	34.07999999999999	0.0
C 	67.63658403556465	34.78999999999999	0.0
C 	68.86634010893854	34.07999999999999	0.0
C 	70.09609618231245	34.78999999999999	0.0
C 	71.32585225568636	34.07999999999999	0.0
C 	72.55560832906025	34.789999999999985	0.0
C 	73.78536440243417	34.07999999999999	0.0
C 	75.01512047580808	34.78999999999999	0.0
C 	76.24487654918197	34.07999999999999	0.0
C 	77.47463262255587	34.78999999999999	0.0
C 	78.70438869592977	34.079999999999984	0.0
C 	79.93414476930369	34.78999999999999	0.0
C 	20.90585324735635	36.209999999999994	0.0
C 	22.135609320730254	36.919999999999995	0.0
C 	23.36536539410416	36.209999999999994	0.0
C 	24.595121467478062	36.919999999999995	0.0
C 	25.82487754085196	36.209999999999994	0.0
C 	27.054633614225864	36.919999999999995	0.0
C 	28.284389687599766	36.209999999999994	0.0
C 	29.514145760973673	36.919999999999995	0.0
C 	30.743901834347575	36.209999999999994	0.0
C 	31.973657907721478	36.919999999999995	0.0
C 	33.20341398109537	36.209999999999994	0.0
C 	34.43317005446928	36.919999999999995	0.0
C 	35.662926127843185	36.209999999999994	0.0
C 	36.89268220121709	36.919999999999995	0.0
C 	38.12243827459099	36.209999999999994	0.0
C 	39.3521943479649	36.919999999999995	0.0
C 	40.581950421338796	36.209999999999994	0.0
C 	41.811706494712695	36.919999999999995	0.0
C 	43.041462568086594	36.209999999999994	0.0
C 	44.2712186414605	36.919999999999995	0.0
C 	45.500974714834406	36.209999999999994	0.0
C 	46.730730788208305	36.919999999999995	0.0
C 	47.96048686158221	36.209999999999994	0.0
C 	49.19024293495612	36.919999999999995	0.0
C 	50.41999900833002	36.20999999999999	0.0
C 	51.649755081703915	36.91999999999999	0.0
C 	52.87951115507782	36.209999999999994	0.0
C 	54.10926722845172	36.91999999999999	0.0
C 	55.33902330182563	36.209999999999994	0.0
C 	56.56877937519953	36.919999999999995	0.0
C 	57.79853544857343	36.20999999999999	0.0
C 	59.02829152194733	36.91999999999999	0.0
C 	60.25804759532123	36.20999999999999	0.0
C 	61.48780366869515	36.919999999999995	0.0
C 	62.71755974206904	36.209999999999994	0.0
C 	63.94731581544295	36.919999999999995	0.0
C 	65.17707188881684	36.209999999999994	0.0
C 	66.40682796219075	36.919999999999995	0.0
C 	67.63658403556467	36.209999999999994	0.0
C 	68.86634010893856	36.91999999999999	0.0
C 	70.09609618231246	36.209999999999994	0.0
C 	71.32585225568636	36.91999999999999	0.0
C 	72.55560832906026	36.209999999999994	0.0
C 	73.78536440243417	36.919999999999995	0.0
C 	75.01512047580806	36.20999999999999	0.0
C 	76.24487654918198	36.919999999999995	0.0
C 	77.47463262255586	36.20999999999999	0.0
C 	78.70438869592978	36.919999999999995	0.0
C 	79.93414476930369	36.20999999999999	0.0
C 	81.16390084267759	36.91999999999999	0.0
C 	22.13560932073025	38.33999999999999	0.0
C 	23.365365394104153	39.04999999999999	0.0
C 	24.59512146747806	38.33999999999999	0.0
C 	25.82487754085196	39.04999999999999	0.0
C 	27.05463361422586	38.33999999999999	0.0
C 	28.284389687599763	39.04999999999999	0.0
C 	29.514145760973665	38.33999999999999	0.0
C 	30.74390183434757	39.04999999999999	0.0
C 	31.973657907721474	38.339999999999996	0.0
C 	33.20341398109538	39.04999999999999	0.0
C 	34.43317005446927	38.33999999999999	0.0
C 	35.66292612784318	39.04999999999999	0.0
C 	36.892682201217085	38.33999999999999	0.0
C 	38.12243827459099	39.04999999999999	0.0
C 	39.35219434796489	38.33999999999999	0.0
C 	40.581950421338796	39.04999999999999	0.0
C 	41.811706494712695	38.33999999999999	0.0
C 	43.0414625680866	39.04999999999999	0.0
C 	44.27121864146049	38.33999999999999	0.0
C 	45.5009747148344	39.04999999999999	0.0
C 	46.730730788208305	38.33999999999999	0.0
C 	47.960486861582204	39.04999999999999	0.0
C 	49.19024293495611	38.33999999999999	0.0
C 	50.41999900833002	39.04999999999999	0.0
C 	51.649755081703915	38.33999999999999	0.0
C 	52.879511155077815	39.04999999999999	0.0
C 	54.10926722845173	38.33999999999999	0.0
C 	55.33902330182562	39.04999999999998	0.0
C 	56.568779375199526	38.33999999999999	0.0
C 	57.79853544857343	39.04999999999999	0.0
C 	59.02829152194733	38.33999999999999	0.0
C 	60.25804759532123	39.04999999999999	0.0
C 	61.48780366869513	38.33999999999998	0.0
C 	62.71755974206905	39.04999999999999	0.0
C 	63.94731581544294	38.33999999999999	0.0
C 	65.17707188881685	39.04999999999999	0.0
C 	66.40682796219075	38.33999999999999	0.0
C 	67.63658403556465	39.04999999999999	0.0
C 	68.86634010893856	38.33999999999999	0.0
C 	70.09609618231245	39.04999999999998	0.0
C 	71.32585225568636	38.33999999999999	0.0
C 	72.55560832906025	39.04999999999998	0.0
C 	73.78536440243415	38.33999999999999	0.0
C 	75.01512047580806	39.04999999999999	0.0
C 	76.24487654918197	38.33999999999999	0.0
C 	77.47463262255587	39.05	0.0
C 	78.70438869592977	38.33999999999998	0.0
C 	79.93414476930369	39.04999999999999	0.0
C 	81.16390084267758	38.33999999999998	0.0
C 	82.39365691605148	39.04999999999998	0.0
C 	23.365365394104156	40.46999999999999	0.0
C 	24.59512146747806	41.17999999999999	0.0
C 	25.82487754085196	40.46999999999999	0.0
C 	27.054633614225867	41.17999999999999	0.0
C 	28.284389687599763	40.46999999999999	0.0
C 	29.51414576097367	41.17999999999999	0.0
C 	30.74390183434757	40.46999999999999	0.0
C 	31.973657907721474	41.17999999999999	0.0
C 	33.20341398109537	40.46999999999999	0.0
C 	34.43317005446928	41.17999999999999	0.0
C 	35.66292612784318	40.46999999999999	0.0
C 	36.892682201217085	41.17999999999999	0.0
C 	38.12243827459099	40.46999999999999	0.0
C 	39.3521943479649	41.17999999999999	0.0
C 	40.58195042133879	40.46999999999999	0.0
C 	41.811706494712695	41.17999999999999	0.0
C 	43.0414625680866	40.46999999999999	0.0
C 	44.2712186414605	41.17999999999999	0.0
C 	45.500974714834406	40.46999999999999	0.0
C 	46.73073078820831	41.17999999999999	0.0
C 	47.960486861582204	40.46999999999999	0.0
C 	49.19024293495611	41.17999999999999	0.0
C 	50.41999900833002	40.46999999999999	0.0
C 	51.649755081703915	41.179999999999986	0.0
C 	52.87951115507782	40.46999999999999	0.0
C 	54.10926722845173	41.17999999999999	0.0
C 	55.33902330182563	40.46999999999999	0.0
C 	56.568779375199526	41.17999999999999	0.0
C 	57.798535448573425	40.469999999999985	0.0
C 	59.028291521947345	41.17999999999999	0.0
C 	60.25804759532124	40.46999999999999	0.0
C 	61.48780366869514	41.17999999999999	0.0
C 	62.71755974206904	40.46999999999999	0.0
C 	63.94731581544295	41.17999999999999	0.0
C 	65.17707188881685	40.46999999999999	0.0
C 	66.40682796219075	41.179999999999986	0.0
C 	67.63658403556465	40.46999999999999	0.0
C 	68.86634010893854	41.179999999999986	0.0
C 	70.09609618231246	40.46999999999999	0.0
C 	71.32585225568636	41.17999999999999	0.0
C 	72.55560832906026	40.469999999999985	0.0
C 	73.78536440243417	41.179999999999986	0.0
C 	75.01512047580806	40.469999999999985	0.0
C 	76.24487654918198	41.17999999999999	0.0
C 	77.47463262255587	40.46999999999999	0.0
C 	78.70438869592978	41.17999999999999	0.0
C 	79.93414476930367	40.469999999999985	0.0
C 	81.16390084267758	41.179999999999986	0.0
C 	82.3936569160515	40.46999999999999	0.0
C 	83.62341298942539	41.179999999999986	0.0
C 	24.595121467478055	42.59999999999999	0.0
C 	25.82487754085196	43.30999999999999	0.0
C 	27.05463361422586	42.59999999999999	0.0
C 	28.284389687599766	43.30999999999999	0.0
C 	29.514145760973662	42.59999999999999	0.0
C 	30.743901834347568	43.30999999999999	0.0
C 	31.97365790772147	42.59999999999999	0.0
C 	33.20341398109537	43.30999999999999	0.0
C 	34.43317005446927	42.59999999999999	0.0
C 	35.66292612784318	43.30999999999999	0.0
C 	36.89268220121708	42.59999999999999	0.0
C 	38.122438274590984	43.30999999999999	0.0
C 	39.35219434796489	42.59999999999999	0.0
C 	40.581950421338796	43.30999999999999	0.0
C 	41.81170649471269	42.59999999999999	0.0
C 	43.041462568086594	43.30999999999999	0.0
C 	44.2712186414605	42.59999999999999	0.0
C 	45.5009747148344	43.30999999999999	0.0
C 	46.730730788208305	42.59999999999999	0.0
C 	47.96048686158221	43.30999999999999	0.0
C 	49.19024293495611	42.59999999999999	0.0
C 	50.41999900833001	43.30999999999999	0.0
C 	51.64975508170392	42.599999999999994	0.0
C 	52.879511155077815	43.30999999999999	0.0
C 	54.10926722845172	42.59999999999999	0.0
C 	55.33902330182563	43.30999999999999	0.0
C 	56.568779375199526	42.59999999999999	0.0
C 	57.798535448573425	43.30999999999999	0.0
C 	59.028291521947324	42.59999999999998	0.0
C 	60.258047595321244	43.30999999999999	0.0
C 	61.487803668695136	42.59999999999999	0.0
C 	62.71755974206904	43.30999999999999	0.0
C 	63.94731581544294	42.59999999999999	0.0
C 	65.17707188881684	43.30999999999999	0.0
C 	66.40682796219076	42.599999999999994	0.0
C 	67.63658403556465	43.30999999999999	0.0
C 	68.86634010893856	42.59999999999999	0.0
C 	70.09609618231245	43.30999999999998	0.0
C 	71.32585225568636	42.59999999999999	0.0
C 	72.55560832906026	43.30999999999999	0.0
C 	73.78536440243415	42.59999999999999	0.0
C 	75.01512047580806	43.30999999999999	0.0
C 	76.24487654918197	42.59999999999998	0.0
C 	77.47463262255587	43.30999999999999	0.0
C 	78.70438869592978	42.59999999999999	0.0
C 	79.93414476930367	43.30999999999999	0.0
C 	81.16390084267758	42.59999999999999	0.0
C 	82.39365691605148	43.30999999999999	0.0
C 	83.62341298942539	42.59999999999999	0.0
C 	84.85316906279928	43.30999999999998	0.0
C 	25.82487754085196	44.72999999999999	0.0
C 	27.054633614225864	45.43999999999999	0.0
C 	28.284389687599766	44.72999999999999	0.0
C 	29.514145760973673	45.43999999999999	0.0
C 	30.743901834347568	44.72999999999999	0.0
C 	31.97365790772147	45.43999999999999	0.0
C 	33.20341398109537	44.72999999999999	0.0
C 	34.43317005446928	45.43999999999999	0.0
C 	35.662926127843185	44.72999999999999	0.0
C 	36.892682201217085	45.43999999999999	0.0
C 	38.122438274590984	44.72999999999999	0.0
C 	39.35219434796489	45.43999999999999	0.0
C 	40.581950421338796	44.72999999999999	0.0
C 	41.811706494712695	45.43999999999999	0.0
C 	43.0414625680866	44.72999999999999	0.0
C 	44.27121864146051	45.43999999999999	0.0
C 	45.500974714834406	44.72999999999999	0.0
C 	46.730730788208305	45.43999999999999	0.0
C 	47.960486861582204	44.72999999999999	0.0
C 	49.19024293495611	45.43999999999998	0.0
C 	50.41999900833002	44.72999999999999	0.0
C 	51.64975508170391	45.43999999999998	0.0
C 	52.87951115507782	44.72999999999999	0.0
C 	54.10926722845172	45.43999999999999	0.0
C 	55.33902330182562	44.72999999999998	0.0
C 	56.568779375199526	45.43999999999998	0.0
C 	57.798535448573425	44.72999999999998	0.0
C 	59.02829152194734	45.43999999999999	0.0
C 	60.25804759532124	44.72999999999999	0.0
C 	61.48780366869514	45.43999999999999	0.0
C 	62.717559742069035	44.72999999999998	0.0
C 	63.94731581544294	45.43999999999998	0.0
C 	65.17707188881685	44.72999999999999	0.0
C 	66.40682796219075	45.43999999999998	0.0
C 	67.63658403556465	44.72999999999999	0.0
C 	68.86634010893856	45.43999999999999	0.0
C 	70.09609618231245	44.72999999999999	0.0
C 	71.32585225568636	45.43999999999998	0.0
C 	72.55560832906026	44.72999999999998	0.0
C 	73.78536440243417	45.43999999999999	0.0
C 	75.01512047580806	44.72999999999998	0.0
C 	76.24487654918198	45.43999999999999	0.0
C 	77.47463262255587	44.72999999999999	0.0
C 	78.70438869592978	45.43999999999999	0.0
C 	79.93414476930369	44.72999999999999	0.0
C 	81.16390084267758	45.43999999999998	0.0
C 	82.39365691605148	44.72999999999999	0.0
C 	83.62341298942538	45.43999999999998	0.0
C 	84.8531690627993	44.72999999999998	0.0
C 	86.08292513617319	45.43999999999998	0.0
C 	27.054633614225864	46.85999999999999	0.0
C 	28.28438968759977	47.56999999999999	0.0
C 	29.514145760973673	46.85999999999999	0.0
C 	30.74390183434758	47.56999999999999	0.0
C 	31.973657907721474	46.85999999999999	0.0
C 	33.20341398109538	47.56999999999999	0.0
C 	34.43317005446928	46.85999999999999	0.0
C 	35.662926127843185	47.56999999999999	0.0
C 	36.892682201217085	46.85999999999999	0.0
C 	38.122438274590984	47.56999999999999	0.0
C 	39.35219434796489	46.85999999999999	0.0
C 	40.581950421338796	47.56999999999999	0.0
C 	41.8117064947127	46.85999999999999	0.0
C 	43.0414625680866	47.56999999999999	0.0
C 	44.2712186414605	46.85999999999999	0.0
C 	45.500974714834406	47.56999999999999	0.0
C 	46.73073078820831	46.859999999999985	0.0
C 	47.960486861582204	47.569999999999986	0.0
C 	49.19024293495612	46.85999999999999	0.0
C 	50.41999900833002	47.56999999999999	0.0
C 	51.649755081703915	46.859999999999985	0.0
C 	52.87951115507782	47.569999999999986	0.0
C 	54.10926722845172	46.859999999999985	0.0
C 	55.339023301825634	47.56999999999999	0.0
C 	56.56877937519953	46.85999999999999	0.0
C 	57.79853544857344	47.56999999999999	0.0
C 	59.02829152194733	46.859999999999985	0.0
C 	60.25804759532124	47.569999999999986	0.0
C 	61.48780366869515	46.85999999999999	0.0
C 	62.71755974206904	47.569999999999986	0.0
C 	63.94731581544295	46.85999999999999	0.0
C 	65.17707188881685	47.56999999999999	0.0
C 	66.40682796219075	46.859999999999985	0.0
C 	67.63658403556465	47.569999999999986	0.0
C 	68.86634010893856	46.859999999999985	0.0
C 	70.09609618231246	47.56999999999999	0.0
C 	71.32585225568636	46.859999999999985	0.0
C 	72.55560832906028	47.56999999999999	0.0
C 	73.78536440243417	46.859999999999985	0.0
C 	75.01512047580808	47.569999999999986	0.0
C 	76.24487654918197	46.859999999999985	0.0
C 	77.47463262255587	47.569999999999986	0.0
C 	78.70438869592978	46.85999999999999	0.0
C 	79.93414476930367	47.569999999999986	0.0
C 	81.16390084267758	46.85999999999999	0.0
C 	82.39365691605148	47.56999999999999	0.0
C 	83.62341298942539	46.859999999999985	0.0
C 	84.8531690627993	47.569999999999986	0.0
C 	86.08292513617319	46.85999999999998	0.0
C 	87.31268120954711	47.569999999999986	0.0
C 	28.284389687599763	48.98999999999999	0.0
C 	29.51414576097367	49.69999999999999	0.0
C 	30.74390183434757	48.98999999999999	0.0
C 	31.973657907721478	49.69999999999999	0.0
C 	33.20341398109537	48.98999999999999	0.0
C 	34.43317005446928	49.69999999999999	0.0
C 	35.66292612784318	48.98999999999999	0.0
C 	36.892682201217085	49.69999999999999	0.0
C 	38.122438274590984	48.98999999999999	0.0
C 	39.35219434796488	49.69999999999999	0.0
C 	40.58195042133879	48.98999999999999	0.0
C 	41.811706494712695	49.69999999999999	0.0
C 	43.041462568086594	48.98999999999999	0.0
C 	44.2712186414605	49.69999999999999	0.0
C 	45.5009747148344	48.98999999999999	0.0
C 	46.730730788208305	49.69999999999998	0.0
C 	47.96048686158221	48.98999999999999	0.0
C 	49.1902429349561	49.69999999999998	0.0
C 	50.41999900833002	48.98999999999999	0.0
C 	51.64975508170392	49.69999999999999	0.0
C 	52.879511155077815	48.98999999999999	0.0
C 	54.10926722845172	49.69999999999999	0.0
C 	55.33902330182562	48.98999999999998	0.0
C 	56.56877937519953	49.69999999999999	0.0
C 	57.79853544857343	48.98999999999999	0.0
C 	59.02829152194734	49.69999999999999	0.0
C 	60.25804759532124	48.98999999999999	0.0
C 	61.487803668695136	49.69999999999999	0.0
C 	62.71755974206905	48.98999999999999	0.0
C 	63.94731581544294	49.69999999999998	0.0
C 	65.17707188881685	48.98999999999999	0.0
C 	66.40682796219075	49.69999999999999	0.0
C 	67.63658403556465	48.98999999999999	0.0
C 	68.86634010893856	49.69999999999999	0.0
C 	70.09609618231245	48.98999999999998	0.0
C 	71.32585225568637	49.69999999999999	0.0
C 	72.55560832906025	48.98999999999998	0.0
C 	73.78536440243417	49.69999999999999	0.0
C 	75.01512047580806	48.98999999999999	0.0
C 	76.24487654918197	49.69999999999999	0.0
C 	77.47463262255587	48.98999999999998	0.0
C 	78.70438869592978	49.69999999999998	0.0
C 	79.93414476930369	48.98999999999999	0.0
C 	81.16390084267758	49.69999999999998	0.0
C 	82.39365691605148	48.98999999999999	0.0
C 	83.62341298942539	49.69999999999999	0.0
C 	84.85316906279928	48.98999999999998	0.0
C 	86.08292513617319	49.69999999999998	0.0
C 	87.3126812095471	48.98999999999998	0.0
C 	88.542437282921	49.69999999999999	0.0
C 	29.51414576097367	51.11999999999999	0.0
C 	30.74390183434757	51.82999999999999	0.0
C 	31.973657907721474	51.11999999999999	0.0
C 	33.20341398109538	51.82999999999999	0.0
C 	34.43317005446928	51.11999999999999	0.0
C 	35.66292612784318	51.82999999999999	0.0
C 	36.892682201217085	51.11999999999999	0.0
C 	38.12243827459099	51.82999999999999	0.0
C 	39.35219434796489	51.12	0.0
C 	40.581950421338796	51.83	0.0
C 	41.811706494712695	51.11999999999999	0.0
C 	43.041462568086594	51.82999999999999	0.0
C 	44.2712186414605	51.12	0.0
C 	45.5009747148344	51.82999999999999	0.0
C 	46.73073078820831	51.11999999999999	0.0
C 	47.96048686158221	51.82999999999999	0.0
C 	49.19024293495611	51.11999999999999	0.0
C 	50.41999900833002	51.82999999999999	0.0
C 	51.649755081703915	51.11999999999998	0.0
C 	52.879511155077815	51.829999999999984	0.0
C 	54.10926722845171	51.11999999999999	0.0
C 	55.33902330182563	51.83	0.0
C 	56.568779375199526	51.11999999999999	0.0
C 	57.79853544857343	51.82999999999999	0.0
C 	59.02829152194733	51.11999999999999	0.0
C 	60.25804759532124	51.82999999999999	0.0
C 	61.48780366869514	51.11999999999999	0.0
C 	62.717559742069035	51.829999999999984	0.0
C 	63.94731581544295	51.11999999999999	0.0
C 	65.17707188881685	51.82999999999999	0.0
C 	66.40682796219075	51.11999999999999	0.0
C 	67.63658403556465	51.82999999999999	0.0
C 	68.86634010893854	51.11999999999998	0.0
C 	70.09609618231246	51.82999999999999	0.0
C 	71.32585225568636	51.11999999999999	0.0
C 	72.55560832906026	51.82999999999999	0.0
C 	73.78536440243417	51.11999999999999	0.0
C 	75.01512047580806	51.82999999999999	0.0
C 	76.24487654918198	51.11999999999999	0.0
C 	77.47463262255587	51.829999999999984	0.0
C 	78.70438869592978	51.11999999999999	0.0
C 	79.93414476930367	51.829999999999984	0.0
C 	81.16390084267758	51.11999999999999	0.0
C 	82.39365691605148	51.82999999999999	0.0
C 	83.62341298942538	51.11999999999998	0.0
C 	84.8531690627993	51.82999999999999	0.0
C 	86.08292513617319	51.11999999999998	0.0
C 	87.3126812095471	51.82999999999999	0.0
C 	88.542437282921	51.11999999999998	0.0
C 	89.7721933562949	51.829999999999984	0.0
C 	51.95205016646632	-0.9716395941732014	2.15
C 	53.370104105817816	-0.8973225363082233	2.15
C 	54.01477061544798	0.36790672803926033	2.15
C 	49.76060879739349	0.14495555444431887	2.15
C 	51.17866273674499	0.21927261230930054	2.15
C 	51.82332924637515	1.4845018766567841	2.15
C 	53.24138318572664	1.5588189345217658	2.15
C 	53.886049695356796	2.8240481988692494	2.15
C 	55.30410363470829	2.898365256734221	2.15
C 	55.94877014433845	4.163594521081705	2.15
C 	45.506446979339	-0.07799561915062256	2.15
C 	46.9245009186905	-0.003678561285637727	2.15
C 	47.569167428320654	1.2615507030618427	2.15
C 	48.987221367672156	1.3358677609268177	2.15
C 	49.63188787730231	2.601097025274298	2.15
C 	51.04994181665381	2.6754140831392794	2.15
C 	51.69460832628397	3.94064334748676	2.15
C 	53.112662265635464	4.014960405351748	2.15
C 	53.75732877526562	5.2801896696992285	2.15
C 	55.17538271461711	5.354506727564207	2.15
C 	55.82004922424726	6.619735991911687	2.15
C 	57.23810316359876	6.694053049776669	2.15
C 	57.882769673228914	7.95928231412415	2.15
C 	59.300823612580416	8.033599371989132	2.15
C 	59.94549012221057	9.298828636336614	2.15
C 	41.252285161284526	-0.3009467927455612	2.15
C 	42.67033910063601	-0.22662973488058233	2.15
C 	43.31500561026617	1.0385995294669013	2.15
C 	44.73305954961767	1.1129165873318794	2.15
C 	45.37772605924783	2.378145851679363	2.15
C 	46.795779998599315	2.452462909544345	2.15
C 	47.44044650822948	3.7176921738918285	2.15
C 	48.858500447580965	3.7920092317568037	2.15
C 	49.50316695721113	5.057238496104287	2.15
C 	50.92122089656263	5.131555553969266	2.15
C 	51.565887406192786	6.396784818316749	2.15
C 	52.983941345544274	6.471101876181731	2.15
C 	53.62860785517443	7.736331140529214	2.15
C 	55.04666179452593	7.81064819839419	2.15
C 	55.69132830415609	9.075877462741673	2.15
C 	57.109382243507575	9.150194520606656	2.15
C 	57.75404875313773	10.415423784954138	2.15
C 	59.172102692489226	10.489740842819117	2.15
C 	59.81676920211939	11.754970107166601	2.15
C 	61.234823141470876	11.829287165031579	2.15
C 	61.87948965110103	13.094516429379063	2.15
C 	36.99812334323004	-0.5238979663404946	2.15
C 	38.416177282581536	-0.449580908475521	2.15
C 	39.06084379221169	0.8156483558719626	2.15
C 	40.47889773156319	0.8899654137369443	2.15
C 	41.12356424119334	2.155194678084428	2.15
C 	42.54161818054484	2.2295117359493997	2.15
C 	43.18628469017499	3.4947410002968833	2.15
C 	44.60433862952648	3.5690580581618687	2.15
C 	45.249005139156644	4.834287322509352	2.15
C 	46.667059078508146	4.908604380374331	2.15
C 	47.3117255881383	6.173833644721814	2.15
C 	48.72977952748979	6.2481507025867895	2.15
C 	49.374446037119945	7.513379966934273	2.15
C 	50.79249997647144	7.587697024799255	2.15
C 	51.437166486101596	8.852926289146739	2.15
C 	52.8552204254531	8.927243347011716	2.15
C 	53.49988693508325	10.1924726113592	2.15
C 	54.91794087443474	10.266789669224176	2.15
C 	55.5626073840649	11.532018933571658	2.15
C 	56.98066132341639	11.606335991436644	2.15
C 	57.625327833046555	12.871565255784128	2.15
C 	59.04338177239805	12.945882313649106	2.15
C 	59.688048282028205	14.21111157799659	2.15
C 	61.10610222137969	14.285428635861564	2.15
C 	61.75076873100985	15.550657900209048	2.15
C 	63.16882267036135	15.62497495807403	2.15
C 	63.81348917999151	16.890204222421513	2.15
C 	32.74396152517556	-0.7468491399354427	2.15
C 	34.16201546452705	-0.6725320820704592	2.15
C 	34.80668197415721	0.5926971822770212	2.15
C 	36.2247359135087	0.6670142401420025	2.15
C 	36.86940242313886	1.932243504489483	2.15
C 	38.28745636249035	2.0065605623544633	2.15
C 	38.93212287212051	3.271789826701944	2.15
C 	40.350176811472004	3.3461068845669266	2.15
C 	40.99484332110216	4.611336148914408	2.15
C 	42.412897260453654	4.685653206779386	2.15
C 	43.05756377008381	5.950882471126866	2.15
C 	44.47561770943531	6.025199528991847	2.15
C 	45.12028421906547	7.290428793339328	2.15
C 	46.538338158416956	7.364745851204316	2.15
C 	47.18300466804711	8.629975115551797	2.15
C 	48.60105860739861	8.704292173416771	2.15
C 	49.24572511702877	9.969521437764252	2.15
C 	50.663779056380264	10.043838495629233	2.15
C 	51.30844556601042	11.309067759976713	2.15
C 	52.72649950536191	11.3833848178417	2.15
C 	53.37116601499206	12.648614082189182	2.15
C 	54.789219954343565	12.722931140054154	2.15
C 	55.43388646397372	13.988160404401638	2.15
C 	56.851940403325216	14.062477462266626	2.15
C 	57.496606912955365	15.327706726614103	2.15
C 	58.91466085230687	15.402023784479084	2.15
C 	59.55932736193703	16.66725304882657	2.15
C 	60.97738130128851	16.741570106691544	2.15
C 	61.62204781091867	18.006799371039026	2.15
C 	63.04010175027017	18.08111642890401	2.15
C 	63.68476825990032	19.34634569325149	2.15
C 	65.10282219925182	19.420662751116474	2.15
C 	65.74748870888197	20.68589201546396	2.15
C 	28.489799707121072	-0.9698003135303825	2.15
C 	29.90785364647257	-0.8954832556654011	2.15
C 	30.552520156102727	0.36974600868208096	2.15
C 	31.970574095454218	0.444063066547061	2.15
C 	32.615240605084374	1.7092923308945416	2.15
C 	34.033294544435876	1.7836093887595215	2.15
C 	34.67796105406603	3.048838653107005	2.15
C 	36.09601499341752	3.1231557109719885	2.15
C 	36.74068150304768	4.388384975319472	2.15
C 	38.15873544239917	4.462702033184444	2.15
C 	38.803401952029326	5.727931297531928	2.15
C 	40.22145589138082	5.802248355396911	2.15
C 	40.866122401010976	7.067477619744395	2.15
C 	42.28417634036247	7.141794677609368	2.15
C 	42.928842849992634	8.40702394195685	2.15
C 	44.34689678934412	8.481340999821834	2.15
C 	44.99156329897428	9.746570264169318	2.15
C 	46.40961723832578	9.820887322034295	2.15
C 	47.054283747955935	11.08611658638178	2.15
C 	48.47233768730742	11.160433644246758	2.15
C 	49.11700419693758	12.42566290859424	2.15
C 	50.53505813628908	12.49997996645922	2.15
C 	51.17972464591924	13.765209230806702	2.15
C 	52.59777858527073	13.839526288671681	2.15
C 	53.242445094900894	15.104755553019166	2.15
C 	54.660499034252375	15.179072610884143	2.15
C 	55.30516554388253	16.444301875231627	2.15
C 	56.72321948323403	16.518618933096608	2.15
C 	57.36788599286419	17.783848197444094	2.15
C 	58.78593993221568	17.85816525530907	2.15
C 	59.43060644184584	19.123394519656554	2.15
C 	60.848660381197334	19.197711577521535	2.15
C 	61.49332689082749	20.462940841869017	2.15
C 	62.911380830178985	20.537257899733994	2.15
C 	63.55604733980914	21.80248716408148	2.15
C 	64.97410127916064	21.87680422194646	2.15
C 	65.61876778879079	23.142033486293943	2.15
C 	67.03682172814229	23.216350544158917	2.15
C 	67.68148823777244	24.481579808506403	2.15
C 	26.29835833804824	0.14679483508713953	2.15
C 	27.716412277399737	0.22111189295211783	2.15
C 	28.361078787029896	1.4863411572996	2.15
C 	29.779132726381388	1.5606582151645831	2.15
C 	30.423799236011543	2.8258874795120636	2.15
C 	31.84185317536304	2.9002045373770433	2.15
C 	32.4865196849932	4.165433801724527	2.15
C 	33.904573624344685	4.239750859589505	2.15
C 	34.54924013397484	5.504980123936986	2.15
C 	35.96729407332634	5.579297181801969	2.15
C 	36.6119605829565	6.84452644614945	2.15
C 	38.03001452230799	6.91884350401443	2.15
C 	38.67468103193814	8.18407276836191	2.15
C 	40.092734971289644	8.25838982622689	2.15
C 	40.7374014809198	9.523619090574371	2.15
C 	42.15545542027129	9.597936148439352	2.15
C 	42.800121929901444	10.863165412786833	2.15
C 	44.218175869252946	10.937482470651815	2.15
C 	44.8628423788831	12.202711734999296	2.15
C 	46.280896318234596	12.27702879286428	2.15
C 	46.925562827864745	13.542258057211761	2.15
C 	48.34361676721625	13.61657511507674	2.15
C 	48.9882832768464	14.881804379424217	2.15
C 	50.4063372161979	14.956121437289198	2.15
C 	51.05100372582805	16.22135070163668	2.15
C 	52.469057665179555	16.29566775950167	2.15
C 	53.113724174809704	17.560897023849147	2.15
C 	54.531778114161206	17.635214081714125	2.15
C 	55.176444623791355	18.900443346061603	2.15
C 	56.59449856314284	18.974760403926588	2.15
C 	57.239165072773005	20.23998966827407	2.15
C 	58.65721901212451	20.314306726139055	2.15
C 	59.30188552175466	21.579535990486534	2.15
C 	60.71993946110615	21.653853048351515	2.15
C 	61.36460597073631	22.919082312698993	2.15
C 	62.78265991008781	22.993399370563974	2.15
C 	63.427326419717964	24.258628634911457	2.15
C 	64.84538035906945	24.332945692776445	2.15
C 	65.49004686869961	25.598174957123923	2.15
C 	66.9081008080511	25.6724920149889	2.15
C 	67.55276731768126	26.93772127933638	2.15
C 	68.97082125703277	27.01203833720136	2.15
C 	69.61548776666292	28.277267601548836	2.15
C 	71.03354170601442	28.35158465941383	2.15
C 	71.67820821564456	29.61681392376131	2.15
C 	22.044196519993758	-0.07615633850780211	2.15
C 	23.46225045934525	-0.0018392806428188635	2.15
C 	24.10691696897541	1.2633899837046632	2.15
C 	25.524970908326907	1.3377070415696397	2.15
C 	26.169637417957063	2.6029363059171216	2.15
C 	27.587691357308554	2.6772533637821034	2.15
C 	28.23235786693871	3.9424826281295857	2.15
C 	29.650411806290208	4.016799685994566	2.15
C 	30.295078315920364	5.282028950342049	2.15
C 	31.71313225527186	5.356346008207031	2.15
C 	32.357798764902014	6.621575272554511	2.15
C 	33.77585270425351	6.695892330419488	2.15
C 	34.420519213883665	7.961121594766972	2.15
C 	35.83857315323515	8.035438652631953	2.15
C 	36.483239662865316	9.300667916979437	2.15
C 	37.90129360221681	9.374984974844411	2.15
C 	38.545960111846966	10.640214239191893	2.15
C 	39.96401405119846	10.714531297056878	2.15
C 	40.60868056082862	11.979760561404362	2.15
C 	42.026734500180105	12.054077619269332	2.15
C 	42.67140100981027	13.319306883616816	2.15
C 	44.089454949161755	13.3936239414818	2.15
C 	44.73412145879191	14.658853205829283	2.15
C 	46.15217539814341	14.733170263694264	2.15
C 	46.79684190777357	15.998399528041746	2.15
C 	48.21489584712506	16.072716585906722	2.15
C 	48.85956235675522	17.337945850254204	2.15
C 	50.277616296106714	17.412262908119185	2.15
C 	50.92228280573687	18.677492172466668	2.15
C 	52.34033674508837	18.75180923033165	2.15
C 	52.98500325471853	20.017038494679134	2.15
C 	54.403057194070016	20.09135555254411	2.15
C 	55.04772370370018	21.35658481689159	2.15
C 	56.465777643051666	21.430901874756575	2.15
C 	57.11044415268182	22.696131139104057	2.15
C 	58.52849809203332	22.77044819696904	2.15
C 	59.17316460166347	24.035677461316524	2.15
C 	60.59121854101497	24.109994519181498	2.15
C 	61.23588505064512	25.37522378352898	2.15
C 	62.65393898999662	25.449540841393958	2.15
C 	63.298605499626774	26.714770105741444	2.15
C 	64.71665943897827	26.78908716360643	2.15
C 	65.36132594860842	28.05431642795391	2.15
C 	66.77937988795992	28.128633485818884	2.15
C 	67.42404639759008	29.393862750166367	2.15
C 	68.84210033694157	29.46817980803134	2.15
C 	69.48676684657173	30.733409072378823	2.15
C 	70.90482078592322	30.807726130243815	2.15
C 	71.54948729555339	32.0729553945913	2.15
C 	72.96754123490487	32.14727245245627	2.15
C 	73.61220774453503	33.41250171680375	2.15
C 	17.790034701939273	-0.29910751210274056	2.15
C 	19.208088641290768	-0.2247904542377605	2.15
C 	19.852755150920924	1.0404388101097215	2.15
C 	21.27080909027242	1.1147558679746998	2.15
C 	21.915475599902575	2.3799851323221817	2.15
C 	23.333529539254073	2.4543021901871653	2.15
C 	23.97819604888423	3.719531454534647	2.15
C 	25.39624998823572	3.7938485123996273	2.15
C 	26.040916497865876	5.059077776747108	2.15
C 	27.45897043721737	5.133394834612088	2.15
C 	28.103636946847526	6.398624098959571	2.15
C 	29.521690886199025	6.472941156824553	2.15
C 	30.16635739582918	7.738170421172036	2.15
C 	31.584411335180675	7.812487479037015	2.15
C 	32.22907784481083	9.077716743384496	2.15
C 	33.647131784162326	9.152033801249475	2.15
C 	34.29179829379248	10.41726306559696	2.15
C 	35.70985223314398	10.49158012346194	2.15
C 	36.35451874277413	11.756809387809424	2.15
C 	37.77257268212563	11.831126445674398	2.15
C 	38.41723919175578	13.096355710021882	2.15
C 	39.83529313110728	13.170672767886863	2.15
C 	40.479959640737434	14.435902032234347	2.15
C 	41.89801358008893	14.510219090099323	2.15
C 	42.542680089719084	15.775448354446805	2.15
C 	43.96073402907058	15.849765412311786	2.15
C 	44.605400538700735	17.11499467665927	2.15
C 	46.02345447805223	17.18931173452425	2.15
C 	46.668120987682386	18.454540998871735	2.15
C 	48.08617492703388	18.52885805673671	2.15
C 	48.730841436664036	19.79408732108419	2.15
C 	50.14889537601554	19.86840437894917	2.15
C 	50.793561885645694	21.133633643296655	2.15
C 	52.21161582499719	21.207950701161636	2.15
C 	52.856282334627345	22.473179965509118	2.15
C 	54.27433627397884	22.547497023374095	2.15
C 	54.919002783608995	23.812726287721578	2.15
C 	56.33705672296049	23.88704334558656	2.15
C 	56.981723232590646	25.152272609934045	2.15
C 	58.39977717194214	25.226589667799022	2.15
C 	59.0444436815723	26.491818932146504	2.15
C 	60.462497620923784	26.56613599001148	2.15
C 	61.10716413055394	27.831365254358968	2.15
C 	62.52521806990544	27.905682312223945	2.15
C 	63.169884579535605	29.170911576571427	2.15
C 	64.58793851888709	29.245228634436412	2.15
C 	65.23260502851724	30.510457898783894	2.15
C 	66.65065896786875	30.584774956648868	2.15
C 	67.2953254774989	31.850004220996354	2.15
C 	68.7133794168504	31.924321278861324	2.15
C 	69.35804592648056	33.18955054320881	2.15
C 	70.77609986583205	33.2638676010738	2.15
C 	71.42076637546221	34.52909686542128	2.15
C 	72.8388203148137	34.603413923286254	2.15
C 	73.48348682444386	35.86864318763373	2.15
C 	74.90154076379535	35.94296024549872	2.15
C 	75.5462072734255	37.20818950984619	2.15
C 	13.53587288388479	-0.5220586856976813	2.15
C 	14.953926823236285	-0.44774162783270055	2.15
C 	15.598593332866441	0.8174876365147815	2.15
C 	17.016647272217938	0.8918046943797607	2.15
C 	17.661313781848094	2.1570339587272427	2.15
C 	19.079367721199585	2.231351016592222	2.15
C 	19.72403423082974	3.4965802809397037	2.15
C 	21.142088170181236	3.570897338804684	2.15
C 	21.786754679811395	4.836126603152166	2.15
C 	23.20480861916289	4.910443661017148	2.15
C 	23.849475128793046	6.175672925364628	2.15
C 	25.26752906814454	6.24998998322961	2.15
C 	25.912195577774696	7.515219247577093	2.15
C 	27.330249517126187	7.5895363054420715	2.15
C 	27.974916026756343	8.854765569789553	2.15
C 	29.39296996610784	8.929082627654536	2.15
C 	30.037636475737997	10.194311892002016	2.15
C 	31.455690415089492	10.268628949866997	2.15
C 	32.10035692471965	11.533858214214481	2.15
C 	33.51841086407114	11.608175272079459	2.15
C 	34.1630773737013	12.87340453642694	2.15
C 	35.58113131305279	12.947721594291924	2.15
C 	36.22579782268295	14.212950858639404	2.15
C 	37.643851762034444	14.287267916504382	2.15
C 	38.2885182716646	15.552497180851862	2.15
C 	39.706572211016095	15.626814238716845	2.15
C 	40.35123872064625	16.892043503064325	2.15
C 	41.769292659997745	16.966360560929306	2.15
C 	42.4139591696279	18.231589825276785	2.15
C 	43.832013108979396	18.305906883141766	2.15
C 	44.47667961860955	19.57113614748925	2.15
C 	45.894733557961054	19.645453205354237	2.15
C 	46.5394000675912	20.910682469701715	2.15
C 	47.9574540069427	20.984999527566696	2.15
C 	48.60212051657285	22.25022879191417	2.15
C 	50.02017445592435	22.324545849779152	2.15
C 	50.66484096555451	23.589775114126635	2.15
C 	52.08289490490601	23.66409217199162	2.15
C 	52.72756141453616	24.929321436339098	2.15
C 	54.145615353887656	25.00363849420408	2.15
C 	54.79028186351781	26.268867758551558	2.15
C 	56.2083358028693	26.343184816416542	2.15
C 	56.853002312499456	27.608414080764025	2.15
C 	58.271056251850965	27.68273113862901	2.15
C 	58.91572276148111	28.947960402976488	2.15
C 	60.3337767008326	29.02227746084147	2.15
C 	60.97844321046276	30.287506725188948	2.15
C 	62.39649714981425	30.36182378305393	2.15
C 	63.04116365944441	31.62705304740141	2.15
C 	64.45921759879592	31.7013701052664	2.15
C 	65.10388410842606	32.966599369613874	2.15
C 	66.52193804777755	33.040916427478855	2.15
C 	67.16660455740771	34.30614569182633	2.15
C 	68.58465849675922	34.38046274969131	2.15
C 	69.22932500638937	35.645692014038794	2.15
C 	70.64737894574087	35.72000907190379	2.15
C 	71.29204545537102	36.98523833625127	2.15
C 	72.71009939472252	37.05955539411624	2.15
C 	73.35476590435267	38.32478465846373	2.15
C 	74.77281984370417	38.3991017163287	2.15
C 	75.41748635333433	39.66433098067619	2.15
C 	76.83554029268582	39.73864803854117	2.15
C 	77.48020680231598	41.003877302888654	2.15
C 	9.281711065830306	-0.7450098592926213	2.15
C 	10.699765005181801	-0.6706928014276421	2.15
C 	11.344431514811957	0.59453646291984	2.15
C 	12.762485454163453	0.6688535207848199	2.15
C 	13.40715196379361	1.934082785132302	2.15
C 	14.825205903145104	2.008399842997283	2.15
C 	15.469872412775262	3.2736291073447665	2.15
C 	16.887926352126755	3.347946165209744	2.15
C 	17.53259286175691	4.613175429557228	2.15
C 	18.950646801108405	4.6874924874222055	2.15
C 	19.59531331073856	5.952721751769689	2.15
C 	21.013367250090052	6.027038809634666	2.15
C 	21.65803375972021	7.29226807398215	2.15
C 	23.076087699071707	7.366585131847132	2.15
C 	23.720754208701862	8.631814396194615	2.15
C 	25.138808148053357	8.706131454059593	2.15
C 	25.783474657683517	9.971360718407075	2.15
C 	27.201528597035008	10.045677776272054	2.15
C 	27.846195106665167	11.310907040619538	2.15
C 	29.26424904601666	11.38522409848452	2.15
C 	29.908915555646814	12.650453362832003	2.15
C 	31.32696949499831	12.724770420696979	2.15
C 	31.97163600462847	13.989999685044463	2.15
C 	33.38968994397996	14.064316742909442	2.15
C 	34.034356453610116	15.329546007256926	2.15
C 	35.45241039296161	15.403863065121907	2.15
C 	36.09707690259177	16.66909232946939	2.15
C 	37.51513084194326	16.743409387334363	2.15
C 	38.15979735157342	18.00863865168185	2.15
C 	39.57785129092491	18.08295570954683	2.15
C 	40.22251780055507	19.348184973894313	2.15
C 	41.64057173990656	19.422502031759286	2.15
C 	42.28523824953672	20.68773129610677	2.15
C 	43.70329218888821	20.762048353971753	2.15
C 	44.34795869851837	22.027277618319236	2.15
C 	45.76601263786987	22.101594676184217	2.15
C 	46.410679147500026	23.366823940531702	2.15
C 	47.828733086851514	23.441140998396676	2.15
C 	48.47339959648168	24.70637026274416	2.15
C 	49.89145353583317	24.780687320609136	2.15
C 	50.53612004546333	26.04591658495662	2.15
C 	51.95417398481482	26.120233642821603	2.15
C 	52.59884049444498	27.38546290716909	2.15
C 	54.01689443379647	27.45977996503406	2.15
C 	54.661560943426636	28.72500922938154	2.15
C 	56.079614882778124	28.799326287246522	2.15
C 	56.72428139240828	30.064555551594008	2.15
C 	58.142335331759774	30.13887260945899	2.15
C 	58.78700184138994	31.40410187380647	2.15
C 	60.205055780741425	31.47841893167145	2.15
C 	60.84972229037158	32.74364819601893	2.15
C 	62.26777622972308	32.81796525388391	2.15
C 	62.91244273935324	34.083194518231394	2.15
C 	64.33049667870472	34.157511576096375	2.15
C 	64.97516318833489	35.422740840443865	2.15
C 	66.39321712768638	35.49705789830883	2.15
C 	67.03788363731654	36.76228716265632	2.15
C 	68.45593757666803	36.83660422052129	2.15
C 	69.10060408629819	38.10183348486877	2.15
C 	70.51865802564969	38.176150542733765	2.15
C 	71.16332453527984	39.44137980708125	2.15
C 	72.58137847463134	39.51569686494622	2.15
C 	73.22604498426149	40.780926129293704	2.15
C 	74.64409892361299	40.85524318715868	2.15
C 	75.28876543324314	42.12047245150616	2.15
C 	76.70681937259464	42.19478950937115	2.15
C 	77.3514858822248	43.46001877371864	2.15
C 	78.76953982157629	43.53433583158361	2.15
C 	79.41420633120644	44.799565095931094	2.15
C 	5.027549247775823	-0.9679610328875616	2.15
C 	6.445603187127317	-0.8936439750225816	2.15
C 	7.090269696757474	0.37158528932490037	2.15
C 	8.508323636108969	0.44590234718988037	2.15
C 	9.152990145739125	1.7111316115373625	2.15
C 	10.571044085090618	1.785448669402342	2.15
C 	11.215710594720775	3.050677933749824	2.15
C 	12.63376453407227	3.124994991614805	2.15
C 	13.278431043702426	4.390224255962287	2.15
C 	14.69648498305392	4.464541313827268	2.15
C 	15.341151492684077	5.72977057817475	2.15
C 	16.75920543203557	5.804087636039729	2.15
C 	17.403871941665727	7.069316900387212	2.15
C 	18.821925881017222	7.143633958252191	2.15
C 	19.466592390647378	8.408863222599672	2.15
C 	20.884646329998873	8.483180280464653	2.15
C 	21.52931283962903	9.748409544812134	2.15
C 	22.947366778980527	9.822726602677118	2.15
C 	23.592033288610683	11.087955867024599	2.15
C 	25.010087227962174	11.162272924889576	2.15
C 	25.654753737592333	12.42750218923706	2.15
C 	27.072807676943828	12.50181924710204	2.15
C 	27.717474186573984	13.76704851144952	2.15
C 	29.135528125925482	13.841365569314505	2.15
C 	29.780194635555638	15.106594833661985	2.15
C 	31.198248574907126	15.180911891526964	2.15
C 	31.842915084537285	16.446141155874447	2.15
C 	33.26096902388878	16.520458213739428	2.15
C 	33.90563553351893	17.785687478086906	2.15
C 	35.323689472870434	17.860004535951894	2.15
C 	35.96835598250059	19.125233800299377	2.15
C 	37.386409921852085	19.19955085816435	2.15
C 	38.03107643148224	20.464780122511836	2.15
C 	39.449130370833736	20.539097180376814	2.15
C 	40.09379688046389	21.804326444724293	2.15
C 	41.51185081981538	21.878643502589274	2.15
C 	42.156517329445535	23.143872766936752	2.15
C 	43.57457126879704	23.218189824801737	2.15
C 	44.21923777842719	24.483419089149223	2.15
C 	45.63729171777869	24.557736147014204	2.15
C 	46.28195822740884	25.82296541136168	2.15
C 	47.70001216676034	25.897282469226663	2.15
C 	48.34467867639049	27.16251173357414	2.15
C 	49.76273261574199	27.236828791439123	2.15
C 	50.407399125372145	28.50205805578661	2.15
C 	51.825453064723646	28.576375113651586	2.15
C 	52.4701195743538	29.841604377999065	2.15
C 	53.88817351370529	29.915921435864046	2.15
C 	54.532840023335446	31.181150700211525	2.15
C 	55.95089396268694	31.255467758076513	2.15
C 	56.595560472317096	32.520697022423995	2.15
C 	58.0136144116686	32.595014080288976	2.15
C 	58.65828092129875	33.86024334463645	2.15
C 	60.07633486065024	33.93456040250144	2.15
C 	60.72100137028039	35.199789666848915	2.15
C 	62.1390553096319	35.274106724713896	2.15
C 	62.783721819262055	36.539335989061385	2.15
C 	64.20177575861355	36.613653046926366	2.15
C 	64.84644226824369	37.87888231127384	2.15
C 	66.2644962075952	37.95319936913882	2.15
C 	66.90916271722534	39.2184286334863	2.15
C 	68.32721665657685	39.29274569135127	2.15
C 	68.97188316620701	40.557974955698754	2.15
C 	70.3899371055585	40.63229201356374	2.15
C 	71.03460361518866	41.89752127791123	2.15
C 	72.45265755454015	41.971838335776205	2.15
C 	73.09732406417031	43.23706760012369	2.15
C 	74.51537800352179	43.31138465798866	2.15
C 	75.16004451315196	44.57661392233614	2.15
C 	76.57809845250345	44.65093098020113	2.15
C 	77.22276496213361	45.916160244548614	2.15
C 	78.6408189014851	45.990477302413595	2.15
C 	2.836107878702989	0.1486341157299602	2.15
C 	4.2541618180544845	0.22295117359494018	2.15
C 	4.89882832768464	1.4881804379424222	2.15
C 	6.316882267036135	1.5624974958074025	2.15
C 	6.961548776666292	2.8277267601548846	2.15
C 	8.379602716017786	2.9020438180198647	2.15
C 	9.024269225647942	4.1672730823673465	2.15
C 	10.442323164999436	4.241590140232327	2.15
C 	11.086989674629592	5.506819404579807	2.15
C 	12.505043613981087	5.581136462444788	2.15
C 	13.149710123611245	6.846365726792272	2.15
C 	14.567764062962741	6.920682784657252	2.15
C 	15.212430572592895	8.185912049004733	2.15
C 	16.63048451194439	8.260229106869714	2.15
C 	17.275151021574544	9.525458371217194	2.15
C 	18.693204960926042	9.599775429082175	2.15
C 	19.3378714705562	10.865004693429656	2.15
C 	20.75592540990769	10.939321751294637	2.15
C 	21.400591919537845	12.204551015642117	2.15
C 	22.818645858889344	12.278868073507102	2.15
C 	23.4633123685195	13.544097337854582	2.15
C 	24.881366307870994	13.618414395719562	2.15
C 	25.52603281750115	14.883643660067042	2.15
C 	26.944086756852645	14.957960717932023	2.15
C 	27.5887532664828	16.223189982279504	2.15
C 	29.0068072058343	16.297507040144488	2.15
C 	29.651473715464455	17.562736304491967	2.15
C 	31.06952765481595	17.637053362356948	2.15
C 	31.714194164446106	18.90228262670443	2.15
C 	33.1322481037976	18.97659968456941	2.15
C 	33.77691461342775	20.241828948916893	2.15
C 	35.19496855277925	20.31614600678187	2.15
C 	35.83963506240941	21.581375271129357	2.15
C 	37.257689001760895	21.65569232899433	2.15
C 	37.90235551139106	22.920921593341813	2.15
C 	39.32040945074255	22.995238651206797	2.15
C 	39.96507596037271	24.26046791555428	2.15
C 	41.3831298997242	24.334784973419254	2.15
C 	42.02779640935436	25.600014237766736	2.15
C 	43.44585034870585	25.67433129563172	2.15
C 	44.09051685833601	26.939560559979203	2.15
C 	45.508570797687504	27.013877617844184	2.15
C 	46.15323730731766	28.279106882191666	2.15
C 	47.571291246669155	28.35342394005664	2.15
C 	48.21595775629931	29.618653204404126	2.15
C 	49.634011695650806	29.692970262269103	2.15
C 	50.27867820528097	30.95819952661659	2.15
C 	51.696732144632456	31.032516584481566	2.15
C 	52.34139865426261	32.29774584882905	2.15
C 	53.75945259361411	32.372062906694026	2.15
C 	54.40411910324427	33.63729217104151	2.15
C 	55.82217304259576	33.71160922890649	2.15
C 	56.46683955222591	34.97683849325398	2.15
C 	57.884893491577415	35.05115555111895	2.15
C 	58.52956000120757	36.316384815466435	2.15
C 	59.94761394055906	36.390701873331416	2.15
C 	60.59228045018922	37.6559311376789	2.15
C 	62.010334389540716	37.73024819554388	2.15
C 	62.65500089917087	38.99547745989136	2.15
C 	64.07305483852237	39.06979451775634	2.15
C 	64.71772134815252	40.33502378210383	2.15
C 	66.13577528750402	40.409340839968806	2.15
C 	66.78044179713417	41.67457010431629	2.15
C 	68.19849573648567	41.74888716218126	2.15
C 	68.84316224611582	43.01411642652875	2.15
C 	70.26121618546732	43.08843348439374	2.15
C 	70.90588269509749	44.35366274874122	2.15
C 	72.32393663444897	44.42797980660619	2.15
C 	72.96860314407913	45.69320907095368	2.15
C 	74.38665708343062	45.76752612881865	2.15
C 	2.062720448981651	1.3395463222124622	2.15
C 	2.7073869586118073	2.6047755865599442	2.15
C 	4.125440897963302	2.6790926444249243	2.15
C 	4.770107407593459	3.944321908772406	2.15
C 	6.188161346944954	4.018638966637386	2.15
C 	6.8328278565751095	5.283868230984869	2.15
C 	8.250881795926604	5.358185288849849	2.15
C 	8.89554830555676	6.623414553197331	2.15
C 	10.313602244908255	6.69773161106231	2.15
C 	10.95826875453841	7.9629608754097925	2.15
C 	12.376322693889907	8.037277933274773	2.15
C 	13.020989203520063	9.302507197622255	2.15
C 	14.439043142871558	9.376824255487236	2.15
C 	15.083709652501714	10.642053519834716	2.15
C 	16.50176359185321	10.716370577699697	2.15
C 	17.146430101483364	11.981599842047181	2.15
C 	18.56448404083486	12.055916899912159	2.15
C 	19.209150550465015	13.32114616425964	2.15
C 	20.62720448981651	13.39546322212462	2.15
C 	21.271870999446666	14.660692486472104	2.15
C 	22.68992493879816	14.735009544337085	2.15
C 	23.334591448428316	16.000238808684568	2.15
C 	24.752645387779815	16.074555866549545	2.15
C 	25.39731189740997	17.339785130897024	2.15
C 	26.815365836761462	17.414102188762005	2.15
C 	27.46003234639162	18.67933145310949	2.15
C 	28.878086285743116	18.75364851097447	2.15
C 	29.522752795373272	20.018877775321954	2.15
C 	30.940806734724767	20.09319483318693	2.15
C 	31.585473244354922	21.358424097534414	2.15
C 	33.00352718370642	21.432741155399395	2.15
C 	33.64819369333657	22.697970419746877	2.15
C 	35.06624763268807	22.772287477611858	2.15
C 	35.710914142318224	24.037516741959344	2.15
C 	37.12896808166972	24.111833799824318	2.15
C 	37.773634591299874	25.3770630641718	2.15
C 	39.19168853065137	25.45138012203678	2.15
C 	39.836355040281525	26.716609386384267	2.15
C 	41.25440897963302	26.79092644424924	2.15
C 	41.899075489263176	28.056155708596723	2.15
C 	43.31712942861467	28.130472766461704	2.15
C 	43.961795938244826	29.395702030809186	2.15
C 	45.37984987759632	29.47001908867417	2.15
C 	46.02451638722648	30.735248353021653	2.15
C 	47.44257032657797	30.809565410886627	2.15
C 	48.08723683620813	32.07479467523411	2.15
C 	49.50529077555963	32.14911173309909	2.15
C 	50.149957285189785	33.41434099744657	2.15
C 	51.56801122454128	33.488658055311554	2.15
C 	52.212677734171436	34.753887319659036	2.15
C 	53.630731673522924	34.82820437752401	2.15
C 	54.27539818315308	36.0934336418715	2.15
C 	55.693452122504574	36.16775069973648	2.15
C 	56.33811863213473	37.43297996408396	2.15
C 	57.75617257148623	37.50729702194894	2.15
C 	58.40083908111639	38.772526286296426	2.15
C 	59.818893020467875	38.8468433441614	2.15
C 	60.46355953009803	40.11207260850889	2.15
C 	61.88161346944953	40.18638966637386	2.15
C 	62.52627997907969	41.45161893072134	2.15
C 	63.94433391843118	41.52593598858633	2.15
C 	64.58900042806134	42.791165252933816	2.15
C 	66.00705436741283	42.86548231079879	2.15
C 	66.65172087704299	44.13071157514627	2.15
C 	68.06977481639449	44.205028633011246	2.15
C 	68.71444132602464	45.47025789735873	2.15
C 	70.13249526537614	45.544574955223716	2.15
C 	70.77716177500629	46.809804219571205	2.15
C 	72.19521571435779	46.88412127743617	2.15
C 	1.9339995288904692	3.795687793042446	2.15
C 	2.578666038520626	5.060917057389928	2.15
C 	3.9967199778721203	5.135234115254908	2.15
C 	4.641386487502277	6.400463379602391	2.15
C 	6.059440426853772	6.47478043746737	2.15
C 	6.704106936483928	7.740009701814852	2.15
C 	8.122160875835423	7.814326759679831	2.15
C 	8.766827385465579	9.079556024027315	2.15
C 	10.184881324817074	9.153873081892293	2.15
C 	10.82954783444723	10.419102346239777	2.15
C 	12.247601773798726	10.493419404104758	2.15
C 	12.892268283428882	11.758648668452238	2.15
C 	14.310322222780377	11.83296572631722	2.15
C 	14.954988732410532	13.098194990664702	2.15
C 	16.373042671762025	13.172512048529681	2.15
C 	17.017709181392185	14.437741312877163	2.15
C 	18.435763120743676	14.512058370742142	2.15
C 	19.080429630373835	15.777287635089625	2.15
C 	20.498483569725327	15.851604692954602	2.15
C 	21.143150079355483	17.116833957302088	2.15
C 	22.56120401870698	17.19115101516707	2.15
C 	23.205870528337137	18.45638027951455	2.15
C 	24.62392446768863	18.53069733737953	2.15
C 	25.268590977318787	19.79592660172701	2.15
C 	26.686644916670282	19.87024365959199	2.15
C 	27.331311426300438	21.135472923939474	2.15
C 	28.749365365651933	21.209789981804455	2.15
C 	29.39403187528209	22.475019246151934	2.15
C 	30.812085814633583	22.549336304016915	2.15
C 	31.456752324263743	23.8145655683644	2.15
C 	32.874806263615234	23.88888262622938	2.15
C 	33.51947277324539	25.154111890576857	2.15
C 	34.93752671259689	25.228428948441845	2.15
C 	35.58219322222704	26.493658212789324	2.15
C 	37.000247161578535	26.567975270654305	2.15
C 	37.64491367120869	27.83320453500178	2.15
C 	39.062967610560186	27.907521592866768	2.15
C 	39.70763412019034	29.172750857214243	2.15
C 	41.12568805954184	29.247067915079228	2.15
C 	41.77035456917199	30.512297179426703	2.15
C 	43.18840850852349	30.58661423729169	2.15
C 	43.83307501815364	31.85184350163917	2.15
C 	45.251128957505145	31.926160559504154	2.15
C 	45.8957954671353	33.19138982385163	2.15
C 	47.31384940648679	33.26570688171661	2.15
C 	47.958515916116944	34.53093614606409	2.15
C 	49.376569855468446	34.605253203929074	2.15
C 	50.0212363650986	35.870482468276556	2.15
C 	51.4392903044501	35.944799526141544	2.15
C 	52.08395681408025	37.21002879048902	2.15
C 	53.50201075343175	37.284345848354	2.15
C 	54.1466772630619	38.549575112701476	2.15
C 	55.5647312024134	38.623892170566464	2.15
C 	56.209397712043554	39.889121434913946	2.15
C 	57.62745165139505	39.963438492778934	2.15
C 	58.2721181610252	41.22866775712641	2.15
C 	59.69017210037669	41.30298481499139	2.15
C 	60.33483861000685	42.568214079338865	2.15
C 	61.75289254935835	42.642531137203854	2.15
C 	62.397559058988506	43.907760401551336	2.15
C 	63.815612998339994	43.98207745941631	2.15
C 	64.46027950797016	45.2473067237638	2.15
C 	65.87833344732165	45.32162378162877	2.15
C 	66.52299995695181	46.586853045976255	2.15
C 	67.9410538963033	46.66117010384123	2.15
C 	5.930719506762589	8.930921908297353	2.15
C 	6.575386016392747	10.196151172644838	2.15
C 	7.993439955744241	10.270468230509817	2.15
C 	8.638106465374397	11.535697494857299	2.15
C 	10.05616040472589	11.610014552722278	2.15
C 	10.700826914356048	12.87524381706976	2.15
C 	12.118880853707545	12.94956087493474	2.15
C 	12.7635473633377	14.214790139282224	2.15
C 	14.181601302689195	14.289107197147205	2.15
C 	14.826267812319351	15.554336461494685	2.15
C 	16.244321751670846	15.628653519359663	2.15
C 	16.888988261301	16.89388278370715	2.15
C 	18.307042200652496	16.96819984157213	2.15
C 	18.951708710282652	18.23342910591961	2.15
C 	20.369762649634147	18.307746163784586	2.15
C 	21.014429159264303	19.572975428132068	2.15
C 	22.432483098615798	19.64729248599705	2.15
C 	23.077149608245954	20.912521750344535	2.15
C 	24.495203547597452	20.986838808209516	2.15
C 	25.139870057227608	22.252068072556995	2.15
C 	26.5579239965791	22.326385130421972	2.15
C 	27.202590506209255	23.591614394769458	2.15
C 	28.620644445560753	23.66593145263444	2.15
C 	29.26531095519091	24.93116071698192	2.15
C 	30.683364894542404	25.005477774846902	2.15
C 	31.328031404172556	26.270707039194377	2.15
C 	32.74608534352405	26.345024097059362	2.15
C 	33.39075185315421	27.610253361406844	2.15
C 	34.80880579250571	27.684570419271825	2.15
C 	35.453472302135864	28.949799683619307	2.15
C 	36.87152624148735	29.024116741484285	2.15
C 	37.516192751117515	30.289346005831767	2.15
C 	38.934246690469	30.363663063696748	2.15
C 	39.57891320009916	31.62889232804423	2.15
C 	40.99696713945065	31.703209385909204	2.15
C 	41.64163364908081	32.96843865025669	2.15
C 	43.059687588432304	33.04275570812167	2.15
C 	43.70435409806247	34.30798497246916	2.15
C 	45.12240803741396	34.38230203033414	2.15
C 	45.76707454704412	35.64753129468162	2.15
C 	47.185128486395605	35.721848352546594	2.15
C 	47.82979499602577	36.98707761689408	2.15
C 	49.24784893537726	37.06139467475906	2.15
C 	49.89251544500742	38.32662393910654	2.15
C 	51.310569384358914	38.40094099697152	2.15
C 	51.95523589398907	39.666170261319	2.15
C 	53.373289833340564	39.74048731918398	2.15
C 	54.01795634297072	41.005716583531466	2.15
C 	55.436010282322215	41.08003364139645	2.15
C 	56.08067679195237	42.34526290574393	2.15
C 	57.498730731303866	42.41957996360891	2.15
C 	58.14339724093402	43.684809227956386	2.15
C 	59.561451180285516	43.759126285821374	2.15
C 	60.206117689915665	45.02435555016885	2.15
C 	61.62417162926717	45.09867260803383	2.15
C 	62.26883813889732	46.36390187238132	2.15
C 	63.68689207824882	46.43821893024631	2.15
C 	7.864719035653059	12.726609701339802	2.15
C 	8.509385545283214	13.991838965687283	2.15
C 	9.927439484634709	14.066156023552264	2.15
C 	10.572105994264865	15.331385287899744	2.15
C 	11.990159933616361	15.405702345764723	2.15
C 	12.634826443246517	16.67093161011221	2.15
C 	14.052880382598014	16.74524866797719	2.15
C 	14.69754689222817	18.01047793232467	2.15
C 	16.115600831579663	18.08479499018965	2.15
C 	16.76026734120982	19.350024254537132	2.15
C 	18.178321280561313	19.42434131240211	2.15
C 	18.82298779019147	20.689570576749592	2.15
C 	20.241041729542964	20.763887634614573	2.15
C 	20.88570823917312	22.029116898962055	2.15
C 	22.303762178524615	22.103433956827036	2.15
C 	22.94842868815477	23.36866322117452	2.15
C 	24.36648262750627	23.442980279039496	2.15
C 	25.011149137136425	24.708209543386978	2.15
C 	26.42920307648792	24.78252660125196	2.15
C 	27.07386958611808	26.04775586559944	2.15
C 	28.49192352546957	26.122072923464422	2.15
C 	29.13659003509973	27.38730218781191	2.15
C 	30.55464397445122	27.461619245676882	2.15
C 	31.199310484081376	28.726848510024364	2.15
C 	32.617364423432875	28.801165567889345	2.15
C 	33.26203093306303	30.06639483223683	2.15
C 	34.680084872414525	30.140711890101812	2.15
C 	35.32475138204468	31.405941154449295	2.15
C 	36.742805321396176	31.48025821231427	2.15
C 	37.38747183102633	32.74548747666175	2.15
C 	38.80552577037783	32.81980453452673	2.15
C 	39.45019228000798	34.08503379887422	2.15
C 	40.86824621935947	34.159350856739195	2.15
C 	41.51291272898963	35.42458012108668	2.15
C 	42.93096666834113	35.49889717895166	2.15
C 	43.575633177971284	36.76412644329914	2.15
C 	44.99368711732278	36.83844350116412	2.15
C 	45.638353626952934	38.103672765511604	2.15
C 	47.05640756630443	38.17798982337658	2.15
C 	47.701074075934585	39.44321908772407	2.15
C 	49.11912801528608	39.51753614558904	2.15
C 	49.763794524916236	40.78276540993652	2.15
C 	51.18184846426773	40.857082467801504	2.15
C 	51.82651497389789	42.122311732148994	2.15
C 	53.24456891324938	42.19662879001397	2.15
C 	53.88923542287954	43.46185805436145	2.15
C 	55.30728936223103	43.53617511222643	2.15
C 	55.95195587186119	44.801404376573906	2.15
C 	57.37000981121269	44.875721434438894	2.15
C 	58.014676320842845	46.14095069878638	2.15
C 	59.43273026019433	46.21526775665136	2.15
C 	9.798718564543528	16.522297494382247	2.15
C 	10.443385074173683	17.787526758729726	2.15
C 	11.861439013525178	17.861843816594707	2.15
C 	12.506105523155336	19.12707308094219	2.15
C 	13.92415946250683	19.20139013880717	2.15
C 	14.568825972136988	20.466619403154656	2.15
C 	15.986879911488481	20.540936461019633	2.15
C 	16.63154642111864	21.806165725367112	2.15
C 	18.049600360470134	21.880482783232093	2.15
C 	18.69426687010029	23.14571204757958	2.15
C 	20.11232080945178	23.220029105444556	2.15
C 	20.756987319081937	24.485258369792035	2.15
C 	22.175041258433435	24.55957542765702	2.15
C 	22.819707768063587	25.824804692004502	2.15
C 	24.23776170741509	25.89912174986948	2.15
C 	24.882428217045245	27.164351014216965	2.15
C 	26.300482156396736	27.23866807208194	2.15
C 	26.945148666026892	28.50389733642942	2.15
C 	28.36320260537839	28.57821439429441	2.15
C 	29.007869115008546	29.84344365864189	2.15
C 	30.42592305436004	29.91776071650687	2.15
C 	31.070589563990197	31.18298998085435	2.15
C 	32.48864350334169	31.257307038719325	2.15
C 	33.13331001297185	32.52253630306681	2.15
C 	34.55136395232334	32.596853360931796	2.15
C 	35.1960304619535	33.86208262527927	2.15
C 	36.61408440130499	33.93639968314426	2.15
C 	37.25875091093515	35.201628947491734	2.15
C 	38.67680485028664	35.275946005356715	2.15
C 	39.3214713599168	36.5411752697042	2.15
C 	40.739525299268294	36.61549232756917	2.15
C 	41.38419180889845	37.880721591916654	2.15
C 	42.802245748249945	37.95503864978164	2.15
C 	43.4469122578801	39.220267914129124	2.15
C 	44.864966197231595	39.2945849719941	2.15
C 	45.50963270686175	40.55981423634159	2.15
C 	46.927686646213246	40.63413129420656	2.15
C 	47.5723531558434	41.899360558554044	2.15
C 	48.990407095194904	41.97367761641903	2.15
C 	49.63507360482506	43.23890688076651	2.15
C 	51.05312754417655	43.31322393863149	2.15
C 	51.6977940538067	44.57845320297897	2.15
C 	53.1158479931582	44.652770260843944	2.15
C 	53.760514502788354	45.917999525191426	2.15
C 	55.17856844213985	45.992316583056414	2.15
C 	11.732718093433999	20.317985287424694	2.15
C 	12.377384603064154	21.583214551772173	2.15
C 	13.79543854241565	21.657531609637154	2.15
C 	14.440105052045805	22.922760873984636	2.15
C 	15.8581589913973	22.997077931849617	2.15
C 	16.502825501027456	24.2623071961971	2.15
C 	17.92087944037895	24.336624254062077	2.15
C 	18.565545950009106	25.60185351840956	2.15
C 	19.9835998893606	25.67617057627454	2.15
C 	20.628266398990757	26.941399840622022	2.15
C 	22.04632033834225	27.015716898487003	2.15
C 	22.69098684797241	28.280946162834486	2.15
C 	24.109040787323902	28.35526322069946	2.15
C 	24.75370729695406	29.620492485046945	2.15
C 	26.171761236305557	29.694809542911926	2.15
C 	26.816427745935712	30.96003880725941	2.15
C 	28.234481685287207	31.03435586512439	2.15
C 	28.879148194917363	32.29958512947187	2.15
C 	30.297202134268858	32.373902187336846	2.15
C 	30.941868643899014	33.639131451684335	2.15
C 	32.35992258325051	33.713448509549316	2.15
C 	33.004589092880664	34.9786777738968	2.15
C 	34.42264303223216	35.05299483176178	2.15
C 	35.067309541862315	36.31822409610926	2.15
C 	36.48536348121381	36.392541153974236	2.15
C 	37.130029990843965	37.65777041832172	2.15
C 	38.54808393019546	37.7320874761867	2.15
C 	39.192750439825616	38.99731674053418	2.15
C 	40.61080437917711	39.071633798399155	2.15
C 	41.25547088880727	40.336863062746644	2.15
C 	42.67352482815876	40.411180120611625	2.15
C 	43.31819133778892	41.67640938495911	2.15
C 	44.73624527714041	41.75072644282409	2.15
C 	45.38091178677057	43.01595570717157	2.15
C 	46.79896572612206	43.090272765036545	2.15
C 	47.44363223575222	44.35550202938403	2.15
C 	48.86168617510372	44.42981908724901	2.15
C 	49.506352684733876	45.69504835159649	2.15
C 	50.92440662408537	45.76936540946147	2.15
C 	13.666717622324466	24.113673080467137	2.15
C 	14.311384131954624	25.378902344814623	2.15
C 	15.729438071306118	25.453219402679604	2.15
C 	16.374104580936272	26.718448667027083	2.15
C 	17.792158520287767	26.79276572489206	2.15
C 	18.436825029917923	28.057994989239546	2.15
C 	19.854878969269418	28.132312047104527	2.15
C 	20.499545478899577	29.39754131145201	2.15
C 	21.917599418251072	29.47185836931699	2.15
C 	22.562265927881224	30.737087633664466	2.15
C 	23.980319867232723	30.811404691529447	2.15
C 	24.62498637686288	32.07663395587693	2.15
C 	26.043040316214373	32.15095101374191	2.15
C 	26.68770682584453	33.4161802780894	2.15
C 	28.105760765196028	33.49049733595438	2.15
C 	28.75042727482618	34.755726600301855	2.15
C 	30.168481214177675	34.83004365816684	2.15
C 	30.81314772380783	36.09527292251432	2.15
C 	32.231201663159325	36.1695899803793	2.15
C 	32.87586817278948	37.43481924472678	2.15
C 	34.293922112140976	37.50913630259176	2.15
C 	34.93858862177113	38.774365566939245	2.15
C 	36.35664256112263	38.84868262480422	2.15
C 	37.00130907075278	40.1139118891517	2.15
C 	38.41936301010428	40.18822894701669	2.15
C 	39.06402951973444	41.45345821136417	2.15
C 	40.48208345908593	41.527775269229146	2.15
C 	41.126749968716084	42.79300453357663	2.15
C 	42.544803908067585	42.86732159144161	2.15
C 	43.189470417697734	44.132550855789084	2.15
C 	44.60752435704923	44.20686791365407	2.15
C 	45.25219086667939	45.47209717800156	2.15
C 	46.67024480603088	45.546414235866536	2.15
C 	47.314911315661035	46.81164350021402	2.15
C 	48.73296525501254	46.88596055807899	2.15
C 	17.663437600196588	29.248907195722047	2.15
C 	18.308104109826743	30.51413646006953	2.15
C 	19.726158049178235	30.588453517934507	2.15
C 	20.370824558808394	31.85368278228199	2.15
C 	21.788878498159892	31.927999840146978	2.15
C 	22.433545007790045	33.193229104494456	2.15
C 	23.851598947141543	33.26754616235944	2.15
C 	24.4962654567717	34.53277542670692	2.15
C 	25.91431939612319	34.60709248457189	2.15
C 	26.558985905753346	35.872321748919376	2.15
C 	27.977039845104844	35.946638806784364	2.15
C 	28.621706354735	37.21186807113184	2.15
C 	30.039760294086495	37.28618512899682	2.15
C 	30.68442680371665	38.5514143933443	2.15
C 	32.10248074306814	38.625731451209276	2.15
C 	32.7471472526983	39.890960715556766	2.15
C 	34.1652011920498	39.965277773421754	2.15
C 	34.809867701679956	41.23050703776923	2.15
C 	36.22792164103144	41.30482409563421	2.15
C 	36.8725881506616	42.570053359981685	2.15
C 	38.290642090013094	42.644370417846666	2.15
C 	38.93530859964325	43.90959968219415	2.15
C 	40.353362538994745	43.98391674005912	2.15
C 	40.9980290486249	45.24914600440661	2.15
C 	42.416082987976395	45.3234630622716	2.15
C 	43.06074949760655	46.588692326619075	2.15
C 	44.47880343695805	46.663009384484056	2.15
C 	19.597437129087055	33.044594988764494	2.15
C 	20.24210363871721	34.30982425311198	2.15
C 	21.660157578068706	34.38414131097696	2.15
C 	22.304824087698865	35.64937057532444	2.15
C 	23.722878027050356	35.723687633189414	2.15
C 	24.367544536680516	36.988916897536896	2.15
C 	25.78559847603201	37.06323395540188	2.15
C 	26.430264985662166	38.32846321974936	2.15
C 	27.84831892501366	38.40278027761434	2.15
C 	28.49298543464382	39.66800954196183	2.15
C 	29.91103937399531	39.742326599826804	2.15
C 	30.555705883625468	41.007555864174286	2.15
C 	31.973759822976962	41.08187292203927	2.15
C 	32.61842633260712	42.34710218638675	2.15
C 	34.03648027195862	42.42141924425173	2.15
C 	34.68114678158877	43.68664850859921	2.15
C 	36.09920072094027	43.760965566464186	2.15
C 	36.74386723057042	45.026194830811676	2.15
C 	38.16192116992192	45.10051188867666	2.15
C 	38.806587679552074	46.36574115302414	2.15
C 	40.22464161890356	46.44005821088911	2.15
C 	21.531436657977522	36.840282781806934	2.15
C 	22.176103167607682	38.10551204615442	2.15
C 	23.594157106959177	38.1798291040194	2.15
C 	24.238823616589332	39.44505836836688	2.15
C 	25.65687755594083	39.51937542623187	2.15
C 	26.301544065570983	40.78460469057934	2.15
C 	27.719598004922478	40.858921748444324	2.15
C 	28.364264514552637	42.124151012791806	2.15
C 	29.78231845390413	42.19846807065679	2.15
C 	30.426984963534284	43.46369733500426	2.15
C 	31.845038902885783	43.53801439286925	2.15
C 	32.48970541251594	44.80324365721673	2.15
C 	33.90775935186743	44.877560715081714	2.15
C 	34.55242586149759	46.142789979429196	2.15
C 	35.97047980084908	46.21710703729417	2.15
C 	23.465436186867997	40.63597057484939	2.15
C 	24.110102696498153	41.90119983919687	2.15
C 	25.528156635849648	41.975516897061844	2.15
C 	26.172823145479803	43.24074616140933	2.15
C 	27.5908770848313	43.31506321927431	2.15
C 	28.235543594461454	44.58029248362179	2.15
C 	29.65359753381295	44.65460954148677	2.15
C 	30.29826404344311	45.91983880583426	2.15
C 	31.7163179827946	45.994155863699234	2.15
C 	25.399435715758464	44.43165836789183	2.15
C 	26.044102225388624	45.69688763223932	2.15
C 	27.46215616474012	45.7712046901043	2.15
H 	51.45720052175022	-1.9428367055385225	2.15
H 	53.963760653984195	-1.8114734553687362	2.15
H 	55.10327680833046	0.4249529203440672	2.15
H 	49.265759152677376	-0.8262415569209977	2.15
H 	55.89776018287467	1.9842143376737065	2.15
H 	57.03727633722093	4.220640713386514	2.15
H 	45.0115973346229	-1.0491927305159445	2.15
H 	47.51815746685688	-0.9178294803461483	2.15
H 	57.83175971176514	5.779902130716158	2.15
H 	59.894480160746795	7.119448452928619	2.15
H 	61.033996315093056	9.35587482864142	2.15
H 	40.75743551656843	-1.272143904110887	2.15
H 	43.26399564880239	-1.1407806539410947	2.15
H 	61.82847968963725	10.91513624597106	2.15
H 	62.967995843983516	13.151562621683873	2.15
H 	36.50327369851393	-1.4950950777058138	2.15
H 	39.009833830747915	-1.3637318275360348	2.15
H 	63.76247921852773	14.710824039013518	2.15
H 	64.901995372874	16.947250414726323	2.15
H 	32.24911188045945	-1.7180462513007648	2.15
H 	34.75567201269343	-1.58668300113097	2.15
H 	65.6964787474182	18.506511832055963	2.15
H 	66.83599490176447	20.74293820776877	2.15
H 	27.99495006240496	-1.9409974248957014	2.15
H 	30.501510194638954	-1.8096341747259101	2.15
H 	67.63047827630866	22.302199625098403	2.15
H 	68.76999443065493	24.538626000811217	2.15
H 	25.803508693332123	-0.8244022762781766	2.15
H 	69.56447780519915	26.09788741814085	2.15
H 	71.62719825418081	27.437433740353324	2.15
H 	72.76671440852705	29.673860116066116	2.15
H 	21.549346875277656	-1.047353449873126	2.15
H 	24.055907007511625	-0.9159901997033327	2.15
H 	73.56119778307124	31.233121533395746	2.15
H 	74.70071393741752	33.469547909108556	2.15
H 	17.29518505722316	-1.2703046234680593	2.15
H 	19.801745189457147	-1.1389413732982725	2.15
H 	75.49519731196175	35.02880932643821	2.15
H 	76.63471346630799	37.26523570215099	2.15
H 	13.041023239168682	-1.4932557970630014	2.15
H 	15.547583371402666	-1.3618925468932126	2.15
H 	77.4291968408522	38.82449711948066	2.15
H 	78.56871299519847	41.06092349519347	2.15
H 	8.786861421114198	-1.7162069706579413	2.15
H 	11.29342155334818	-1.5848437204881543	2.15
H 	79.36319636974267	42.6201849125231	2.15
H 	80.50271252408893	44.8566112882359	2.15
H 	4.532699603059716	-1.9391581442528822	2.15
H 	7.0392597352936965	-1.8077948940830941	2.15
H 	76.62910841396723	46.830311163609124	2.15
H 	79.13566854620122	46.961674413778915	2.15
H 	2.341258233986883	-0.8225629956353606	2.15
H 	74.88150672814673	46.73872324018397	2.15
H 	0.9742142560991656	1.2825001299076535	2.15
H 	70.18350522683991	47.72395513863172	2.15
H 	72.6900653590739	47.85531838880149	2.15
H 	0.8454933360079835	3.7386416007376364	2.15
H 	1.9850094903542472	5.9750679764504415	2.15
H 	4.0477299393358965	7.314614298662903	2.15
H 	65.92934340878543	47.501003965036766	2.15
H 	68.43590354101941	47.63236721520655	2.15
H 	4.842213313880103	8.873875715992543	2.15
H 	5.981729468226369	11.110302091705352	2.15
H 	61.67518159073094	47.27805279144183	2.15
H 	64.18174172296492	47.40941604161163	2.15
H 	6.7762128427705735	12.669563509034996	2.15
H 	7.915728997116834	14.905989884747795	2.15
H 	57.42101977267647	47.055101617846894	2.15
H 	59.92757990491044	47.18646486801668	2.15
H 	8.710212371661042	16.465251302077444	2.15
H 	9.8497285260073	18.701677677790236	2.15
H 	53.166857954621975	46.83215044425194	2.15
H 	55.673418086855946	46.963513694421735	2.15
H 	10.644211900551513	20.26093909511989	2.15
H 	11.783728054897772	22.497365470832683	2.15
H 	51.41925626880148	46.740562520826785	2.15
H 	12.57821142944198	24.056626888162324	2.15
H 	13.717727583788246	26.293053263875137	2.15
H 	15.780448032769891	27.632599586087593	2.15
H 	46.721254767494656	47.72579441927453	2.15
H 	49.22781489972865	47.857157669444305	2.15
H 	16.574931407314104	29.191861003417237	2.15
H 	17.714447561660364	31.428287379130044	2.15
H 	42.46709294944017	47.502843245679585	2.15
H 	44.973653081674165	47.63420649584937	2.15
H 	18.50893093620457	32.98754879645969	2.15
H 	19.64844709055083	35.22397517217249	2.15
H 	38.2129311313857	47.27989207208466	2.15
H 	40.71949126361967	47.41125532225443	2.15
H 	20.44293046509504	36.78323658950212	2.15
H 	21.582446619441306	39.01966296521494	2.15
H 	33.95876931333122	47.056940898489714	2.15
H 	36.46532944556518	47.18830414865949	2.15
H 	22.376929993985513	40.578924382544585	2.15
H 	23.516446148331774	42.81535075825738	2.15
H 	29.70460749527674	46.83398972489478	2.15
H 	32.211167627510704	46.965352975064555	2.15
H 	24.31092952287598	44.37461217558701	2.15
H 	25.45044567722225	46.611038551299835	2.15
H 	27.957005809456227	46.74240180146962	2.15
