2352

C 	0.0	0.0	0.0
C 	1.2297560733739028	0.7099999999999999	0.0
C 	2.4595121467478056	-2.3647750424515833e-16	0.0
C 	3.689268220121708	0.7099999999999995	0.0
C 	4.919024293495611	-4.729550084903167e-16	0.0
C 	6.148780366869514	0.7099999999999993	0.0
C 	7.378536440243416	-7.09432512735475e-16	0.0
C 	8.60829251361732	0.7099999999999991	0.0
C 	9.838048586991222	-9.459100169806333e-16	0.0
C 	11.067804660365125	0.7099999999999989	0.0
C 	12.297560733739026	-1.1823875212257916e-15	0.0
C 	13.527316807112928	0.7099999999999986	0.0
C 	14.757072880486833	-1.41886502547095e-15	0.0
C 	15.986828953860735	0.7099999999999984	0.0
C 	17.21658502723464	-7.671641100159832e-16	0.0
C 	18.44634110060854	0.7099999999999982	0.0
C 	19.676097173982445	-1.8918200339612667e-15	0.0
C 	20.905853247356347	0.7099999999999989	0.0
C 	22.135609320730246	-2.128297538206425e-15	0.0
C 	23.36536539410415	0.7099999999999967	0.0
C 	24.59512146747805	-2.364775042451583e-15	0.0
C 	25.824877540851954	0.7099999999999983	0.0
C 	27.05463361422586	-8.248957072964913e-16	0.0
C 	28.284389687599763	0.7099999999999999	0.0
C 	29.514145760973665	-2.8377300509419e-15	0.0
C 	30.743901834347565	0.7099999999999961	0.0
C 	31.97365790772147	-3.0742075551870582e-15	0.0
C 	33.20341398109537	0.7099999999999976	0.0
C 	34.43317005446928	-1.5343282200319664e-15	0.0
C 	35.66292612784318	0.7099999999999992	0.0
C 	36.892682201217085	-1.7708057242771246e-15	0.0
C 	38.122438274590984	0.7099999999999972	0.0
C 	39.35219434796489	-3.783640067922533e-15	0.0
C 	40.58195042133879	0.7099999999999969	0.0
C 	41.811706494712695	-4.67403893367191e-16	0.0
C 	43.0414625680866	0.7100000000000002	0.0
C 	44.27121864146049	-4.25659507641285e-15	0.0
C 	45.5009747148344	0.7099999999999964	0.0
C 	46.730730788208305	-9.403589018575075e-16	0.0
C 	47.96048686158221	0.7099999999999997	0.0
C 	49.1902429349561	-4.729550084903166e-15	0.0
C 	50.41999900833001	0.709999999999996	0.0
C 	51.64975508170391	-1.413313910347824e-15	0.0
C 	52.879511155077815	0.7099999999999993	0.0
C 	54.10926722845172	-1.6497914145929826e-15	0.0
C 	55.33902330182562	0.7099999999999991	0.0
C 	56.56877937519952	-5.438982597638641e-15	0.0
C 	57.798535448573425	0.7099999999999953	0.0
C 	59.02829152194733	-5.6754601018838e-15	0.0
C 	60.25804759532124	0.709999999999995	0.0
C 	1.2297560733739028	2.1299999999999994	0.0
C 	2.4595121467478056	2.8399999999999994	0.0
C 	3.689268220121708	2.1299999999999994	0.0
C 	4.919024293495611	2.8399999999999994	0.0
C 	6.148780366869514	2.129999999999999	0.0
C 	7.378536440243416	2.839999999999999	0.0
C 	8.60829251361732	2.1299999999999986	0.0
C 	9.838048586991222	2.8399999999999985	0.0
C 	11.067804660365123	2.129999999999998	0.0
C 	12.297560733739028	2.839999999999999	0.0
C 	13.527316807112928	2.1299999999999977	0.0
C 	14.757072880486833	2.839999999999998	0.0
C 	15.986828953860735	2.129999999999998	0.0
C 	17.216585027234636	2.839999999999997	0.0
C 	18.446341100608542	2.129999999999998	0.0
C 	19.676097173982445	2.8399999999999985	0.0
C 	20.905853247356344	2.1299999999999977	0.0
C 	22.13560932073025	2.8399999999999985	0.0
C 	23.36536539410415	2.129999999999997	0.0
C 	24.595121467478055	2.839999999999997	0.0
C 	25.824877540851954	2.1299999999999963	0.0
C 	27.05463361422586	2.839999999999997	0.0
C 	28.284389687599763	2.129999999999998	0.0
C 	29.514145760973665	2.8399999999999985	0.0
C 	30.743901834347568	2.129999999999996	0.0
C 	31.97365790772147	2.8399999999999967	0.0
C 	33.20341398109537	2.129999999999996	0.0
C 	34.43317005446928	2.8399999999999963	0.0
C 	35.66292612784318	2.1299999999999972	0.0
C 	36.89268220121708	2.8399999999999963	0.0
C 	38.122438274590984	2.129999999999997	0.0
C 	39.35219434796489	2.8399999999999976	0.0
C 	40.58195042133879	2.1299999999999986	0.0
C 	41.81170649471269	2.839999999999996	0.0
C 	43.0414625680866	2.129999999999998	0.0
C 	44.2712186414605	2.8399999999999954	0.0
C 	45.5009747148344	2.129999999999998	0.0
C 	46.7307307882083	2.8399999999999954	0.0
C 	47.96048686158221	2.1299999999999977	0.0
C 	49.19024293495611	2.839999999999995	0.0
C 	50.41999900833001	2.1299999999999977	0.0
C 	51.64975508170391	2.8399999999999945	0.0
C 	52.879511155077815	2.1299999999999972	0.0
C 	54.10926722845171	2.8399999999999945	0.0
C 	55.33902330182563	2.130000000000001	0.0
C 	56.56877937519952	2.8399999999999976	0.0
C 	57.798535448573425	2.129999999999997	0.0
C 	59.028291521947324	2.839999999999994	0.0
C 	60.25804759532124	2.129999999999997	0.0
C 	61.487803668695136	2.8399999999999936	0.0
C 	2.4595121467478056	4.259999999999999	0.0
C 	3.689268220121708	4.969999999999999	0.0
C 	4.919024293495611	4.259999999999999	0.0
C 	6.148780366869514	4.969999999999999	0.0
C 	7.378536440243416	4.259999999999999	0.0
C 	8.60829251361732	4.969999999999999	0.0
C 	9.83804858699122	4.259999999999998	0.0
C 	11.067804660365125	4.969999999999999	0.0
C 	12.297560733739028	4.259999999999998	0.0
C 	13.52731680711293	4.969999999999998	0.0
C 	14.757072880486831	4.259999999999998	0.0
C 	15.986828953860735	4.969999999999998	0.0
C 	17.21658502723464	4.259999999999997	0.0
C 	18.446341100608542	4.969999999999998	0.0
C 	19.676097173982445	4.259999999999999	0.0
C 	20.905853247356347	4.969999999999997	0.0
C 	22.135609320730246	4.259999999999996	0.0
C 	23.365365394104153	4.969999999999997	0.0
C 	24.595121467478055	4.259999999999998	0.0
C 	25.824877540851958	4.969999999999997	0.0
C 	27.054633614225857	4.259999999999995	0.0
C 	28.28438968759976	4.969999999999996	0.0
C 	29.514145760973665	4.259999999999997	0.0
C 	30.743901834347568	4.969999999999997	0.0
C 	31.97365790772147	4.259999999999996	0.0
C 	33.20341398109537	4.969999999999995	0.0
C 	34.43317005446927	4.2599999999999945	0.0
C 	35.66292612784318	4.969999999999995	0.0
C 	36.892682201217085	4.259999999999996	0.0
C 	38.122438274590984	4.969999999999997	0.0
C 	39.35219434796489	4.259999999999997	0.0
C 	40.58195042133879	4.969999999999994	0.0
C 	41.81170649471269	4.259999999999995	0.0
C 	43.041462568086594	4.969999999999996	0.0
C 	44.2712186414605	4.259999999999997	0.0
C 	45.500974714834406	4.969999999999998	0.0
C 	46.7307307882083	4.259999999999994	0.0
C 	47.960486861582204	4.9699999999999935	0.0
C 	49.19024293495611	4.259999999999996	0.0
C 	50.41999900833001	4.969999999999997	0.0
C 	51.64975508170391	4.259999999999993	0.0
C 	52.879511155077815	4.9699999999999935	0.0
C 	54.10926722845171	4.259999999999996	0.0
C 	55.33902330182562	4.969999999999997	0.0
C 	56.568779375199526	4.259999999999996	0.0
C 	57.798535448573425	4.969999999999996	0.0
C 	59.028291521947324	4.259999999999995	0.0
C 	60.25804759532123	4.969999999999996	0.0
C 	61.487803668695136	4.259999999999992	0.0
C 	62.717559742069035	4.969999999999993	0.0
C 	3.6892682201217086	6.389999999999999	0.0
C 	4.919024293495611	7.099999999999999	0.0
C 	6.148780366869514	6.389999999999999	0.0
C 	7.378536440243416	7.099999999999999	0.0
C 	8.608292513617318	6.389999999999998	0.0
C 	9.838048586991222	7.099999999999999	0.0
C 	11.067804660365125	6.389999999999998	0.0
C 	12.297560733739028	7.099999999999998	0.0
C 	13.52731680711293	6.389999999999999	0.0
C 	14.757072880486833	7.099999999999998	0.0
C 	15.986828953860735	6.389999999999998	0.0
C 	17.216585027234636	7.099999999999997	0.0
C 	18.44634110060854	6.389999999999997	0.0
C 	19.676097173982445	7.099999999999998	0.0
C 	20.905853247356347	6.389999999999998	0.0
C 	22.13560932073025	7.099999999999997	0.0
C 	23.365365394104153	6.389999999999998	0.0
C 	24.59512146747805	7.099999999999997	0.0
C 	25.824877540851958	6.389999999999998	0.0
C 	27.054633614225857	7.099999999999997	0.0
C 	28.28438968759976	6.389999999999999	0.0
C 	29.514145760973662	7.099999999999997	0.0
C 	30.743901834347568	6.389999999999999	0.0
C 	31.97365790772147	7.099999999999998	0.0
C 	33.20341398109537	6.389999999999995	0.0
C 	34.43317005446928	7.099999999999994	0.0
C 	35.66292612784318	6.389999999999995	0.0
C 	36.892682201217085	7.099999999999996	0.0
C 	38.122438274590984	6.389999999999996	0.0
C 	39.35219434796489	7.099999999999997	0.0
C 	40.58195042133879	6.389999999999994	0.0
C 	41.811706494712695	7.099999999999995	0.0
C 	43.041462568086594	6.389999999999996	0.0
C 	44.2712186414605	7.099999999999997	0.0
C 	45.500974714834406	6.389999999999998	0.0
C 	46.730730788208305	7.099999999999998	0.0
C 	47.960486861582204	6.389999999999995	0.0
C 	49.19024293495611	7.099999999999996	0.0
C 	50.41999900833001	6.389999999999995	0.0
C 	51.649755081703915	7.099999999999996	0.0
C 	52.879511155077815	6.389999999999995	0.0
C 	54.10926722845172	7.099999999999996	0.0
C 	55.33902330182562	6.389999999999995	0.0
C 	56.568779375199526	7.099999999999995	0.0
C 	57.79853544857343	6.389999999999998	0.0
C 	59.02829152194733	7.099999999999999	0.0
C 	60.25804759532123	6.389999999999994	0.0
C 	61.487803668695136	7.099999999999995	0.0
C 	62.71755974206904	6.389999999999994	0.0
C 	63.94731581544294	7.099999999999995	0.0
C 	4.919024293495611	8.519999999999998	0.0
C 	6.148780366869514	9.229999999999999	0.0
C 	7.378536440243416	8.519999999999998	0.0
C 	8.60829251361732	9.229999999999999	0.0
C 	9.838048586991222	8.519999999999998	0.0
C 	11.067804660365125	9.229999999999999	0.0
C 	12.297560733739028	8.519999999999998	0.0
C 	13.52731680711293	9.229999999999997	0.0
C 	14.757072880486833	8.519999999999998	0.0
C 	15.986828953860737	9.229999999999999	0.0
C 	17.216585027234636	8.519999999999998	0.0
C 	18.44634110060854	9.229999999999997	0.0
C 	19.67609717398244	8.519999999999996	0.0
C 	20.905853247356347	9.229999999999997	0.0
C 	22.13560932073025	8.519999999999998	0.0
C 	23.365365394104153	9.229999999999999	0.0
C 	24.595121467478055	8.519999999999996	0.0
C 	25.824877540851954	9.229999999999995	0.0
C 	27.05463361422586	8.519999999999996	0.0
C 	28.284389687599763	9.229999999999997	0.0
C 	29.514145760973662	8.519999999999996	0.0
C 	30.743901834347565	9.229999999999995	0.0
C 	31.97365790772147	8.52	0.0
C 	33.20341398109537	9.229999999999997	0.0
C 	34.43317005446928	8.519999999999994	0.0
C 	35.66292612784318	9.229999999999995	0.0
C 	36.89268220121708	8.519999999999992	0.0
C 	38.122438274590984	9.229999999999993	0.0
C 	39.35219434796489	8.519999999999998	0.0
C 	40.58195042133879	9.229999999999995	0.0
C 	41.811706494712695	8.519999999999994	0.0
C 	43.0414625680866	9.229999999999995	0.0
C 	44.27121864146049	8.519999999999992	0.0
C 	45.5009747148344	9.229999999999993	0.0
C 	46.730730788208305	8.519999999999998	0.0
C 	47.960486861582204	9.229999999999995	0.0
C 	49.19024293495611	8.519999999999996	0.0
C 	50.41999900833001	9.229999999999993	0.0
C 	51.64975508170391	8.519999999999994	0.0
C 	52.879511155077815	9.229999999999995	0.0
C 	54.10926722845171	8.51999999999999	0.0
C 	55.33902330182562	9.229999999999992	0.0
C 	56.568779375199526	8.519999999999998	0.0
C 	57.798535448573425	9.229999999999995	0.0
C 	59.02829152194733	8.519999999999994	0.0
C 	60.25804759532123	9.229999999999993	0.0
C 	61.48780366869513	8.519999999999992	0.0
C 	62.717559742069035	9.229999999999993	0.0
C 	63.94731581544294	8.519999999999992	0.0
C 	65.17707188881684	9.22999999999999	0.0
C 	6.148780366869514	10.649999999999997	0.0
C 	7.378536440243416	11.359999999999998	0.0
C 	8.608292513617318	10.649999999999997	0.0
C 	9.838048586991222	11.359999999999998	0.0
C 	11.067804660365125	10.649999999999997	0.0
C 	12.297560733739028	11.359999999999996	0.0
C 	13.52731680711293	10.649999999999997	0.0
C 	14.757072880486831	11.359999999999996	0.0
C 	15.986828953860735	10.649999999999997	0.0
C 	17.216585027234636	11.359999999999996	0.0
C 	18.44634110060854	10.649999999999997	0.0
C 	19.676097173982445	11.359999999999998	0.0
C 	20.905853247356347	10.649999999999997	0.0
C 	22.13560932073025	11.359999999999996	0.0
C 	23.365365394104153	10.649999999999997	0.0
C 	24.595121467478055	11.359999999999996	0.0
C 	25.824877540851958	10.649999999999997	0.0
C 	27.05463361422586	11.359999999999996	0.0
C 	28.284389687599763	10.649999999999995	0.0
C 	29.514145760973662	11.359999999999994	0.0
C 	30.743901834347565	10.649999999999995	0.0
C 	31.97365790772147	11.359999999999996	0.0
C 	33.20341398109537	10.649999999999997	0.0
C 	34.43317005446928	11.359999999999998	0.0
C 	35.66292612784318	10.649999999999991	0.0
C 	36.89268220121708	11.359999999999992	0.0
C 	38.122438274590984	10.649999999999993	0.0
C 	39.35219434796489	11.359999999999994	0.0
C 	40.58195042133879	10.649999999999993	0.0
C 	41.811706494712695	11.359999999999994	0.0
C 	43.041462568086594	10.649999999999991	0.0
C 	44.2712186414605	11.359999999999992	0.0
C 	45.5009747148344	10.649999999999993	0.0
C 	46.730730788208305	11.359999999999994	0.0
C 	47.960486861582204	10.649999999999995	0.0
C 	49.19024293495611	11.359999999999996	0.0
C 	50.41999900833001	10.649999999999993	0.0
C 	51.649755081703915	11.359999999999994	0.0
C 	52.879511155077815	10.649999999999995	0.0
C 	54.10926722845172	11.359999999999996	0.0
C 	55.33902330182562	10.649999999999993	0.0
C 	56.568779375199526	11.359999999999994	0.0
C 	57.798535448573425	10.649999999999993	0.0
C 	59.02829152194733	11.359999999999992	0.0
C 	60.25804759532124	10.649999999999995	0.0
C 	61.487803668695136	11.359999999999996	0.0
C 	62.717559742069035	10.649999999999991	0.0
C 	63.94731581544294	11.359999999999992	0.0
C 	65.17707188881684	10.649999999999991	0.0
C 	66.40682796219075	11.359999999999992	0.0
C 	7.378536440243417	12.779999999999998	0.0
C 	8.60829251361732	13.489999999999998	0.0
C 	9.838048586991222	12.78	0.0
C 	11.067804660365125	13.489999999999997	0.0
C 	12.297560733739028	12.779999999999998	0.0
C 	13.527316807112932	13.489999999999998	0.0
C 	14.757072880486833	12.779999999999998	0.0
C 	15.986828953860737	13.489999999999997	0.0
C 	17.216585027234636	12.779999999999996	0.0
C 	18.446341100608542	13.489999999999997	0.0
C 	19.676097173982445	12.779999999999998	0.0
C 	20.905853247356347	13.489999999999997	0.0
C 	22.13560932073025	12.779999999999996	0.0
C 	23.36536539410415	13.489999999999995	0.0
C 	24.595121467478055	12.779999999999996	0.0
C 	25.824877540851958	13.489999999999997	0.0
C 	27.05463361422586	12.779999999999998	0.0
C 	28.284389687599763	13.489999999999997	0.0
C 	29.514145760973662	12.779999999999996	0.0
C 	30.743901834347568	13.489999999999997	0.0
C 	31.97365790772147	12.779999999999996	0.0
C 	33.20341398109537	13.489999999999997	0.0
C 	34.43317005446928	12.779999999999998	0.0
C 	35.66292612784318	13.489999999999995	0.0
C 	36.89268220121708	12.779999999999994	0.0
C 	38.122438274590984	13.489999999999995	0.0
C 	39.35219434796489	12.779999999999996	0.0
C 	40.581950421338796	13.489999999999997	0.0
C 	41.811706494712695	12.779999999999996	0.0
C 	43.041462568086594	13.489999999999993	0.0
C 	44.2712186414605	12.779999999999994	0.0
C 	45.5009747148344	13.489999999999995	0.0
C 	46.730730788208305	12.779999999999996	0.0
C 	47.96048686158221	13.489999999999997	0.0
C 	49.19024293495611	12.779999999999998	0.0
C 	50.41999900833001	13.489999999999995	0.0
C 	51.649755081703915	12.779999999999996	0.0
C 	52.879511155077815	13.489999999999993	0.0
C 	54.10926722845172	12.779999999999998	0.0
C 	55.33902330182563	13.489999999999998	0.0
C 	56.56877937519952	12.779999999999998	0.0
C 	57.798535448573425	13.489999999999997	0.0
C 	59.02829152194733	12.779999999999994	0.0
C 	60.25804759532123	13.489999999999991	0.0
C 	61.487803668695136	12.779999999999998	0.0
C 	62.71755974206904	13.489999999999998	0.0
C 	63.94731581544294	12.779999999999994	0.0
C 	65.17707188881684	13.489999999999995	0.0
C 	66.40682796219075	12.77999999999999	0.0
C 	67.63658403556465	13.489999999999988	0.0
C 	8.60829251361732	14.909999999999998	0.0
C 	9.838048586991222	15.619999999999996	0.0
C 	11.067804660365125	14.909999999999997	0.0
C 	12.297560733739026	15.619999999999996	0.0
C 	13.527316807112934	14.909999999999998	0.0
C 	14.757072880486831	15.619999999999996	0.0
C 	15.986828953860737	14.909999999999998	0.0
C 	17.21658502723464	15.619999999999997	0.0
C 	18.446341100608542	14.909999999999997	0.0
C 	19.676097173982445	15.619999999999996	0.0
C 	20.905853247356347	14.909999999999997	0.0
C 	22.135609320730246	15.619999999999996	0.0
C 	23.365365394104153	14.909999999999995	0.0
C 	24.595121467478055	15.619999999999996	0.0
C 	25.824877540851958	14.909999999999997	0.0
C 	27.05463361422586	15.619999999999996	0.0
C 	28.284389687599763	14.909999999999997	0.0
C 	29.514145760973665	15.619999999999996	0.0
C 	30.743901834347568	14.909999999999997	0.0
C 	31.973657907721474	15.619999999999997	0.0
C 	33.203413981095366	14.909999999999993	0.0
C 	34.43317005446927	15.619999999999994	0.0
C 	35.662926127843185	14.909999999999998	0.0
C 	36.892682201217085	15.619999999999996	0.0
C 	38.122438274590984	14.909999999999995	0.0
C 	39.35219434796489	15.619999999999996	0.0
C 	40.58195042133879	14.909999999999993	0.0
C 	41.811706494712695	15.619999999999994	0.0
C 	43.0414625680866	14.909999999999998	0.0
C 	44.2712186414605	15.619999999999996	0.0
C 	45.5009747148344	14.909999999999995	0.0
C 	46.730730788208305	15.619999999999996	0.0
C 	47.960486861582204	14.909999999999993	0.0
C 	49.19024293495611	15.619999999999994	0.0
C 	50.41999900833002	14.909999999999998	0.0
C 	51.649755081703915	15.619999999999996	0.0
C 	52.87951115507782	14.909999999999997	0.0
C 	54.10926722845171	15.619999999999994	0.0
C 	55.33902330182562	14.909999999999995	0.0
C 	56.568779375199526	15.619999999999994	0.0
C 	57.798535448573425	14.909999999999991	0.0
C 	59.028291521947324	15.619999999999992	0.0
C 	60.25804759532124	14.909999999999998	0.0
C 	61.487803668695136	15.619999999999996	0.0
C 	62.717559742069035	14.909999999999993	0.0
C 	63.94731581544294	15.619999999999994	0.0
C 	65.17707188881684	14.909999999999993	0.0
C 	66.40682796219075	15.619999999999994	0.0
C 	67.63658403556465	14.909999999999997	0.0
C 	68.86634010893854	15.61999999999999	0.0
C 	9.838048586991222	17.039999999999996	0.0
C 	11.067804660365127	17.749999999999996	0.0
C 	12.297560733739028	17.039999999999996	0.0
C 	13.527316807112932	17.749999999999996	0.0
C 	14.757072880486833	17.039999999999996	0.0
C 	15.986828953860735	17.749999999999996	0.0
C 	17.21658502723464	17.039999999999996	0.0
C 	18.446341100608546	17.749999999999996	0.0
C 	19.676097173982445	17.039999999999996	0.0
C 	20.905853247356347	17.749999999999996	0.0
C 	22.13560932073025	17.039999999999996	0.0
C 	23.365365394104153	17.749999999999996	0.0
C 	24.595121467478055	17.039999999999996	0.0
C 	25.82487754085196	17.749999999999996	0.0
C 	27.05463361422586	17.039999999999996	0.0
C 	28.28438968759977	17.75	0.0
C 	29.514145760973665	17.039999999999996	0.0
C 	30.74390183434757	17.749999999999996	0.0
C 	31.973657907721467	17.039999999999992	0.0
C 	33.20341398109537	17.749999999999993	0.0
C 	34.43317005446927	17.039999999999996	0.0
C 	35.66292612784318	17.749999999999996	0.0
C 	36.892682201217085	17.039999999999996	0.0
C 	38.122438274590984	17.749999999999996	0.0
C 	39.35219434796488	17.039999999999992	0.0
C 	40.58195042133879	17.749999999999993	0.0
C 	41.811706494712695	17.039999999999992	0.0
C 	43.041462568086594	17.749999999999993	0.0
C 	44.2712186414605	17.039999999999996	0.0
C 	45.500974714834406	17.749999999999996	0.0
C 	46.7307307882083	17.039999999999992	0.0
C 	47.960486861582204	17.749999999999993	0.0
C 	49.19024293495611	17.039999999999992	0.0
C 	50.41999900833002	17.749999999999993	0.0
C 	51.649755081703915	17.039999999999996	0.0
C 	52.87951115507782	17.749999999999996	0.0
C 	54.10926722845172	17.039999999999992	0.0
C 	55.33902330182562	17.749999999999993	0.0
C 	56.568779375199526	17.039999999999996	0.0
C 	57.79853544857343	17.749999999999996	0.0
C 	59.028291521947324	17.039999999999992	0.0
C 	60.25804759532123	17.749999999999993	0.0
C 	61.487803668695136	17.039999999999996	0.0
C 	62.71755974206904	17.749999999999996	0.0
C 	63.94731581544294	17.04	0.0
C 	65.17707188881684	17.749999999999993	0.0
C 	66.40682796219075	17.039999999999996	0.0
C 	67.63658403556464	17.74999999999999	0.0
C 	68.86634010893856	17.03999999999999	0.0
C 	70.09609618231246	17.74999999999999	0.0
C 	11.067804660365125	19.169999999999995	0.0
C 	12.297560733739026	19.879999999999995	0.0
C 	13.52731680711293	19.169999999999995	0.0
C 	14.757072880486831	19.879999999999995	0.0
C 	15.986828953860737	19.169999999999998	0.0
C 	17.216585027234636	19.879999999999992	0.0
C 	18.446341100608542	19.169999999999995	0.0
C 	19.676097173982445	19.879999999999995	0.0
C 	20.905853247356347	19.169999999999995	0.0
C 	22.135609320730246	19.879999999999995	0.0
C 	23.365365394104153	19.169999999999995	0.0
C 	24.59512146747805	19.879999999999995	0.0
C 	25.824877540851958	19.169999999999995	0.0
C 	27.05463361422586	19.879999999999995	0.0
C 	28.284389687599763	19.169999999999995	0.0
C 	29.51414576097367	19.879999999999995	0.0
C 	30.743901834347565	19.16999999999999	0.0
C 	31.97365790772147	19.879999999999992	0.0
C 	33.20341398109537	19.169999999999995	0.0
C 	34.43317005446927	19.879999999999992	0.0
C 	35.66292612784318	19.169999999999995	0.0
C 	36.89268220121708	19.879999999999992	0.0
C 	38.122438274590984	19.169999999999995	0.0
C 	39.35219434796488	19.879999999999992	0.0
C 	40.58195042133879	19.16999999999999	0.0
C 	41.81170649471269	19.87999999999999	0.0
C 	43.0414625680866	19.169999999999995	0.0
C 	44.27121864146049	19.879999999999992	0.0
C 	45.5009747148344	19.16999999999999	0.0
C 	46.730730788208305	19.879999999999992	0.0
C 	47.960486861582204	19.169999999999995	0.0
C 	49.1902429349561	19.879999999999992	0.0
C 	50.41999900833002	19.169999999999995	0.0
C 	51.649755081703915	19.879999999999992	0.0
C 	52.879511155077815	19.16999999999999	0.0
C 	54.10926722845172	19.879999999999992	0.0
C 	55.33902330182562	19.16999999999999	0.0
C 	56.56877937519952	19.879999999999992	0.0
C 	57.79853544857343	19.169999999999995	0.0
C 	59.02829152194733	19.879999999999992	0.0
C 	60.25804759532123	19.169999999999995	0.0
C 	61.48780366869513	19.879999999999992	0.0
C 	62.717559742069035	19.16999999999999	0.0
C 	63.94731581544294	19.879999999999992	0.0
C 	65.17707188881684	19.169999999999995	0.0
C 	66.40682796219075	19.87999999999999	0.0
C 	67.63658403556465	19.169999999999995	0.0
C 	68.86634010893854	19.87999999999999	0.0
C 	70.09609618231245	19.16999999999999	0.0
C 	71.32585225568636	19.879999999999992	0.0
C 	12.297560733739028	21.299999999999994	0.0
C 	13.527316807112932	22.009999999999994	0.0
C 	14.757072880486831	21.299999999999994	0.0
C 	15.986828953860735	22.009999999999994	0.0
C 	17.216585027234636	21.299999999999994	0.0
C 	18.44634110060854	22.009999999999994	0.0
C 	19.676097173982445	21.299999999999994	0.0
C 	20.905853247356347	22.009999999999994	0.0
C 	22.13560932073025	21.299999999999994	0.0
C 	23.365365394104153	22.009999999999994	0.0
C 	24.595121467478055	21.299999999999994	0.0
C 	25.824877540851958	22.009999999999994	0.0
C 	27.05463361422586	21.299999999999994	0.0
C 	28.284389687599766	22.009999999999994	0.0
C 	29.514145760973662	21.29999999999999	0.0
C 	30.743901834347568	22.00999999999999	0.0
C 	31.97365790772147	21.299999999999994	0.0
C 	33.20341398109537	22.009999999999994	0.0
C 	34.43317005446928	21.299999999999994	0.0
C 	35.662926127843185	22.009999999999994	0.0
C 	36.89268220121708	21.299999999999994	0.0
C 	38.122438274590984	22.009999999999994	0.0
C 	39.35219434796489	21.299999999999994	0.0
C 	40.58195042133879	22.009999999999994	0.0
C 	41.811706494712695	21.299999999999994	0.0
C 	43.0414625680866	22.009999999999994	0.0
C 	44.2712186414605	21.29999999999999	0.0
C 	45.5009747148344	22.00999999999999	0.0
C 	46.730730788208305	21.299999999999994	0.0
C 	47.96048686158221	22.009999999999994	0.0
C 	49.19024293495611	21.299999999999994	0.0
C 	50.41999900833002	22.009999999999994	0.0
C 	51.649755081703915	21.299999999999994	0.0
C 	52.879511155077815	22.00999999999999	0.0
C 	54.10926722845172	21.299999999999994	0.0
C 	55.33902330182563	22.009999999999994	0.0
C 	56.568779375199526	21.29999999999999	0.0
C 	57.798535448573425	22.00999999999999	0.0
C 	59.02829152194733	21.299999999999994	0.0
C 	60.25804759532124	22.009999999999994	0.0
C 	61.48780366869513	21.29999999999999	0.0
C 	62.717559742069035	22.00999999999999	0.0
C 	63.94731581544294	21.299999999999994	0.0
C 	65.17707188881684	22.009999999999987	0.0
C 	66.40682796219075	21.299999999999994	0.0
C 	67.63658403556465	22.009999999999994	0.0
C 	68.86634010893854	21.29999999999999	0.0
C 	70.09609618231245	22.00999999999999	0.0
C 	71.32585225568636	21.299999999999983	0.0
C 	72.55560832906026	22.00999999999999	0.0
C 	13.527316807112932	23.429999999999996	0.0
C 	14.757072880486836	24.139999999999997	0.0
C 	15.986828953860737	23.429999999999996	0.0
C 	17.216585027234643	24.139999999999997	0.0
C 	18.446341100608542	23.429999999999996	0.0
C 	19.676097173982445	24.139999999999997	0.0
C 	20.90585324735635	23.429999999999996	0.0
C 	22.135609320730254	24.139999999999997	0.0
C 	23.365365394104156	23.429999999999993	0.0
C 	24.595121467478062	24.139999999999997	0.0
C 	25.824877540851958	23.429999999999993	0.0
C 	27.054633614225864	24.139999999999993	0.0
C 	28.284389687599766	23.429999999999996	0.0
C 	29.514145760973673	24.139999999999997	0.0
C 	30.743901834347575	23.429999999999996	0.0
C 	31.973657907721478	24.139999999999997	0.0
C 	33.20341398109537	23.429999999999993	0.0
C 	34.43317005446928	24.139999999999993	0.0
C 	35.66292612784318	23.429999999999993	0.0
C 	36.892682201217085	24.139999999999993	0.0
C 	38.122438274590984	23.429999999999993	0.0
C 	39.35219434796489	24.139999999999993	0.0
C 	40.58195042133879	23.429999999999996	0.0
C 	41.811706494712695	24.139999999999993	0.0
C 	43.041462568086594	23.42999999999999	0.0
C 	44.2712186414605	24.13999999999999	0.0
C 	45.5009747148344	23.429999999999993	0.0
C 	46.730730788208305	24.139999999999993	0.0
C 	47.96048686158221	23.429999999999993	0.0
C 	49.19024293495611	24.139999999999993	0.0
C 	50.41999900833001	23.429999999999993	0.0
C 	51.649755081703915	24.13999999999999	0.0
C 	52.87951115507782	23.429999999999993	0.0
C 	54.10926722845172	24.139999999999993	0.0
C 	55.33902330182563	23.429999999999993	0.0
C 	56.56877937519953	24.139999999999993	0.0
C 	57.798535448573425	23.429999999999993	0.0
C 	59.02829152194733	24.139999999999993	0.0
C 	60.25804759532124	23.429999999999993	0.0
C 	61.487803668695136	24.13999999999999	0.0
C 	62.71755974206904	23.429999999999993	0.0
C 	63.947315815442934	24.139999999999986	0.0
C 	65.17707188881684	23.429999999999993	0.0
C 	66.40682796219075	24.139999999999993	0.0
C 	67.63658403556464	23.42999999999999	0.0
C 	68.86634010893856	24.139999999999997	0.0
C 	70.09609618231245	23.42999999999999	0.0
C 	71.32585225568636	24.139999999999997	0.0
C 	72.55560832906026	23.42999999999999	0.0
C 	73.78536440243417	24.13999999999999	0.0
C 	14.757072880486835	25.559999999999995	0.0
C 	15.986828953860735	26.269999999999996	0.0
C 	17.21658502723464	25.559999999999995	0.0
C 	18.44634110060854	26.269999999999996	0.0
C 	19.676097173982445	25.56	0.0
C 	20.905853247356344	26.269999999999996	0.0
C 	22.13560932073025	25.56	0.0
C 	23.365365394104153	26.269999999999996	0.0
C 	24.595121467478055	25.559999999999995	0.0
C 	25.824877540851958	26.269999999999996	0.0
C 	27.054633614225857	25.559999999999995	0.0
C 	28.28438968759976	26.269999999999996	0.0
C 	29.514145760973665	25.559999999999995	0.0
C 	30.743901834347568	26.269999999999996	0.0
C 	31.973657907721474	25.559999999999995	0.0
C 	33.20341398109538	26.269999999999996	0.0
C 	34.43317005446927	25.55999999999999	0.0
C 	35.66292612784318	26.269999999999992	0.0
C 	36.892682201217085	25.559999999999995	0.0
C 	38.12243827459098	26.269999999999992	0.0
C 	39.35219434796489	25.559999999999995	0.0
C 	40.58195042133879	26.269999999999992	0.0
C 	41.81170649471269	25.55999999999999	0.0
C 	43.041462568086594	26.269999999999992	0.0
C 	44.2712186414605	25.55999999999999	0.0
C 	45.5009747148344	26.26999999999999	0.0
C 	46.730730788208305	25.559999999999995	0.0
C 	47.960486861582204	26.269999999999992	0.0
C 	49.19024293495611	25.55999999999999	0.0
C 	50.41999900833001	26.269999999999992	0.0
C 	51.649755081703915	25.559999999999995	0.0
C 	52.879511155077815	26.269999999999992	0.0
C 	54.10926722845172	25.559999999999995	0.0
C 	55.33902330182562	26.269999999999992	0.0
C 	56.568779375199526	25.55999999999999	0.0
C 	57.79853544857343	26.269999999999992	0.0
C 	59.028291521947324	25.55999999999999	0.0
C 	60.25804759532123	26.269999999999992	0.0
C 	61.487803668695136	25.559999999999995	0.0
C 	62.717559742069035	26.26999999999999	0.0
C 	63.94731581544294	25.55999999999999	0.0
C 	65.17707188881683	26.269999999999985	0.0
C 	66.40682796219075	25.55999999999999	0.0
C 	67.63658403556465	26.269999999999992	0.0
C 	68.86634010893856	25.559999999999995	0.0
C 	70.09609618231246	26.269999999999996	0.0
C 	71.32585225568636	25.559999999999995	0.0
C 	72.55560832906026	26.269999999999996	0.0
C 	73.78536440243415	25.559999999999988	0.0
C 	75.01512047580806	26.26999999999999	0.0
C 	15.986828953860735	27.689999999999994	0.0
C 	17.21658502723464	28.399999999999995	0.0
C 	18.446341100608542	27.689999999999994	0.0
C 	19.676097173982445	28.399999999999995	0.0
C 	20.905853247356344	27.689999999999994	0.0
C 	22.13560932073025	28.399999999999995	0.0
C 	23.365365394104153	27.689999999999994	0.0
C 	24.59512146747806	28.399999999999995	0.0
C 	25.824877540851954	27.689999999999994	0.0
C 	27.054633614225857	28.399999999999995	0.0
C 	28.284389687599763	27.689999999999994	0.0
C 	29.514145760973665	28.399999999999995	0.0
C 	30.74390183434757	27.689999999999994	0.0
C 	31.973657907721474	28.399999999999995	0.0
C 	33.20341398109537	27.68999999999999	0.0
C 	34.43317005446928	28.39999999999999	0.0
C 	35.66292612784318	27.689999999999994	0.0
C 	36.892682201217085	28.399999999999995	0.0
C 	38.122438274590984	27.689999999999994	0.0
C 	39.35219434796489	28.399999999999995	0.0
C 	40.58195042133879	27.689999999999994	0.0
C 	41.811706494712695	28.399999999999995	0.0
C 	43.041462568086594	27.689999999999994	0.0
C 	44.2712186414605	28.399999999999995	0.0
C 	45.500974714834406	27.689999999999994	0.0
C 	46.730730788208305	28.399999999999995	0.0
C 	47.960486861582204	27.68999999999999	0.0
C 	49.19024293495611	28.39999999999999	0.0
C 	50.41999900833002	27.689999999999994	0.0
C 	51.649755081703915	28.399999999999995	0.0
C 	52.87951115507782	27.689999999999994	0.0
C 	54.10926722845173	28.399999999999995	0.0
C 	55.33902330182562	27.68999999999999	0.0
C 	56.568779375199526	28.39999999999999	0.0
C 	57.79853544857343	27.689999999999994	0.0
C 	59.02829152194733	28.39999999999999	0.0
C 	60.25804759532124	27.689999999999994	0.0
C 	61.48780366869513	28.399999999999988	0.0
C 	62.717559742069035	27.689999999999994	0.0
C 	63.94731581544294	28.399999999999995	0.0
C 	65.17707188881684	27.68999999999999	0.0
C 	66.40682796219075	28.39999999999999	0.0
C 	67.63658403556464	27.689999999999987	0.0
C 	68.86634010893856	28.399999999999995	0.0
C 	70.09609618231245	27.689999999999994	0.0
C 	71.32585225568636	28.399999999999995	0.0
C 	72.55560832906026	27.68999999999999	0.0
C 	73.78536440243415	28.39999999999999	0.0
C 	75.01512047580808	27.689999999999994	0.0
C 	76.24487654918197	28.399999999999984	0.0
C 	17.21658502723464	29.819999999999997	0.0
C 	18.446341100608546	30.529999999999998	0.0
C 	19.676097173982445	29.819999999999997	0.0
C 	20.905853247356355	30.529999999999998	0.0
C 	22.13560932073025	29.819999999999993	0.0
C 	23.365365394104156	30.529999999999994	0.0
C 	24.59512146747806	29.819999999999997	0.0
C 	25.82487754085196	30.529999999999998	0.0
C 	27.054633614225867	29.819999999999997	0.0
C 	28.28438968759977	30.529999999999998	0.0
C 	29.514145760973665	29.819999999999997	0.0
C 	30.74390183434757	30.529999999999998	0.0
C 	31.973657907721474	29.819999999999997	0.0
C 	33.20341398109538	30.529999999999998	0.0
C 	34.43317005446928	29.819999999999997	0.0
C 	35.662926127843185	30.529999999999998	0.0
C 	36.892682201217085	29.819999999999993	0.0
C 	38.12243827459099	30.529999999999994	0.0
C 	39.35219434796488	29.819999999999993	0.0
C 	40.58195042133879	30.529999999999994	0.0
C 	41.811706494712695	29.819999999999993	0.0
C 	43.0414625680866	30.529999999999994	0.0
C 	44.2712186414605	29.819999999999993	0.0
C 	45.500974714834406	30.529999999999994	0.0
C 	46.730730788208305	29.81999999999999	0.0
C 	47.960486861582204	30.52999999999999	0.0
C 	49.19024293495611	29.819999999999993	0.0
C 	50.41999900833002	30.529999999999994	0.0
C 	51.649755081703915	29.819999999999993	0.0
C 	52.87951115507782	30.529999999999994	0.0
C 	54.10926722845172	29.819999999999993	0.0
C 	55.33902330182563	30.52999999999999	0.0
C 	56.568779375199526	29.819999999999993	0.0
C 	57.798535448573425	30.52999999999999	0.0
C 	59.02829152194734	29.819999999999993	0.0
C 	60.25804759532124	30.529999999999994	0.0
C 	61.487803668695136	29.819999999999993	0.0
C 	62.71755974206904	30.529999999999994	0.0
C 	63.947315815442934	29.81999999999999	0.0
C 	65.17707188881685	30.529999999999998	0.0
C 	66.40682796219073	29.819999999999986	0.0
C 	67.63658403556465	30.529999999999994	0.0
C 	68.86634010893856	29.819999999999993	0.0
C 	70.09609618231245	30.529999999999994	0.0
C 	71.32585225568637	29.819999999999997	0.0
C 	72.55560832906026	30.52999999999999	0.0
C 	73.78536440243417	29.819999999999997	0.0
C 	75.01512047580806	30.529999999999987	0.0
C 	76.24487654918197	29.81999999999999	0.0
C 	77.47463262255587	30.52999999999999	0.0
C 	18.446341100608542	31.949999999999996	0.0
C 	19.676097173982445	32.65999999999999	0.0
C 	20.905853247356347	31.949999999999992	0.0
C 	22.135609320730254	32.66	0.0
C 	23.365365394104156	31.949999999999996	0.0
C 	24.595121467478055	32.65999999999999	0.0
C 	25.824877540851958	31.949999999999992	0.0
C 	27.05463361422586	32.66	0.0
C 	28.284389687599766	31.949999999999996	0.0
C 	29.51414576097367	32.66	0.0
C 	30.743901834347568	31.949999999999992	0.0
C 	31.97365790772147	32.66	0.0
C 	33.20341398109537	31.949999999999992	0.0
C 	34.43317005446928	32.66	0.0
C 	35.66292612784318	31.949999999999996	0.0
C 	36.892682201217085	32.66	0.0
C 	38.122438274590984	31.949999999999992	0.0
C 	39.35219434796489	32.65999999999999	0.0
C 	40.58195042133879	31.949999999999992	0.0
C 	41.81170649471269	32.65999999999999	0.0
C 	43.0414625680866	31.949999999999996	0.0
C 	44.2712186414605	32.65999999999999	0.0
C 	45.5009747148344	31.949999999999992	0.0
C 	46.730730788208305	32.65999999999999	0.0
C 	47.96048686158221	31.949999999999992	0.0
C 	49.1902429349561	32.65999999999999	0.0
C 	50.41999900833002	31.949999999999992	0.0
C 	51.649755081703915	32.65999999999999	0.0
C 	52.879511155077815	31.949999999999992	0.0
C 	54.10926722845172	32.65999999999999	0.0
C 	55.33902330182563	31.949999999999992	0.0
C 	56.568779375199526	32.65999999999999	0.0
C 	57.79853544857343	31.949999999999992	0.0
C 	59.028291521947324	32.65999999999999	0.0
C 	60.25804759532124	31.949999999999992	0.0
C 	61.487803668695136	32.65999999999999	0.0
C 	62.717559742069035	31.94999999999999	0.0
C 	63.94731581544294	32.65999999999999	0.0
C 	65.17707188881685	31.949999999999992	0.0
C 	66.40682796219076	32.66	0.0
C 	67.63658403556465	31.949999999999992	0.0
C 	68.86634010893856	32.65999999999999	0.0
C 	70.09609618231245	31.94999999999999	0.0
C 	71.32585225568636	32.65999999999999	0.0
C 	72.55560832906026	31.949999999999996	0.0
C 	73.78536440243415	32.65999999999999	0.0
C 	75.01512047580806	31.949999999999992	0.0
C 	76.24487654918195	32.65999999999998	0.0
C 	77.47463262255587	31.949999999999985	0.0
C 	78.70438869592978	32.65999999999999	0.0
C 	19.676097173982445	34.07999999999999	0.0
C 	20.90585324735635	34.78999999999999	0.0
C 	22.135609320730254	34.07999999999999	0.0
C 	23.365365394104156	34.78999999999999	0.0
C 	24.595121467478055	34.07999999999999	0.0
C 	25.824877540851958	34.78999999999999	0.0
C 	27.054633614225864	34.07999999999999	0.0
C 	28.284389687599766	34.78999999999999	0.0
C 	29.514145760973665	34.07999999999999	0.0
C 	30.743901834347568	34.78999999999999	0.0
C 	31.97365790772147	34.07999999999999	0.0
C 	33.20341398109537	34.78999999999999	0.0
C 	34.43317005446928	34.07999999999999	0.0
C 	35.662926127843185	34.78999999999999	0.0
C 	36.89268220121708	34.07999999999999	0.0
C 	38.122438274590984	34.78999999999999	0.0
C 	39.35219434796489	34.07999999999999	0.0
C 	40.581950421338796	34.78999999999999	0.0
C 	41.811706494712695	34.07999999999999	0.0
C 	43.0414625680866	34.78999999999999	0.0
C 	44.2712186414605	34.07999999999999	0.0
C 	45.5009747148344	34.78999999999999	0.0
C 	46.730730788208305	34.07999999999999	0.0
C 	47.96048686158221	34.78999999999999	0.0
C 	49.19024293495611	34.07999999999999	0.0
C 	50.41999900833002	34.78999999999999	0.0
C 	51.649755081703915	34.07999999999999	0.0
C 	52.87951115507782	34.78999999999999	0.0
C 	54.10926722845172	34.07999999999999	0.0
C 	55.33902330182562	34.78999999999999	0.0
C 	56.56877937519953	34.07999999999999	0.0
C 	57.79853544857343	34.78999999999999	0.0
C 	59.02829152194733	34.07999999999999	0.0
C 	60.25804759532124	34.78999999999999	0.0
C 	61.487803668695136	34.07999999999999	0.0
C 	62.71755974206905	34.79	0.0
C 	63.947315815442934	34.079999999999984	0.0
C 	65.17707188881685	34.78999999999999	0.0
C 	66.40682796219075	34.07999999999999	0.0
C 	67.63658403556465	34.78999999999999	0.0
C 	68.86634010893854	34.07999999999999	0.0
C 	70.09609618231245	34.78999999999999	0.0
C 	71.32585225568636	34.07999999999999	0.0
C 	72.55560832906025	34.789999999999985	0.0
C 	73.78536440243417	34.07999999999999	0.0
C 	75.01512047580808	34.78999999999999	0.0
C 	76.24487654918197	34.07999999999999	0.0
C 	77.47463262255587	34.78999999999999	0.0
C 	78.70438869592977	34.079999999999984	0.0
C 	79.93414476930369	34.78999999999999	0.0
C 	20.90585324735635	36.209999999999994	0.0
C 	22.135609320730254	36.919999999999995	0.0
C 	23.36536539410416	36.209999999999994	0.0
C 	24.595121467478062	36.919999999999995	0.0
C 	25.82487754085196	36.209999999999994	0.0
C 	27.054633614225864	36.919999999999995	0.0
C 	28.284389687599766	36.209999999999994	0.0
C 	29.514145760973673	36.919999999999995	0.0
C 	30.743901834347575	36.209999999999994	0.0
C 	31.973657907721478	36.919999999999995	0.0
C 	33.20341398109537	36.209999999999994	0.0
C 	34.43317005446928	36.919999999999995	0.0
C 	35.662926127843185	36.209999999999994	0.0
C 	36.89268220121709	36.919999999999995	0.0
C 	38.12243827459099	36.209999999999994	0.0
C 	39.3521943479649	36.919999999999995	0.0
C 	40.581950421338796	36.209999999999994	0.0
C 	41.811706494712695	36.919999999999995	0.0
C 	43.041462568086594	36.209999999999994	0.0
C 	44.2712186414605	36.919999999999995	0.0
C 	45.500974714834406	36.209999999999994	0.0
C 	46.730730788208305	36.919999999999995	0.0
C 	47.96048686158221	36.209999999999994	0.0
C 	49.19024293495612	36.919999999999995	0.0
C 	50.41999900833002	36.20999999999999	0.0
C 	51.649755081703915	36.91999999999999	0.0
C 	52.87951115507782	36.209999999999994	0.0
C 	54.10926722845172	36.91999999999999	0.0
C 	55.33902330182563	36.209999999999994	0.0
C 	56.56877937519953	36.919999999999995	0.0
C 	57.79853544857343	36.20999999999999	0.0
C 	59.02829152194733	36.91999999999999	0.0
C 	60.25804759532123	36.20999999999999	0.0
C 	61.48780366869515	36.919999999999995	0.0
C 	62.71755974206904	36.209999999999994	0.0
C 	63.94731581544295	36.919999999999995	0.0
C 	65.17707188881684	36.209999999999994	0.0
C 	66.40682796219075	36.919999999999995	0.0
C 	67.63658403556467	36.209999999999994	0.0
C 	68.86634010893856	36.91999999999999	0.0
C 	70.09609618231246	36.209999999999994	0.0
C 	71.32585225568636	36.91999999999999	0.0
C 	72.55560832906026	36.209999999999994	0.0
C 	73.78536440243417	36.919999999999995	0.0
C 	75.01512047580806	36.20999999999999	0.0
C 	76.24487654918198	36.919999999999995	0.0
C 	77.47463262255586	36.20999999999999	0.0
C 	78.70438869592978	36.919999999999995	0.0
C 	79.93414476930369	36.20999999999999	0.0
C 	81.16390084267759	36.91999999999999	0.0
C 	22.13560932073025	38.33999999999999	0.0
C 	23.365365394104153	39.04999999999999	0.0
C 	24.59512146747806	38.33999999999999	0.0
C 	25.82487754085196	39.04999999999999	0.0
C 	27.05463361422586	38.33999999999999	0.0
C 	28.284389687599763	39.04999999999999	0.0
C 	29.514145760973665	38.33999999999999	0.0
C 	30.74390183434757	39.04999999999999	0.0
C 	31.973657907721474	38.339999999999996	0.0
C 	33.20341398109538	39.04999999999999	0.0
C 	34.43317005446927	38.33999999999999	0.0
C 	35.66292612784318	39.04999999999999	0.0
C 	36.892682201217085	38.33999999999999	0.0
C 	38.12243827459099	39.04999999999999	0.0
C 	39.35219434796489	38.33999999999999	0.0
C 	40.581950421338796	39.04999999999999	0.0
C 	41.811706494712695	38.33999999999999	0.0
C 	43.0414625680866	39.04999999999999	0.0
C 	44.27121864146049	38.33999999999999	0.0
C 	45.5009747148344	39.04999999999999	0.0
C 	46.730730788208305	38.33999999999999	0.0
C 	47.960486861582204	39.04999999999999	0.0
C 	49.19024293495611	38.33999999999999	0.0
C 	50.41999900833002	39.04999999999999	0.0
C 	51.649755081703915	38.33999999999999	0.0
C 	52.879511155077815	39.04999999999999	0.0
C 	54.10926722845173	38.33999999999999	0.0
C 	55.33902330182562	39.04999999999998	0.0
C 	56.568779375199526	38.33999999999999	0.0
C 	57.79853544857343	39.04999999999999	0.0
C 	59.02829152194733	38.33999999999999	0.0
C 	60.25804759532123	39.04999999999999	0.0
C 	61.48780366869513	38.33999999999998	0.0
C 	62.71755974206905	39.04999999999999	0.0
C 	63.94731581544294	38.33999999999999	0.0
C 	65.17707188881685	39.04999999999999	0.0
C 	66.40682796219075	38.33999999999999	0.0
C 	67.63658403556465	39.04999999999999	0.0
C 	68.86634010893856	38.33999999999999	0.0
C 	70.09609618231245	39.04999999999998	0.0
C 	71.32585225568636	38.33999999999999	0.0
C 	72.55560832906025	39.04999999999998	0.0
C 	73.78536440243415	38.33999999999999	0.0
C 	75.01512047580806	39.04999999999999	0.0
C 	76.24487654918197	38.33999999999999	0.0
C 	77.47463262255587	39.05	0.0
C 	78.70438869592977	38.33999999999998	0.0
C 	79.93414476930369	39.04999999999999	0.0
C 	81.16390084267758	38.33999999999998	0.0
C 	82.39365691605148	39.04999999999998	0.0
C 	23.365365394104156	40.46999999999999	0.0
C 	24.59512146747806	41.17999999999999	0.0
C 	25.82487754085196	40.46999999999999	0.0
C 	27.054633614225867	41.17999999999999	0.0
C 	28.284389687599763	40.46999999999999	0.0
C 	29.51414576097367	41.17999999999999	0.0
C 	30.74390183434757	40.46999999999999	0.0
C 	31.973657907721474	41.17999999999999	0.0
C 	33.20341398109537	40.46999999999999	0.0
C 	34.43317005446928	41.17999999999999	0.0
C 	35.66292612784318	40.46999999999999	0.0
C 	36.892682201217085	41.17999999999999	0.0
C 	38.12243827459099	40.46999999999999	0.0
C 	39.3521943479649	41.17999999999999	0.0
C 	40.58195042133879	40.46999999999999	0.0
C 	41.811706494712695	41.17999999999999	0.0
C 	43.0414625680866	40.46999999999999	0.0
C 	44.2712186414605	41.17999999999999	0.0
C 	45.500974714834406	40.46999999999999	0.0
C 	46.73073078820831	41.17999999999999	0.0
C 	47.960486861582204	40.46999999999999	0.0
C 	49.19024293495611	41.17999999999999	0.0
C 	50.41999900833002	40.46999999999999	0.0
C 	51.649755081703915	41.179999999999986	0.0
C 	52.87951115507782	40.46999999999999	0.0
C 	54.10926722845173	41.17999999999999	0.0
C 	55.33902330182563	40.46999999999999	0.0
C 	56.568779375199526	41.17999999999999	0.0
C 	57.798535448573425	40.469999999999985	0.0
C 	59.028291521947345	41.17999999999999	0.0
C 	60.25804759532124	40.46999999999999	0.0
C 	61.48780366869514	41.17999999999999	0.0
C 	62.71755974206904	40.46999999999999	0.0
C 	63.94731581544295	41.17999999999999	0.0
C 	65.17707188881685	40.46999999999999	0.0
C 	66.40682796219075	41.179999999999986	0.0
C 	67.63658403556465	40.46999999999999	0.0
C 	68.86634010893854	41.179999999999986	0.0
C 	70.09609618231246	40.46999999999999	0.0
C 	71.32585225568636	41.17999999999999	0.0
C 	72.55560832906026	40.469999999999985	0.0
C 	73.78536440243417	41.179999999999986	0.0
C 	75.01512047580806	40.469999999999985	0.0
C 	76.24487654918198	41.17999999999999	0.0
C 	77.47463262255587	40.46999999999999	0.0
C 	78.70438869592978	41.17999999999999	0.0
C 	79.93414476930367	40.469999999999985	0.0
C 	81.16390084267758	41.179999999999986	0.0
C 	82.3936569160515	40.46999999999999	0.0
C 	83.62341298942539	41.179999999999986	0.0
C 	24.595121467478055	42.59999999999999	0.0
C 	25.82487754085196	43.30999999999999	0.0
C 	27.05463361422586	42.59999999999999	0.0
C 	28.284389687599766	43.30999999999999	0.0
C 	29.514145760973662	42.59999999999999	0.0
C 	30.743901834347568	43.30999999999999	0.0
C 	31.97365790772147	42.59999999999999	0.0
C 	33.20341398109537	43.30999999999999	0.0
C 	34.43317005446927	42.59999999999999	0.0
C 	35.66292612784318	43.30999999999999	0.0
C 	36.89268220121708	42.59999999999999	0.0
C 	38.122438274590984	43.30999999999999	0.0
C 	39.35219434796489	42.59999999999999	0.0
C 	40.581950421338796	43.30999999999999	0.0
C 	41.81170649471269	42.59999999999999	0.0
C 	43.041462568086594	43.30999999999999	0.0
C 	44.2712186414605	42.59999999999999	0.0
C 	45.5009747148344	43.30999999999999	0.0
C 	46.730730788208305	42.59999999999999	0.0
C 	47.96048686158221	43.30999999999999	0.0
C 	49.19024293495611	42.59999999999999	0.0
C 	50.41999900833001	43.30999999999999	0.0
C 	51.64975508170392	42.599999999999994	0.0
C 	52.879511155077815	43.30999999999999	0.0
C 	54.10926722845172	42.59999999999999	0.0
C 	55.33902330182563	43.30999999999999	0.0
C 	56.568779375199526	42.59999999999999	0.0
C 	57.798535448573425	43.30999999999999	0.0
C 	59.028291521947324	42.59999999999998	0.0
C 	60.258047595321244	43.30999999999999	0.0
C 	61.487803668695136	42.59999999999999	0.0
C 	62.71755974206904	43.30999999999999	0.0
C 	63.94731581544294	42.59999999999999	0.0
C 	65.17707188881684	43.30999999999999	0.0
C 	66.40682796219076	42.599999999999994	0.0
C 	67.63658403556465	43.30999999999999	0.0
C 	68.86634010893856	42.59999999999999	0.0
C 	70.09609618231245	43.30999999999998	0.0
C 	71.32585225568636	42.59999999999999	0.0
C 	72.55560832906026	43.30999999999999	0.0
C 	73.78536440243415	42.59999999999999	0.0
C 	75.01512047580806	43.30999999999999	0.0
C 	76.24487654918197	42.59999999999998	0.0
C 	77.47463262255587	43.30999999999999	0.0
C 	78.70438869592978	42.59999999999999	0.0
C 	79.93414476930367	43.30999999999999	0.0
C 	81.16390084267758	42.59999999999999	0.0
C 	82.39365691605148	43.30999999999999	0.0
C 	83.62341298942539	42.59999999999999	0.0
C 	84.85316906279928	43.30999999999998	0.0
C 	25.82487754085196	44.72999999999999	0.0
C 	27.054633614225864	45.43999999999999	0.0
C 	28.284389687599766	44.72999999999999	0.0
C 	29.514145760973673	45.43999999999999	0.0
C 	30.743901834347568	44.72999999999999	0.0
C 	31.97365790772147	45.43999999999999	0.0
C 	33.20341398109537	44.72999999999999	0.0
C 	34.43317005446928	45.43999999999999	0.0
C 	35.662926127843185	44.72999999999999	0.0
C 	36.892682201217085	45.43999999999999	0.0
C 	38.122438274590984	44.72999999999999	0.0
C 	39.35219434796489	45.43999999999999	0.0
C 	40.581950421338796	44.72999999999999	0.0
C 	41.811706494712695	45.43999999999999	0.0
C 	43.0414625680866	44.72999999999999	0.0
C 	44.27121864146051	45.43999999999999	0.0
C 	45.500974714834406	44.72999999999999	0.0
C 	46.730730788208305	45.43999999999999	0.0
C 	47.960486861582204	44.72999999999999	0.0
C 	49.19024293495611	45.43999999999998	0.0
C 	50.41999900833002	44.72999999999999	0.0
C 	51.64975508170391	45.43999999999998	0.0
C 	52.87951115507782	44.72999999999999	0.0
C 	54.10926722845172	45.43999999999999	0.0
C 	55.33902330182562	44.72999999999998	0.0
C 	56.568779375199526	45.43999999999998	0.0
C 	57.798535448573425	44.72999999999998	0.0
C 	59.02829152194734	45.43999999999999	0.0
C 	60.25804759532124	44.72999999999999	0.0
C 	61.48780366869514	45.43999999999999	0.0
C 	62.717559742069035	44.72999999999998	0.0
C 	63.94731581544294	45.43999999999998	0.0
C 	65.17707188881685	44.72999999999999	0.0
C 	66.40682796219075	45.43999999999998	0.0
C 	67.63658403556465	44.72999999999999	0.0
C 	68.86634010893856	45.43999999999999	0.0
C 	70.09609618231245	44.72999999999999	0.0
C 	71.32585225568636	45.43999999999998	0.0
C 	72.55560832906026	44.72999999999998	0.0
C 	73.78536440243417	45.43999999999999	0.0
C 	75.01512047580806	44.72999999999998	0.0
C 	76.24487654918198	45.43999999999999	0.0
C 	77.47463262255587	44.72999999999999	0.0
C 	78.70438869592978	45.43999999999999	0.0
C 	79.93414476930369	44.72999999999999	0.0
C 	81.16390084267758	45.43999999999998	0.0
C 	82.39365691605148	44.72999999999999	0.0
C 	83.62341298942538	45.43999999999998	0.0
C 	84.8531690627993	44.72999999999998	0.0
C 	86.08292513617319	45.43999999999998	0.0
C 	27.054633614225864	46.85999999999999	0.0
C 	28.28438968759977	47.56999999999999	0.0
C 	29.514145760973673	46.85999999999999	0.0
C 	30.74390183434758	47.56999999999999	0.0
C 	31.973657907721474	46.85999999999999	0.0
C 	33.20341398109538	47.56999999999999	0.0
C 	34.43317005446928	46.85999999999999	0.0
C 	35.662926127843185	47.56999999999999	0.0
C 	36.892682201217085	46.85999999999999	0.0
C 	38.122438274590984	47.56999999999999	0.0
C 	39.35219434796489	46.85999999999999	0.0
C 	40.581950421338796	47.56999999999999	0.0
C 	41.8117064947127	46.85999999999999	0.0
C 	43.0414625680866	47.56999999999999	0.0
C 	44.2712186414605	46.85999999999999	0.0
C 	45.500974714834406	47.56999999999999	0.0
C 	46.73073078820831	46.859999999999985	0.0
C 	47.960486861582204	47.569999999999986	0.0
C 	49.19024293495612	46.85999999999999	0.0
C 	50.41999900833002	47.56999999999999	0.0
C 	51.649755081703915	46.859999999999985	0.0
C 	52.87951115507782	47.569999999999986	0.0
C 	54.10926722845172	46.859999999999985	0.0
C 	55.339023301825634	47.56999999999999	0.0
C 	56.56877937519953	46.85999999999999	0.0
C 	57.79853544857344	47.56999999999999	0.0
C 	59.02829152194733	46.859999999999985	0.0
C 	60.25804759532124	47.569999999999986	0.0
C 	61.48780366869515	46.85999999999999	0.0
C 	62.71755974206904	47.569999999999986	0.0
C 	63.94731581544295	46.85999999999999	0.0
C 	65.17707188881685	47.56999999999999	0.0
C 	66.40682796219075	46.859999999999985	0.0
C 	67.63658403556465	47.569999999999986	0.0
C 	68.86634010893856	46.859999999999985	0.0
C 	70.09609618231246	47.56999999999999	0.0
C 	71.32585225568636	46.859999999999985	0.0
C 	72.55560832906028	47.56999999999999	0.0
C 	73.78536440243417	46.859999999999985	0.0
C 	75.01512047580808	47.569999999999986	0.0
C 	76.24487654918197	46.859999999999985	0.0
C 	77.47463262255587	47.569999999999986	0.0
C 	78.70438869592978	46.85999999999999	0.0
C 	79.93414476930367	47.569999999999986	0.0
C 	81.16390084267758	46.85999999999999	0.0
C 	82.39365691605148	47.56999999999999	0.0
C 	83.62341298942539	46.859999999999985	0.0
C 	84.8531690627993	47.569999999999986	0.0
C 	86.08292513617319	46.85999999999998	0.0
C 	87.31268120954711	47.569999999999986	0.0
C 	28.284389687599763	48.98999999999999	0.0
C 	29.51414576097367	49.69999999999999	0.0
C 	30.74390183434757	48.98999999999999	0.0
C 	31.973657907721478	49.69999999999999	0.0
C 	33.20341398109537	48.98999999999999	0.0
C 	34.43317005446928	49.69999999999999	0.0
C 	35.66292612784318	48.98999999999999	0.0
C 	36.892682201217085	49.69999999999999	0.0
C 	38.122438274590984	48.98999999999999	0.0
C 	39.35219434796488	49.69999999999999	0.0
C 	40.58195042133879	48.98999999999999	0.0
C 	41.811706494712695	49.69999999999999	0.0
C 	43.041462568086594	48.98999999999999	0.0
C 	44.2712186414605	49.69999999999999	0.0
C 	45.5009747148344	48.98999999999999	0.0
C 	46.730730788208305	49.69999999999998	0.0
C 	47.96048686158221	48.98999999999999	0.0
C 	49.1902429349561	49.69999999999998	0.0
C 	50.41999900833002	48.98999999999999	0.0
C 	51.64975508170392	49.69999999999999	0.0
C 	52.879511155077815	48.98999999999999	0.0
C 	54.10926722845172	49.69999999999999	0.0
C 	55.33902330182562	48.98999999999998	0.0
C 	56.56877937519953	49.69999999999999	0.0
C 	57.79853544857343	48.98999999999999	0.0
C 	59.02829152194734	49.69999999999999	0.0
C 	60.25804759532124	48.98999999999999	0.0
C 	61.487803668695136	49.69999999999999	0.0
C 	62.71755974206905	48.98999999999999	0.0
C 	63.94731581544294	49.69999999999998	0.0
C 	65.17707188881685	48.98999999999999	0.0
C 	66.40682796219075	49.69999999999999	0.0
C 	67.63658403556465	48.98999999999999	0.0
C 	68.86634010893856	49.69999999999999	0.0
C 	70.09609618231245	48.98999999999998	0.0
C 	71.32585225568637	49.69999999999999	0.0
C 	72.55560832906025	48.98999999999998	0.0
C 	73.78536440243417	49.69999999999999	0.0
C 	75.01512047580806	48.98999999999999	0.0
C 	76.24487654918197	49.69999999999999	0.0
C 	77.47463262255587	48.98999999999998	0.0
C 	78.70438869592978	49.69999999999998	0.0
C 	79.93414476930369	48.98999999999999	0.0
C 	81.16390084267758	49.69999999999998	0.0
C 	82.39365691605148	48.98999999999999	0.0
C 	83.62341298942539	49.69999999999999	0.0
C 	84.85316906279928	48.98999999999998	0.0
C 	86.08292513617319	49.69999999999998	0.0
C 	87.3126812095471	48.98999999999998	0.0
C 	88.542437282921	49.69999999999999	0.0
C 	29.51414576097367	51.11999999999999	0.0
C 	30.74390183434757	51.82999999999999	0.0
C 	31.973657907721474	51.11999999999999	0.0
C 	33.20341398109538	51.82999999999999	0.0
C 	34.43317005446928	51.11999999999999	0.0
C 	35.66292612784318	51.82999999999999	0.0
C 	36.892682201217085	51.11999999999999	0.0
C 	38.12243827459099	51.82999999999999	0.0
C 	39.35219434796489	51.12	0.0
C 	40.581950421338796	51.83	0.0
C 	41.811706494712695	51.11999999999999	0.0
C 	43.041462568086594	51.82999999999999	0.0
C 	44.2712186414605	51.12	0.0
C 	45.5009747148344	51.82999999999999	0.0
C 	46.73073078820831	51.11999999999999	0.0
C 	47.96048686158221	51.82999999999999	0.0
C 	49.19024293495611	51.11999999999999	0.0
C 	50.41999900833002	51.82999999999999	0.0
C 	51.649755081703915	51.11999999999998	0.0
C 	52.879511155077815	51.829999999999984	0.0
C 	54.10926722845171	51.11999999999999	0.0
C 	55.33902330182563	51.83	0.0
C 	56.568779375199526	51.11999999999999	0.0
C 	57.79853544857343	51.82999999999999	0.0
C 	59.02829152194733	51.11999999999999	0.0
C 	60.25804759532124	51.82999999999999	0.0
C 	61.48780366869514	51.11999999999999	0.0
C 	62.717559742069035	51.829999999999984	0.0
C 	63.94731581544295	51.11999999999999	0.0
C 	65.17707188881685	51.82999999999999	0.0
C 	66.40682796219075	51.11999999999999	0.0
C 	67.63658403556465	51.82999999999999	0.0
C 	68.86634010893854	51.11999999999998	0.0
C 	70.09609618231246	51.82999999999999	0.0
C 	71.32585225568636	51.11999999999999	0.0
C 	72.55560832906026	51.82999999999999	0.0
C 	73.78536440243417	51.11999999999999	0.0
C 	75.01512047580806	51.82999999999999	0.0
C 	76.24487654918198	51.11999999999999	0.0
C 	77.47463262255587	51.829999999999984	0.0
C 	78.70438869592978	51.11999999999999	0.0
C 	79.93414476930367	51.829999999999984	0.0
C 	81.16390084267758	51.11999999999999	0.0
C 	82.39365691605148	51.82999999999999	0.0
C 	83.62341298942538	51.11999999999998	0.0
C 	84.8531690627993	51.82999999999999	0.0
C 	86.08292513617319	51.11999999999998	0.0
C 	87.3126812095471	51.82999999999999	0.0
C 	88.542437282921	51.11999999999998	0.0
C 	89.7721933562949	51.829999999999984	0.0
C 	51.844386892543945	-0.14404074499071737	2.15
C 	53.26407546307822	-0.11430250875634936	2.15
C 	53.94816568030266	1.1300529769059382	2.15
C 	55.36785425083694	1.1597912131403	2.15
C 	56.05194446806138	2.4041466988025877	2.15
C 	47.585321180941094	-0.23325545369381787	2.15
C 	49.00500975147538	-0.2035172174594565	2.15
C 	49.689099968699814	1.040838268202828	2.15
C 	51.1087885392341	1.070576504437199	2.15
C 	51.792878756458535	2.314931990099484	2.15
C 	53.21256732699282	2.3446702263338546	2.15
C 	53.896657544217256	3.5890257119961393	2.15
C 	55.316346114751525	3.6187639482305043	2.15
C 	56.00043633197596	4.863119433892789	2.15
C 	57.420124902510246	4.89285767012716	2.15
C 	58.10421511973468	6.1372131557894445	2.15
C 	43.32625546933825	-0.32247016239691834	2.15
C 	44.74594403987253	-0.2927319261625539	2.15
C 	45.43003425709697	0.9516235594997338	2.15
C 	46.84972282763125	0.9813617957341018	2.15
C 	47.533813044855684	2.2257172813963892	2.15
C 	48.95350161538997	2.255455517630751	2.15
C 	49.637591832614405	3.499811003293039	2.15
C 	51.05728040314869	3.529549239527403	2.15
C 	51.741370620373125	4.7739047251896904	2.15
C 	53.16105919090741	4.8036429614240586	2.15
C 	53.845149408131846	6.047998447086346	2.15
C 	55.26483797866612	6.077736683320708	2.15
C 	55.94892819589056	7.322092168982996	2.15
C 	57.368616766424836	7.351830405217364	2.15
C 	58.05270698364927	8.596185890879651	2.15
C 	59.47239555418356	8.62592412711402	2.15
C 	60.15648577140799	9.870279612776308	2.15
C 	39.06718975773541	-0.4116848711000197	2.15
C 	40.4868783282697	-0.3819466348656481	2.15
C 	41.170968545494134	0.8624088507966395	2.15
C 	42.59065711602841	0.8921470870309978	2.15
C 	43.27474733325285	2.1365025726932854	2.15
C 	44.694435903787124	2.166240808927657	2.15
C 	45.37852612101156	3.4105962945899444	2.15
C 	46.798214691545844	3.440334530824309	2.15
C 	47.48230490877028	4.684690016486597	2.15
C 	48.90199347930456	4.714428252720959	2.15
C 	49.586083696528995	5.958783738383246	2.15
C 	51.00577226706328	5.988521974617614	2.15
C 	51.689862484287715	7.2328774602799015	2.15
C 	53.109551054822	7.262615696514266	2.15
C 	53.793641272046436	8.506971182176553	2.15
C 	55.21332984258071	8.536709418410915	2.15
C 	55.89742005980515	9.781064904073203	2.15
C 	57.317108630339426	9.810803140307575	2.15
C 	58.00119884756386	11.055158625969863	2.15
C 	59.42088741809815	11.084896862204227	2.15
C 	60.104977635322584	12.329252347866515	2.15
C 	61.52466620585685	12.35899058410088	2.15
C 	62.20875642308129	13.603346069763168	2.15
C 	34.808124046132576	-0.5008995798031184	2.15
C 	36.22781261666686	-0.47116134356874906	2.15
C 	36.91190283389129	0.7731941420935354	2.15
C 	38.331591404425566	0.8029323783279003	2.15
C 	39.01568162165	2.047287863990185	2.15
C 	40.43537019218429	2.0770261002245523	2.15
C 	41.119460409408724	3.321381585886837	2.15
C 	42.539148979943	3.3511198221212055	2.15
C 	43.22323919716744	4.59547530778349	2.15
C 	44.64292776770172	4.625213544017858	2.15
C 	45.32701798492616	5.869569029680142	2.15
C 	46.746706555460435	5.8993072659145165	2.15
C 	47.43079677268487	7.143662751576801	2.15
C 	48.85048534321915	7.173400987811163	2.15
C 	49.534575560443585	8.417756473473448	2.15
C 	50.95426413097787	8.447494709707815	2.15
C 	51.638354348202306	9.6918501953701	2.15
C 	53.05804291873658	9.72158843160447	2.15
C 	53.74213313596102	10.965943917266758	2.15
C 	55.1618217064953	10.995682153501116	2.15
C 	55.84591192371973	12.240037639163404	2.15
C 	57.26560049425402	12.269775875397778	2.15
C 	57.94969071147845	13.514131361060059	2.15
C 	59.36937928201274	13.543869597294428	2.15
C 	60.053469499237174	14.788225082956716	2.15
C 	61.47315806977145	14.817963319191078	2.15
C 	62.15724828699589	16.062318804853366	2.15
C 	63.57693685753017	16.092057041087738	2.15
C 	64.26102707475461	17.33641252675002	2.15
C 	30.549058334529736	-0.5901142885062178	2.15
C 	31.968746905064016	-0.5603760522718513	2.15
C 	32.65283712228845	0.6839794333904332	2.15
C 	34.07252569282274	0.7137176696247994	2.15
C 	34.75661591004717	1.9580731552870871	2.15
C 	36.17630448058144	1.9878113915214568	2.15
C 	36.86039469780588	3.2321668771837446	2.15
C 	38.280083268340164	3.2619051134181043	2.15
C 	38.9641734855646	4.506260599080392	2.15
C 	40.38386205609888	4.53599883531476	2.15
C 	41.067952273323314	5.780354320977048	2.15
C 	42.48764084385759	5.810092557211406	2.15
C 	43.17173106108203	7.054448042873694	2.15
C 	44.59141963161631	7.084186279108065	2.15
C 	45.27550984884075	8.328541764770353	2.15
C 	46.69519841937503	8.358280001004717	2.15
C 	47.37928863659947	9.602635486667005	2.15
C 	48.79897720713374	9.63237372290137	2.15
C 	49.483067424358175	10.876729208563658	2.15
C 	50.90275599489246	10.906467444798022	2.15
C 	51.586846212116896	12.15082293046031	2.15
C 	53.00653478265118	12.180561166694675	2.15
C 	53.69062499987562	13.424916652356963	2.15
C 	55.110313570409886	13.454654888591328	2.15
C 	55.79440378763432	14.699010374253614	2.15
C 	57.2140923581686	14.728748610487983	2.15
C 	57.89818257539304	15.973104096150271	2.15
C 	59.31787114592733	16.002842332384635	2.15
C 	60.001961363151764	17.247197818046924	2.15
C 	61.42164993368604	17.27693605428129	2.15
C 	62.10574015091048	18.521291539943576	2.15
C 	63.52542872144476	18.55102977617794	2.15
C 	64.20951893866919	19.795385261840227	2.15
C 	65.62920750920347	19.8251234980746	2.15
C 	66.3132977264279	21.069478983736886	2.15
C 	26.289992622926892	-0.67932899720932	2.15
C 	27.709681193461176	-0.6495907609749554	2.15
C 	28.39377141068561	0.5947647246873307	2.15
C 	29.81345998121989	0.6245029609217021	2.15
C 	30.497550198444323	1.8688584465839866	2.15
C 	31.917238768978606	1.8985966828183527	2.15
C 	32.60132898620304	3.1429521684806403	2.15
C 	34.02101755673732	3.1726904047150053	2.15
C 	34.70510777396176	4.41704589037729	2.15
C 	36.12479634449604	4.446784126611659	2.15
C 	36.80888656172048	5.691139612273943	2.15
C 	38.228575132254754	5.7208778485083105	2.15
C 	38.912665349479184	6.965233334170595	2.15
C 	40.332353920013475	6.994971570404965	2.15
C 	41.016444137237904	8.239327056067248	2.15
C 	42.43613270777218	8.269065292301613	2.15
C 	43.12022292499662	9.513420777963898	2.15
C 	44.5399114955309	9.543159014198265	2.15
C 	45.22400171275534	10.787514499860551	2.15
C 	46.643690283289615	10.817252736094925	2.15
C 	47.32778050051405	12.06160822175721	2.15
C 	48.747469071048336	12.091346457991573	2.15
C 	49.43155928827277	13.335701943653856	2.15
C 	50.851247858807056	13.365440179888223	2.15
C 	51.535338076031486	14.60979566555051	2.15
C 	52.95502664656577	14.639533901784885	2.15
C 	53.6391168637902	15.883889387447166	2.15
C 	55.05880543432448	15.913627623681531	2.15
C 	55.74289565154892	17.157983109343814	2.15
C 	57.1625842220832	17.187721345578183	2.15
C 	57.846674439307634	18.432076831240472	2.15
C 	59.26636300984192	18.46181506747484	2.15
C 	59.950453227066355	19.706170553137124	2.15
C 	61.37014179760064	19.735908789371493	2.15
C 	62.05423201482507	20.980264275033772	2.15
C 	63.47392058535935	21.01000251126814	2.15
C 	64.15801080258379	22.25435799693043	2.15
C 	65.57769937311807	22.284096233164803	2.15
C 	66.2617895903425	23.528451718827085	2.15
C 	67.6814781608768	23.55818995506145	2.15
C 	68.36556837810122	24.802545440723733	2.15
C 	22.03092691132405	-0.7685437059124207	2.15
C 	23.450615481858332	-0.7388054696780512	2.15
C 	24.134705699082765	0.5055500159842349	2.15
C 	25.55439426961705	0.5352882522185995	2.15
C 	26.238484486841486	1.7796437378808856	2.15
C 	27.658173057375762	1.8093819741152521	2.15
C 	28.3422632746002	3.053737459777538	2.15
C 	29.761951845134483	3.0834756960119045	2.15
C 	30.44604206235892	4.327831181674192	2.15
C 	31.865730632893197	4.357569417908562	2.15
C 	32.549820850117634	5.601924903570846	2.15
C 	33.96950942065191	5.63166313980521	2.15
C 	34.65359963787635	6.876018625467497	2.15
C 	36.07328820841063	6.905756861701865	2.15
C 	36.75737842563507	8.150112347364153	2.15
C 	38.177066996169344	8.179850583598514	2.15
C 	38.86115721339378	9.4242060692608	2.15
C 	40.28084578392806	9.45394430549517	2.15
C 	40.964936001152495	10.698299791157458	2.15
C 	42.38462457168678	10.728038027391818	2.15
C 	43.068714788911215	11.972393513054106	2.15
C 	44.48840335944549	12.002131749288473	2.15
C 	45.17249357666993	13.246487234950761	2.15
C 	46.59218214720421	13.276225471185125	2.15
C 	47.27627236442865	14.520580956847413	2.15
C 	48.695960934962926	14.550319193081778	2.15
C 	49.380051152187356	15.794674678744066	2.15
C 	50.79973972272164	15.824412914978431	2.15
C 	51.48382993994608	17.068768400640717	2.15
C 	52.90351851048036	17.098506636875086	2.15
C 	53.5876087277048	18.342862122537372	2.15
C 	55.007297298239074	18.372600358771734	2.15
C 	55.69138751546351	19.616955844434024	2.15
C 	57.11107608599779	19.646694080668393	2.15
C 	57.795166303222224	20.89104956633068	2.15
C 	59.21485487375651	20.920787802565048	2.15
C 	59.898945090980945	22.165143288227334	2.15
C 	61.318633661515214	22.194881524461696	2.15
C 	62.00272387873965	23.439237010123986	2.15
C 	63.42241244927394	23.468975246358347	2.15
C 	64.10650266649839	24.713330732020637	2.15
C 	65.52619123703266	24.743068968255006	2.15
C 	66.21028145425709	25.987424453917296	2.15
C 	67.62997002479138	26.017162690151654	2.15
C 	68.31406024201581	27.26151817581394	2.15
C 	69.73374881255009	27.291256412048302	2.15
C 	70.41783902977453	28.53561189771059	2.15
C 	17.77186119972121	-0.8577584146155184	2.15
C 	19.19154977025549	-0.8280201783811537	2.15
C 	19.875639987479925	0.4163353072811324	2.15
C 	21.295328558014205	0.4460735435154989	2.15
C 	21.979418775238642	1.690429029177785	2.15
C 	23.399107345772922	1.7201672654121545	2.15
C 	24.08319756299736	2.9645227510744405	2.15
C 	25.50288613353164	2.994260987308807	2.15
C 	26.186976350756073	4.238616472971091	2.15
C 	27.606664921290356	4.2683547092054575	2.15
C 	28.290755138514793	5.512710194867745	2.15
C 	29.710443709049073	5.542448431102113	2.15
C 	30.39453392627351	6.786803916764401	2.15
C 	31.814222496807787	6.816542152998766	2.15
C 	32.498312714032224	8.06089763866105	2.15
C 	33.9180012845665	8.090635874895419	2.15
C 	34.60209150179094	9.334991360557707	2.15
C 	36.02178007232522	9.364729596792072	2.15
C 	36.70587028954966	10.60908508245436	2.15
C 	38.125558860083935	10.638823318688722	2.15
C 	38.80964907730837	11.88317880435101	2.15
C 	40.229337647842655	11.912917040585377	2.15
C 	40.91342786506709	13.157272526247665	2.15
C 	42.33311643560137	13.187010762482027	2.15
C 	43.017206652825806	14.431366248144315	2.15
C 	44.43689522336008	14.46110448437868	2.15
C 	45.12098544058452	15.705459970040968	2.15
C 	46.540674011118796	15.735198206275337	2.15
C 	47.22476422834323	16.979553691937625	2.15
C 	48.644452798877516	17.009291928171983	2.15
C 	49.32854301610195	18.25364741383427	2.15
C 	50.74823158663624	18.283385650068638	2.15
C 	51.432321803860674	19.527741135730924	2.15
C 	52.85201037439495	19.557479371965293	2.15
C 	53.53610059161939	20.801834857627583	2.15
C 	54.95578916215367	20.831573093861945	2.15
C 	55.63987937937811	22.07592857952423	2.15
C 	57.059567949912385	22.1056668157586	2.15
C 	57.74365816713682	23.350022301420886	2.15
C 	59.163346737671105	23.37976053765525	2.15
C 	59.84743695489554	24.624116023317537	2.15
C 	61.26712552542981	24.653854259551903	2.15
C 	61.95121574265425	25.898209745214192	2.15
C 	63.37090431318853	25.927947981448554	2.15
C 	64.05499453041297	27.172303467110844	2.15
C 	65.47468310094725	27.202041703345213	2.15
C 	66.15877331817168	28.4463971890075	2.15
C 	67.57846188870597	28.47613542524186	2.15
C 	68.26255210593041	29.720490910904147	2.15
C 	69.68224067646469	29.750229147138505	2.15
C 	70.36633089368912	30.994584632800795	2.15
C 	71.7860194642234	31.02432286903517	2.15
C 	72.47010968144784	32.26867835469746	2.15
C 	13.51279548811837	-0.9469731233186199	2.15
C 	14.93248405865265	-0.9172348870842519	2.15
C 	15.616574275877086	0.32712059857803416	2.15
C 	17.03626284641137	0.3568588348123997	2.15
C 	17.7203530636358	1.6012143204746858	2.15
C 	19.140041634170082	1.6309525567090521	2.15
C 	19.82413185139452	2.8753080423713384	2.15
C 	21.243820421928795	2.905046278605703	2.15
C 	21.927910639153232	4.1494017642679895	2.15
C 	23.347599209687516	4.1791400005023585	2.15
C 	24.03168942691195	5.423495486164643	2.15
C 	25.45137799744623	5.453233722399011	2.15
C 	26.135468214670666	6.697589208061299	2.15
C 	27.555156785204943	6.727327444295664	2.15
C 	28.23924700242938	7.971682929957948	2.15
C 	29.658935572963664	8.001421166192317	2.15
C 	30.3430257901881	9.245776651854602	2.15
C 	31.76271436072238	9.27551488808897	2.15
C 	32.446804577946814	10.519870373751258	2.15
C 	33.8664931484811	10.549608609985622	2.15
C 	34.55058336570553	11.793964095647906	2.15
C 	35.97027193623981	11.823702331882279	2.15
C 	36.65436215346425	13.068057817544563	2.15
C 	38.074050723998525	13.097796053778925	2.15
C 	38.75814094122296	14.342151539441211	2.15
C 	40.177829511757245	14.371889775675582	2.15
C 	40.86191972898168	15.616245261337866	2.15
C 	42.28160829951596	15.645983497572233	2.15
C 	42.965698516740396	16.890338983234514	2.15
C 	44.38538708727467	16.920077219468883	2.15
C 	45.06947730449911	18.164432705131173	2.15
C 	46.48916587503339	18.194170941365545	2.15
C 	47.17325609225782	19.438526427027824	2.15
C 	48.59294466279211	19.468264663262193	2.15
C 	49.27703488001654	20.712620148924476	2.15
C 	50.69672345055082	20.742358385158838	2.15
C 	51.38081366777526	21.986713870821127	2.15
C 	52.80050223830955	22.0164521070555	2.15
C 	53.484592455533985	23.260807592717782	2.15
C 	54.90428102606826	23.29054582895215	2.15
C 	55.58837124329269	24.53490131461443	2.15
C 	57.00805981382697	24.564639550848803	2.15
C 	57.692150031051405	25.808995036511092	2.15
C 	59.111838601585696	25.83873327274546	2.15
C 	59.795928818810125	27.083088758407744	2.15
C 	61.2156173893444	27.11282699464211	2.15
C 	61.89970760656884	28.35718248030439	2.15
C 	63.319396177103116	28.38692071653876	2.15
C 	64.00348639432755	29.631276202201047	2.15
C 	65.42317496486183	29.661014438435423	2.15
C 	66.10726518208627	30.905369924097702	2.15
C 	67.52695375262056	30.935108160332067	2.15
C 	68.211043969845	32.179463645994346	2.15
C 	69.63073254037927	32.20920188222872	2.15
C 	70.31482275760371	33.453557367891	2.15
C 	71.734511328138	33.48329560412538	2.15
C 	72.41860154536243	34.72765108978766	2.15
C 	73.83829011589671	34.75738932602203	2.15
C 	74.52238033312115	36.00174481168432	2.15
C 	11.357508564274243	0.23790588987493266	2.15
C 	12.777197134808524	0.2676441261092998	2.15
C 	13.46128735203296	1.511999611771586	2.15
C 	14.880975922567242	1.5417378480059523	2.15
C 	15.565066139791679	2.78609333366824	2.15
C 	16.984754710325955	2.815831569902605	2.15
C 	17.668844927550392	4.060187055564892	2.15
C 	19.088533498084672	4.089925291799257	2.15
C 	19.77262371530911	5.334280777461544	2.15
C 	21.19231228584339	5.364019013695909	2.15
C 	21.876402503067826	6.608374499358196	2.15
C 	23.296091073602106	6.638112735592562	2.15
C 	23.98018129082654	7.88246822125485	2.15
C 	25.39986986136082	7.912206457489216	2.15
C 	26.083960078585257	9.156561943151504	2.15
C 	27.503648649119537	9.186300179385867	2.15
C 	28.187738866343974	10.430655665048155	2.15
C 	29.607427436878254	10.460393901282524	2.15
C 	30.29151765410269	11.704749386944812	2.15
C 	31.71120622463697	11.734487623179174	2.15
C 	32.39529644186141	12.978843108841462	2.15
C 	33.81498501239569	13.008581345075827	2.15
C 	34.499075229620125	14.252936830738115	2.15
C 	35.9187638001544	14.282675066972482	2.15
C 	36.60285401737884	15.52703055263477	2.15
C 	38.022542587913115	15.556768788869132	2.15
C 	38.70663280513755	16.801124274531418	2.15
C 	40.126321375671836	16.830862510765787	2.15
C 	40.81041159289627	18.075217996428073	2.15
C 	42.23010016343055	18.104956232662435	2.15
C 	42.914190380654986	19.349311718324724	2.15
C 	44.33387895118926	19.37904995455909	2.15
C 	45.0179691684137	20.62340544022138	2.15
C 	46.43765773894798	20.653143676455745	2.15
C 	47.12174795617242	21.897499162118034	2.15
C 	48.5414365267067	21.927237398352393	2.15
C 	49.225526743931134	23.171592884014682	2.15
C 	50.64521531446542	23.201331120249048	2.15
C 	51.329305531689855	24.445686605911334	2.15
C 	52.74899410222413	24.475424842145703	2.15
C 	53.43308431944857	25.71978032780799	2.15
C 	54.85277288998285	25.74951856404235	2.15
C 	55.53686310720729	26.99387404970464	2.15
C 	56.956551677741565	27.023612285939006	2.15
C 	57.640641894966	28.267967771601295	2.15
C 	59.060330465500286	28.29770600783566	2.15
C 	59.74442068272472	29.54206149349795	2.15
C 	61.16410925325899	29.571799729732312	2.15
C 	61.84819947048343	30.8161552153946	2.15
C 	63.26788804101771	30.845893451628964	2.15
C 	63.95197825824215	32.09024893729125	2.15
C 	65.37166682877643	32.11998717352562	2.15
C 	66.05575704600086	33.36434265918791	2.15
C 	67.47544561653514	33.39408089542227	2.15
C 	68.15953583375958	34.63843638108456	2.15
C 	69.57922440429387	34.66817461731892	2.15
C 	70.2633146215183	35.91253010298121	2.15
C 	71.68300319205258	35.94226833921558	2.15
C 	72.36709340927702	37.18662382487787	2.15
C 	73.78678197981131	37.21636206111223	2.15
C 	74.47087219703575	38.46071754677451	2.15
C 	75.89056076757001	38.490455783008876	2.15
C 	76.57465098479445	39.734811268671166	2.15
C 	7.098442852671403	0.14869118117183305	2.15
C 	8.518131423205684	0.17842941740619986	2.15
C 	9.20222164043012	1.4227849030684858	2.15
C 	10.621910210964398	1.4525231393028515	2.15
C 	11.306000428188835	2.6968786249651377	2.15
C 	12.725688998723115	2.7266168611995054	2.15
C 	13.40977921594755	3.9709723468617915	2.15
C 	14.829467786481832	4.000710583096159	2.15
C 	15.513558003706269	5.245066068758445	2.15
C 	16.93324657424055	5.274804304992811	2.15
C 	17.617336791464982	6.519159790655097	2.15
C 	19.037025361999262	6.5488980268894625	2.15
C 	19.7211155792237	7.793253512551749	2.15
C 	21.14080414975798	7.822991748786117	2.15
C 	21.824894366982413	9.067347234448402	2.15
C 	23.244582937516697	9.097085470682773	2.15
C 	23.92867315474113	10.341440956345057	2.15
C 	25.34836172527541	10.371179192579419	2.15
C 	26.032451942499847	11.615534678241707	2.15
C 	27.45214051303413	11.645272914476076	2.15
C 	28.136230730258564	12.88962840013836	2.15
C 	29.555919300792848	12.91936663637273	2.15
C 	30.24000951801728	14.163722122035015	2.15
C 	31.659698088551558	14.19346035826938	2.15
C 	32.343788305775995	15.437815843931668	2.15
C 	33.76347687631028	15.467554080166034	2.15
C 	34.447567093534715	16.711909565828318	2.15
C 	35.867255664069	16.74164780206269	2.15
C 	36.551345881293436	17.986003287724976	2.15
C 	37.97103445182771	18.01574152395934	2.15
C 	38.65512466905215	19.260097009621628	2.15
C 	40.074813239586426	19.289835245855993	2.15
C 	40.758903456810856	20.534190731518276	2.15
C 	42.17859202734514	20.56392896775264	2.15
C 	42.86268224456957	21.808284453414924	2.15
C 	44.28237081510386	21.838022689649296	2.15
C 	44.9664610323283	23.082378175311586	2.15
C 	46.386149602862574	23.112116411545955	2.15
C 	47.07023982008701	24.356471897208234	2.15
C 	48.48992839062129	24.386210133442603	2.15
C 	49.174018607845724	25.630565619104885	2.15
C 	50.59370717838001	25.660303855339258	2.15
C 	51.277797395604445	26.904659341001544	2.15
C 	52.69748596613873	26.93439757723591	2.15
C 	53.381576183363165	28.178753062898192	2.15
C 	54.80126475389744	28.208491299132557	2.15
C 	55.48535497112187	29.45284678479484	2.15
C 	56.905043541656156	29.482585021029216	2.15
C 	57.58913375888059	30.726940506691506	2.15
C 	59.008822329414876	30.75667874292587	2.15
C 	59.692912546639306	32.00103422858815	2.15
C 	61.11260111717358	32.030772464822526	2.15
C 	61.79669133439802	33.2751279504848	2.15
C 	63.2163799049323	33.304866186719174	2.15
C 	63.90047012215674	34.549221672381464	2.15
C 	65.32015869269102	34.57895990861583	2.15
C 	66.00424890991545	35.82331539427811	2.15
C 	67.42393748044974	35.85305363051248	2.15
C 	68.10802769767417	37.09740911617476	2.15
C 	69.52771626820845	37.12714735240912	2.15
C 	70.21180648543289	38.37150283807141	2.15
C 	71.63149505596718	38.40124107430578	2.15
C 	72.31558527319162	39.64559655996807	2.15
C 	73.73527384372589	39.67533479620243	2.15
C 	74.41936406095033	40.91969028186472	2.15
C 	75.8390526314846	40.94942851809908	2.15
C 	76.52314284870903	42.193784003761365	2.15
C 	77.94283141924332	42.223522239995745	2.15
C 	78.62692163646776	43.46787772565803	2.15
C 	2.8393771410685607	0.05947647246873336	2.15
C 	4.259065711602842	0.08921470870309993	2.15
C 	4.943155928827277	1.333570194365386	2.15
C 	6.362844499361557	1.3633084305997527	2.15
C 	7.0469347165859935	2.6076639162620388	2.15
C 	8.466623287120274	2.6374021524964055	2.15
C 	9.15071350434471	3.8817576381586916	2.15
C 	10.57040207487899	3.9114958743930583	2.15
C 	11.254492292103425	5.155851360055343	2.15
C 	12.674180862637705	5.185589596289709	2.15
C 	13.358271079862142	6.429945081951997	2.15
C 	14.777959650396424	6.459683318186365	2.15
C 	15.462049867620857	7.70403880384865	2.15
C 	16.88173843815514	7.733777040083017	2.15
C 	17.565828655379576	8.978132525745302	2.15
C 	18.985517225913856	9.00787076197967	2.15
C 	19.66960744313829	10.252226247641953	2.15
C 	21.08929601367257	10.28196448387632	2.15
C 	21.773386230897003	11.526319969538605	2.15
C 	23.193074801431287	11.556058205772977	2.15
C 	23.877165018655724	12.800413691435262	2.15
C 	25.296853589190004	12.830151927669629	2.15
C 	25.98094380641444	14.074507413331913	2.15
C 	27.40063237694872	14.104245649566279	2.15
C 	28.084722594173154	15.348601135228563	2.15
C 	29.504411164707438	15.378339371462936	2.15
C 	30.18850138193187	16.622694857125218	2.15
C 	31.60818995246615	16.652433093359587	2.15
C 	32.292280169690585	17.896788579021873	2.15
C 	33.71196874022487	17.92652681525624	2.15
C 	34.396058957449306	19.170882300918525	2.15
C 	35.81574752798359	19.20062053715289	2.15
C 	36.499837745208026	20.44497602281518	2.15
C 	37.9195263157423	20.47471425904954	2.15
C 	38.60361653296673	21.719069744711827	2.15
C 	40.023305103501016	21.748807980946196	2.15
C 	40.70739532072545	22.993163466608483	2.15
C 	42.12708389125973	23.022901702842844	2.15
C 	42.81117410848417	24.267257188505134	2.15
C 	44.23086267901844	24.2969954247395	2.15
C 	44.91495289624288	25.541350910401786	2.15
C 	46.334641466777164	25.571089146636155	2.15
C 	47.0187316840016	26.81544463229844	2.15
C 	48.43842025453588	26.845182868532802	2.15
C 	49.122510471760314	28.089538354195092	2.15
C 	50.5421990422946	28.119276590429457	2.15
C 	51.226289259519035	29.363632076091747	2.15
C 	52.64597783005332	29.393370312326113	2.15
C 	53.330068047277756	30.637725797988402	2.15
C 	54.74975661781203	30.66746403422276	2.15
C 	55.43384683503647	31.911819519885047	2.15
C 	56.853535405570746	31.941557756119416	2.15
C 	57.53762562279518	33.185913241781705	2.15
C 	58.957314193329466	33.21565147801607	2.15
C 	59.6414044105539	34.46000696367836	2.15
C 	61.06109298108818	34.48974519991272	2.15
C 	61.74518319831262	35.73410068557501	2.15
C 	63.1648717688469	35.76383892180937	2.15
C 	63.84896198607134	37.00819440747166	2.15
C 	65.2686505566056	37.03793264370603	2.15
C 	65.95274077383006	38.282288129368325	2.15
C 	67.37242934436433	38.312026365602684	2.15
C 	68.05651956158877	39.55638185126497	2.15
C 	69.47620813212305	39.58612008749933	2.15
C 	70.16029834934749	40.83047557316162	2.15
C 	71.57998691988176	40.860213809395994	2.15
C 	72.2640771371062	42.10456929505828	2.15
C 	73.68376570764048	42.13430753129264	2.15
C 	74.36785592486491	43.37866301695493	2.15
C 	75.7875444953992	43.4084012531893	2.15
C 	76.47163471262364	44.65275673885158	2.15
C 	77.89132328315792	44.68249497508595	2.15
C 	78.57541350038235	45.92685046074824	2.15
C 	2.103778787758716	1.2740937218966528	2.15
C 	2.787869004983152	2.518449207558939	2.15
C 	4.207557575517432	2.5481874437933056	2.15
C 	4.8916477927418685	3.7925429294555917	2.15
C 	6.311336363276149	3.822281165689958	2.15
C 	6.995426580500585	5.066636651352244	2.15
C 	8.415115151034865	5.096374887586611	2.15
C 	9.0992053682593	6.340730373248897	2.15
C 	10.51889393879358	6.370468609483263	2.15
C 	11.202984156018017	7.614824095145549	2.15
C 	12.622672726552299	7.644562331379916	2.15
C 	13.306762943776734	8.888917817042202	2.15
C 	14.726451514311014	8.91865605327657	2.15
C 	15.41054173153545	10.163011538938854	2.15
C 	16.83023030206973	10.192749775173223	2.15
C 	17.514320519294166	11.43710526083551	2.15
C 	18.934009089828447	11.466843497069874	2.15
C 	19.61809930705288	12.711198982732158	2.15
C 	21.03778787758716	12.740937218966526	2.15
C 	21.721878094811597	13.985292704628813	2.15
C 	23.141566665345877	14.01503094086318	2.15
C 	23.825656882570314	15.259386426525468	2.15
C 	25.245345453104598	15.289124662759832	2.15
C 	25.92943567032903	16.533480148422118	2.15
C 	27.34912424086331	16.563218384656484	2.15
C 	28.03321445808775	17.807573870318773	2.15
C 	29.45290302862203	17.83731210655314	2.15
C 	30.136993245846465	19.081667592215428	2.15
C 	31.556681816380745	19.11140582844979	2.15
C 	32.24077203360518	20.355761314112076	2.15
C 	33.66046060413946	20.385499550346445	2.15
C 	34.344550821363896	21.62985503600873	2.15
C 	35.76423939189817	21.6595932722431	2.15
C 	36.44832960912261	22.903948757905386	2.15
C 	37.86801817965689	22.933686994139748	2.15
C 	38.55210839688133	24.178042479802034	2.15
C 	39.97179696741561	24.207780716036403	2.15
C 	40.655887184640044	25.45213620169869	2.15
C 	42.07557575517432	25.48187443793305	2.15
C 	42.75966597239876	26.72622992359534	2.15
C 	44.17935454293304	26.75596815982971	2.15
C 	44.86344476015748	28.000323645491996	2.15
C 	46.283133330691754	28.03006188172636	2.15
C 	46.96722354791619	29.27441736738865	2.15
C 	48.386912118450475	29.304155603623013	2.15
C 	49.07100233567491	30.5485110892853	2.15
C 	50.490690906209196	30.578249325519664	2.15
C 	51.17478112343363	31.822604811181954	2.15
C 	52.59446969396791	31.85234304741632	2.15
C 	53.278559911192346	33.09669853307861	2.15
C 	54.69824848172662	33.12643676931297	2.15
C 	55.38233869895106	34.37079225497526	2.15
C 	56.802027269485336	34.40053049120963	2.15
C 	57.48611748670977	35.64488597687191	2.15
C 	58.90580605724406	35.67462421310628	2.15
C 	59.589896274468494	36.91897969876857	2.15
C 	61.00958484500277	36.94871793500293	2.15
C 	61.69367506222721	38.19307342066522	2.15
C 	63.11336363276149	38.22281165689958	2.15
C 	63.79745384998592	39.46716714256186	2.15
C 	65.2171424205202	39.49690537879624	2.15
C 	65.90123263774464	40.74126086445853	2.15
C 	67.32092120827892	40.77099910069289	2.15
C 	68.00501142550335	42.01535458635517	2.15
C 	69.42469999603763	42.04509282258953	2.15
C 	70.10879021326207	43.28944830825182	2.15
C 	71.52847878379634	43.3191865444862	2.15
C 	72.21256900102078	44.56354203014849	2.15
C 	73.63225757155507	44.59328026638285	2.15
C 	74.31634778877951	45.83763575204513	2.15
C 	75.73603635931379	45.867373988279496	2.15
C 	2.0522706516733074	3.733066456986858	2.15
C 	2.7363608688977434	4.977421942649144	2.15
C 	4.1560494394320235	5.007160178883511	2.15
C 	4.84013965665646	6.251515664545797	2.15
C 	6.259828227190741	6.281253900780164	2.15
C 	6.943918444415176	7.52560938644245	2.15
C 	8.363607014949457	7.555347622676815	2.15
C 	9.047697232173892	8.799703108339104	2.15
C 	10.467385802708172	8.829441344573468	2.15
C 	11.151476019932607	10.073796830235755	2.15
C 	12.57116459046689	10.103535066470123	2.15
C 	13.255254807691324	11.347890552132407	2.15
C 	14.674943378225606	11.377628788366774	2.15
C 	15.359033595450041	12.621984274029062	2.15
C 	16.77872216598432	12.651722510263426	2.15
C 	17.462812383208757	13.896077995925713	2.15
C 	18.882500953743037	13.925816232160079	2.15
C 	19.566591170967474	15.170171717822367	2.15
C 	20.986279741501754	15.19990995405673	2.15
C 	21.67036995872619	16.444265439719018	2.15
C 	23.09005852926047	16.474003675953387	2.15
C 	23.774148746484908	17.718359161615673	2.15
C 	25.193837317019184	17.74809739785004	2.15
C 	25.87792753424362	18.992452883512325	2.15
C 	27.2976161047779	19.02219111974669	2.15
C 	27.98170632200234	20.266546605408976	2.15
C 	29.40139489253662	20.296284841643345	2.15
C 	30.085485109761056	21.540640327305628	2.15
C 	31.505173680295336	21.570378563539997	2.15
C 	32.18926389751977	22.814734049202283	2.15
C 	33.60895246805405	22.84447228543665	2.15
C 	34.293042685278486	24.088827771098934	2.15
C 	35.71273125581277	24.118566007333307	2.15
C 	36.3968214730372	25.36292149299559	2.15
C 	37.81651004357148	25.392659729229955	2.15
C 	38.50060026079591	26.637015214892237	2.15
C 	39.920288831330204	26.66675345112661	2.15
C 	40.604379048554634	27.911108936788892	2.15
C 	42.02406761908892	27.94084717302326	2.15
C 	42.70815783631335	29.18520265868554	2.15
C 	44.12784640684763	29.214940894919916	2.15
C 	44.81193662407207	30.459296380582195	2.15
C 	46.23162519460635	30.48903461681657	2.15
C 	46.91571541183078	31.733390102478854	2.15
C 	48.335403982365065	31.76312833871322	2.15
C 	49.019494199589495	33.0074838243755	2.15
C 	50.439182770123786	33.03722206060987	2.15
C 	51.123272987348216	34.28157754627215	2.15
C 	52.5429615578825	34.311315782506526	2.15
C 	53.227051775106936	35.55567126816881	2.15
C 	54.64674034564121	35.58540950440318	2.15
C 	55.33083056286565	36.829764990065456	2.15
C 	56.750519133399926	36.859503226299836	2.15
C 	57.43460935062436	38.10385871196211	2.15
C 	58.85429792115865	38.13359694819649	2.15
C 	59.53838813838308	39.37795243385877	2.15
C 	60.95807670891736	39.40769067009314	2.15
C 	61.64216692614179	40.65204615575542	2.15
C 	63.06185549667608	40.681784391989794	2.15
C 	63.74594571390052	41.92613987765208	2.15
C 	65.16563428443479	41.95587811388644	2.15
C 	65.84972450165922	43.20023359954873	2.15
C 	67.2694130721935	43.22997183578309	2.15
C 	67.95350328941794	44.47432732144538	2.15
C 	69.37319185995223	44.50406555767974	2.15
C 	70.05728207717665	45.74842104334203	2.15
C 	71.47697064771094	45.7781592795764	2.15
C 	4.104541303346615	7.466132913973716	2.15
C 	4.788631520571051	8.710488399636002	2.15
C 	6.208320091105331	8.740226635870368	2.15
C 	6.892410308329768	9.984582121532656	2.15
C 	8.312098878864047	10.014320357767023	2.15
C 	8.996189096088482	11.258675843429309	2.15
C 	10.415877666622762	11.288414079663674	2.15
C 	11.0999678838472	12.53276956532596	2.15
C 	12.519656454381481	12.562507801560328	2.15
C 	13.203746671605916	13.806863287222615	2.15
C 	14.623435242140198	13.836601523456983	2.15
C 	15.307525459364633	15.080957009119267	2.15
C 	16.727214029898914	15.11069524535363	2.15
C 	17.41130424712335	16.35505073101592	2.15
C 	18.830992817657627	16.384788967250287	2.15
C 	19.515083034882064	17.62914445291257	2.15
C 	20.934771605416344	17.658882689146935	2.15
C 	21.61886182264078	18.90323817480922	2.15
C 	23.03855039317506	18.93297641104359	2.15
C 	23.7226406103995	20.177331896705876	2.15
C 	25.14232918093378	20.207070132940245	2.15
C 	25.826419398158215	21.451425618602528	2.15
C 	27.246107968692492	21.481163854836893	2.15
C 	27.93019818591693	22.725519340499183	2.15
C 	29.349886756451212	22.75525757673355	2.15
C 	30.03397697367565	23.999613062395838	2.15
C 	31.453665544209926	24.029351298630203	2.15
C 	32.13775576143436	25.273706784292486	2.15
C 	33.55744433196864	25.30344502052685	2.15
C 	34.24153454919308	26.54780050618914	2.15
C 	35.66122311972736	26.577538742423506	2.15
C 	36.3453133369518	27.821894228085796	2.15
C 	37.765001907486074	27.851632464320158	2.15
C 	38.44909212471051	29.095987949982444	2.15
C 	39.86878069524479	29.125726186216813	2.15
C 	40.552870912469224	30.3700816718791	2.15
C 	41.97255948300351	30.39981990811346	2.15
C 	42.656649700227945	31.644175393775747	2.15
C 	44.07633827076222	31.673913630010116	2.15
C 	44.76042848798666	32.9182691156724	2.15
C 	46.18011705852094	32.948007351906774	2.15
C 	46.86420727574538	34.19236283756906	2.15
C 	48.283895846279655	34.22210107380342	2.15
C 	48.96798606350409	35.46645655946571	2.15
C 	50.38767463403837	35.49619479570008	2.15
C 	51.071764851262806	36.74055028136236	2.15
C 	52.49145342179709	36.77028851759673	2.15
C 	53.17554363902153	38.014644003259015	2.15
C 	54.5952322095558	38.04438223949338	2.15
C 	55.27932242678024	39.28873772515566	2.15
C 	56.69901099731452	39.318475961390035	2.15
C 	57.383101214538954	40.562831447052325	2.15
C 	58.80278978507324	40.59256968328669	2.15
C 	59.486880002297674	41.83692516894897	2.15
C 	60.90656857283195	41.866663405183346	2.15
C 	61.59065879005638	43.11101889084562	2.15
C 	63.01034736059067	43.14075712707999	2.15
C 	63.69443757781511	44.385112612742276	2.15
C 	65.11412614834938	44.414850848976656	2.15
C 	65.79821636557382	45.659206334638945	2.15
C 	67.2179049361081	45.6889445708733	2.15
C 	6.156811955019922	11.199199370960574	2.15
C 	6.840902172244358	12.44355485662286	2.15
C 	8.26059074277864	12.473293092857228	2.15
C 	8.944680960003074	13.717648578519512	2.15
C 	10.364369530537354	13.747386814753881	2.15
C 	11.04845974776179	14.991742300416165	2.15
C 	12.468148318296072	15.021480536650532	2.15
C 	13.152238535520507	16.26583602231282	2.15
C 	14.571927106054789	16.295574258547187	2.15
C 	15.256017323279224	17.53992974420947	2.15
C 	16.675705893813504	17.56966798044384	2.15
C 	17.359796111037937	18.814023466106125	2.15
C 	18.77948468157222	18.84376170234049	2.15
C 	19.463574898796654	20.088117188002776	2.15
C 	20.883263469330934	20.117855424237142	2.15
C 	21.567353686555368	21.362210909899428	2.15
C 	22.98704225708965	21.3919491461338	2.15
C 	23.671132474314085	22.636304631796083	2.15
C 	25.09082104484837	22.66604286803045	2.15
C 	25.774911262072806	23.910398353692734	2.15
C 	27.194599832607086	23.9401365899271	2.15
C 	27.878690049831523	25.18449207558939	2.15
C 	29.298378620365803	25.21423031182376	2.15
C 	29.98246883759024	26.458585797486045	2.15
C 	31.402157408124516	26.488324033720406	2.15
C 	32.08624762534895	27.732679519382692	2.15
C 	33.50593619588324	27.76241775561706	2.15
C 	34.190026413107674	29.006773241279348	2.15
C 	35.60971498364195	29.036511477513717	2.15
C 	36.29380520086639	30.280866963176003	2.15
C 	37.713493771400664	30.310605199410364	2.15
C 	38.3975839886251	31.55496068507265	2.15
C 	39.817272559159385	31.58469892130702	2.15
C 	40.50136277638382	32.829054406969306	2.15
C 	41.9210513469181	32.85879264320367	2.15
C 	42.605141564142535	34.10314812886596	2.15
C 	44.02483013467682	34.132886365100326	2.15
C 	44.708920351901256	35.37724185076261	2.15
C 	46.12860892243553	35.40698008699698	2.15
C 	46.81269913965997	36.651335572659264	2.15
C 	48.232387710194246	36.68107380889363	2.15
C 	48.91647792741868	37.92542929455592	2.15
C 	50.336166497952966	37.955167530790284	2.15
C 	51.0202567151774	39.19952301645257	2.15
C 	52.43994528571168	39.22926125268694	2.15
C 	53.12403550293612	40.47361673834923	2.15
C 	54.54372407347039	40.50335497458359	2.15
C 	55.22781429069483	41.74771046024588	2.15
C 	56.647502861229114	41.77744869648024	2.15
C 	57.331593078453544	43.021804182142525	2.15
C 	58.751281648987835	43.0515424183769	2.15
C 	59.43537186621227	44.29589790403919	2.15
C 	60.85506043674654	44.325636140273545	2.15
C 	61.53915065397098	45.569991625935835	2.15
C 	62.958839224505255	45.59972986217019	2.15
C 	63.64292944172969	46.84408534783248	2.15
C 	65.06261801226397	46.873823584066855	2.15
C 	10.312861394451945	16.206359549844084	2.15
C 	10.99695161167638	17.45071503550637	2.15
C 	12.416640182210662	17.480453271740735	2.15
C 	13.100730399435099	18.724808757403025	2.15
C 	14.520418969969379	18.75454699363739	2.15
C 	15.204509187193816	19.99890247929968	2.15
C 	16.624197757728094	20.028640715534046	2.15
C 	17.30828797495253	21.272996201196328	2.15
C 	18.72797654548681	21.302734437430697	2.15
C 	19.412066762711248	22.547089923092983	2.15
C 	20.831755333245525	22.57682815932735	2.15
C 	21.51584555046996	23.82118364498963	2.15
C 	22.935534121004242	23.850921881224004	2.15
C 	23.61962433822868	25.095277366886286	2.15
C 	25.039312908762962	25.125015603120655	2.15
C 	25.7234031259874	26.36937108878294	2.15
C 	27.143091696521676	26.399109325017303	2.15
C 	27.82718191374611	27.643464810679593	2.15
C 	29.246870484280397	27.673203046913965	2.15
C 	29.93096070150483	28.917558532576244	2.15
C 	31.35064927203911	28.947296768810613	2.15
C 	32.03473948926354	30.191652254472903	2.15
C 	33.45442805979783	30.22139049070726	2.15
C 	34.138518277022264	31.46574597636955	2.15
C 	35.55820684755655	31.495484212603923	2.15
C 	36.24229706478098	32.7398396982662	2.15
C 	37.661985635315254	32.769577934500575	2.15
C 	38.34607585253969	34.01393342016285	2.15
C 	39.765764423073975	34.04367165639722	2.15
C 	40.44985464029841	35.28802714205951	2.15
C 	41.86954321083269	35.31776537829387	2.15
C 	42.553633428057125	36.56212086395616	2.15
C 	43.97332199859141	36.59185910019053	2.15
C 	44.65741221581584	37.836214585852815	2.15
C 	46.07710078635012	37.86595282208718	2.15
C 	46.76119100357456	39.11030830774947	2.15
C 	48.180879574108836	39.14004654398383	2.15
C 	48.86496979133327	40.38440202964612	2.15
C 	50.28465836186756	40.41414026588049	2.15
C 	50.968748579091994	41.65849575154277	2.15
C 	52.38843714962627	41.68823398777714	2.15
C 	53.07252736685071	42.93258947343943	2.15
C 	54.492215937384984	42.96232770967379	2.15
C 	55.17630615460942	44.206683195336076	2.15
C 	56.595994725143704	44.23642143157045	2.15
C 	57.28008494236814	45.48077691723274	2.15
C 	58.699773512902425	45.5105151534671	2.15
C 	59.38386373012686	46.754870639129386	2.15
C 	60.80355230066113	46.78460887536375	2.15
C 	12.365132046125254	19.939426006830946	2.15
C 	13.049222263349689	21.183781492493228	2.15
C 	14.46891083388397	21.213519728727597	2.15
C 	15.153001051108404	22.45787521438988	2.15
C 	16.572689621642684	22.48761345062425	2.15
C 	17.25677983886712	23.731968936286535	2.15
C 	18.6764684094014	23.7617071725209	2.15
C 	19.360558626625835	25.006062658183186	2.15
C 	20.78024719716012	25.03580089441755	2.15
C 	21.464337414384552	26.28015638007984	2.15
C 	22.884025984918836	26.309894616314207	2.15
C 	23.568116202143273	27.554250101976496	2.15
C 	24.98780477267755	27.583988338210855	2.15
C 	25.671894989901986	28.828343823873144	2.15
C 	27.091583560436266	28.85808206010751	2.15
C 	27.775673777660703	30.1024375457698	2.15
C 	29.195362348194983	30.132175782004165	2.15
C 	29.87945256541942	31.376531267666454	2.15
C 	31.2991411359537	31.406269503900816	2.15
C 	31.983231353178137	32.650624989563106	2.15
C 	33.40291992371242	32.68036322579747	2.15
C 	34.087010140936854	33.92471871145976	2.15
C 	35.50669871147113	33.954456947694126	2.15
C 	36.19078892869557	35.198812433356416	2.15
C 	37.610477499229845	35.228550669590774	2.15
C 	38.29456771645428	36.472906155253064	2.15
C 	39.714256286988565	36.50264439148743	2.15
C 	40.398346504213	37.74699987714972	2.15
C 	41.81803507474728	37.77673811338408	2.15
C 	42.502125291971716	39.02109359904637	2.15
C 	43.92181386250599	39.05083183528073	2.15
C 	44.60590407973043	40.29518732094302	2.15
C 	46.02559265026471	40.32492555717739	2.15
C 	46.70968286748915	41.56928104283968	2.15
C 	48.129371438023426	41.599019279074035	2.15
C 	48.81346165524786	42.843374764736325	2.15
C 	50.23315022578215	42.87311300097069	2.15
C 	50.917240443006584	44.11746848663298	2.15
C 	52.33692901354087	44.147206722867345	2.15
C 	53.0210192307653	45.39156220852963	2.15
C 	54.44070780129958	45.421300444764	2.15
C 	55.12479801852401	46.665655930426276	2.15
C 	56.544486589058295	46.69539416666065	2.15
C 	14.41740269779856	23.6724924638178	2.15
C 	15.101492915022996	24.91684794948009	2.15
C 	16.52118148555728	24.946586185714455	2.15
C 	17.20527170278171	26.19094167137674	2.15
C 	18.624960273315992	26.220679907611107	2.15
C 	19.30905049054043	27.465035393273393	2.15
C 	20.72873906107471	27.494773629507762	2.15
C 	21.412829278299146	28.739129115170048	2.15
C 	22.832517848833426	28.768867351404417	2.15
C 	23.51660806605786	30.013222837066696	2.15
C 	24.936296636592143	30.042961073301065	2.15
C 	25.62038685381658	31.28731655896335	2.15
C 	27.04007542435086	31.31705479519772	2.15
C 	27.724165641575294	32.56141028086001	2.15
C 	29.143854212109577	32.591148517094375	2.15
C 	29.82794442933401	33.83550400275666	2.15
C 	31.24763299986829	33.86524223899102	2.15
C 	31.931723217092728	35.10959772465331	2.15
C 	33.35141178762701	35.13933596088768	2.15
C 	34.035502004851445	36.38369144654997	2.15
C 	35.45519057538572	36.41342968278433	2.15
C 	36.13928079261016	37.657785168446615	2.15
C 	37.55896936314444	37.68752340468098	2.15
C 	38.24305958036887	38.93187889034326	2.15
C 	39.662748150903155	38.961617126577636	2.15
C 	40.34683836812759	40.205972612239925	2.15
C 	41.76652693866187	40.235710848474284	2.15
C 	42.450617155886306	41.48006633413657	2.15
C 	43.87030572642059	41.50980457037094	2.15
C 	44.55439594364502	42.75416005603322	2.15
C 	45.9740845141793	42.7838982922676	2.15
C 	46.65817473140374	44.02825377792988	2.15
C 	48.07786330193802	44.05799201416425	2.15
C 	48.761953519162454	45.30234749982653	2.15
C 	50.18164208969674	45.3320857360609	2.15
C 	50.865732306921174	46.57644122172318	2.15
C 	52.28542087745546	46.60617945795755	2.15
C 	16.46967334947187	27.405558920804662	2.15
C 	17.153763566696302	28.649914406466944	2.15
C 	18.573452137230586	28.679652642701313	2.15
C 	19.25754235445502	29.9240081283636	2.15
C 	20.6772309249893	29.95374636459796	2.15
C 	21.361321142213736	31.19810185026025	2.15
C 	22.78100971274802	31.227840086494624	2.15
C 	23.465099929972453	32.472195572156906	2.15
C 	24.884788500506733	32.50193380839127	2.15
C 	25.56887871773117	33.74628929405356	2.15
C 	26.988567288265447	33.77602753028792	2.15
C 	27.672657505489884	35.02038301595021	2.15
C 	29.092346076024167	35.05012125218458	2.15
C 	29.7764362932486	36.294476737846864	2.15
C 	31.19612486378288	36.32421497408123	2.15
C 	31.880215081007318	37.56857045974352	2.15
C 	33.2999036515416	37.59830869597788	2.15
C 	33.983993868766035	38.84266418164017	2.15
C 	35.40368243930032	38.87240241787454	2.15
C 	36.08777265652475	40.11675790353682	2.15
C 	37.50746122705903	40.14649613977119	2.15
C 	38.19155144428346	41.39085162543347	2.15
C 	39.611240014817746	41.42058986166784	2.15
C 	40.29533023204218	42.664945347330125	2.15
C 	41.71501880257646	42.69468358356449	2.15
C 	42.399109019800896	43.93903906922677	2.15
C 	43.81879759033518	43.96877730546115	2.15
C 	44.50288780755961	45.21313279112343	2.15
C 	45.92257637809389	45.2428710273578	2.15
C 	46.60666659531833	46.48722651302008	2.15
C 	48.02635516585261	46.51696474925445	2.15
C 	18.521944001145172	31.138625377791513	2.15
C 	19.20603421836961	32.3829808634538	2.15
C 	20.62572278890389	32.41271909968817	2.15
C 	21.309813006128326	33.65707458535046	2.15
C 	22.729501576662607	33.68681282158482	2.15
C 	23.413591793887043	34.93116830724711	2.15
C 	24.833280364421324	34.96090654348147	2.15
C 	25.51737058164576	36.20526202914376	2.15
C 	26.93705915218004	36.235000265378126	2.15
C 	27.621149369404478	37.479355751040416	2.15
C 	29.040837939938758	37.50909398727478	2.15
C 	29.724928157163195	38.75344947293707	2.15
C 	31.14461672769747	38.78318770917143	2.15
C 	31.828706944921908	40.02754319483372	2.15
C 	33.24839551545619	40.05728143106809	2.15
C 	33.932485732680625	41.301636916730374	2.15
C 	35.35217430321491	41.33137515296474	2.15
C 	36.036264520439346	42.57573063862703	2.15
C 	37.45595309097362	42.605468874861394	2.15
C 	38.14004330819806	43.84982436052368	2.15
C 	39.559731878732336	43.87956259675805	2.15
C 	40.24382209595677	45.12391808242033	2.15
C 	41.66351066649105	45.1536563186547	2.15
C 	42.34760088371549	46.39801180431699	2.15
C 	43.76728945424977	46.42775004055135	2.15
C 	20.574214652818483	34.871691834778375	2.15
C 	21.258304870042917	36.11604732044066	2.15
C 	22.677993440577197	36.14578555667503	2.15
C 	23.362083657801634	37.39014104233731	2.15
C 	24.781772228335917	37.41987927857168	2.15
C 	25.465862445560347	38.66423476423396	2.15
C 	26.885551016094634	38.69397300046833	2.15
C 	27.569641233319068	39.938328486130615	2.15
C 	28.989329803853348	39.96806672236499	2.15
C 	29.673420021077785	41.21242220802727	2.15
C 	31.093108591612065	41.24216044426164	2.15
C 	31.7771988088365	42.48651592992392	2.15
C 	33.19688737937078	42.5162541661583	2.15
C 	33.880977596595216	43.76060965182057	2.15
C 	35.30066616712949	43.790347888054946	2.15
C 	35.98475638435393	45.034703373717235	2.15
C 	37.40444495488821	45.064441609951594	2.15
C 	38.08853517211265	46.30879709561388	2.15
C 	39.50822374264693	46.338535331848256	2.15
C 	22.62648530449179	38.604758291765236	2.15
C 	23.310575521716228	39.84911377742752	2.15
C 	24.730264092250508	39.87885201366189	2.15
C 	25.414354309474945	41.123207499324174	2.15
C 	26.83404288000922	41.15294573555854	2.15
C 	27.518133097233658	42.39730122122082	2.15
C 	28.93782166776794	42.427039457455194	2.15
C 	29.621911884992375	43.67139494311748	2.15
C 	31.04160045552666	43.70113317935185	2.15
C 	31.725690672751092	44.94548866501414	2.15
C 	33.14537924328537	44.9752269012485	2.15
C 	33.829469460509806	46.21958238691079	2.15
C 	35.24915803104409	46.24932062314515	2.15
C 	24.678755956165098	42.33782474875209	2.15
C 	25.362846173389535	43.58218023441438	2.15
C 	26.782534743923815	43.611918470648746	2.15
C 	27.466624961148252	44.856273956311036	2.15
C 	28.886313531682532	44.8860121925454	2.15
C 	29.57040374890697	46.13036767820769	2.15
C 	30.990092319441246	46.16010591444205	2.15
H 	51.319275387773075	-1.0992150262385278	2.15
H 	53.82872490329493	-1.0466495523313035	2.15
H 	55.932503691053654	0.22744416956534963	2.15
H 	57.14170541304896	2.4269739364754503	2.15
H 	47.060209676170224	-1.188429734941628	2.15
H 	49.56965919169208	-1.1358642610344114	2.15
H 	57.98477434272696	3.960510626552207	2.15
H 	59.193976064722264	6.160040393462302	2.15
H 	42.801143964567366	-1.2776444436447236	2.15
H 	45.31059348008924	-1.2250789697375088	2.15
H 	60.03704499440026	7.693577083539066	2.15
H 	61.246246716395575	9.893106850449168	2.15
H 	38.542078252964544	-1.3668591523478315	2.15
H 	41.051527768486416	-1.3142936784405967	2.15
H 	62.08931564607356	11.426643540525925	2.15
H 	63.29851736806887	13.626173307436034	2.15
H 	34.2830125413617	-1.4560738610509247	2.15
H 	36.79246205688358	-1.4035083871436975	2.15
H 	64.1415862977469	15.15970999751279	2.15
H 	65.3507880197422	17.359239764422874	2.15
H 	30.02394682975887	-1.5452885697540313	2.15
H 	32.53339634528073	-1.4927230958468052	2.15
H 	66.1938569494202	18.892776454499653	2.15
H 	67.4030586714155	21.092306221409743	2.15
H 	25.764881118156016	-1.6345032784571285	2.15
H 	28.274330633677888	-1.5819378045499075	2.15
H 	68.2461276010935	22.6258429114865	2.15
H 	69.45532932308879	24.82537267839659	2.15
H 	21.505815406553175	-1.7237179871602297	2.15
H 	24.015264922075048	-1.671152513253002	2.15
H 	70.2983982527668	26.358909368473352	2.15
H 	71.5075999747621	28.558439135383455	2.15
H 	17.24674969495034	-1.8129326958633287	2.15
H 	19.756199210472204	-1.760367221956106	2.15
H 	72.3506689044401	30.091975825460214	2.15
H 	73.55987062643541	32.291505592370314	2.15
H 	12.987683983347502	-1.9021474045664322	2.15
H 	15.497133498869362	-1.8495819306592045	2.15
H 	74.40293955611342	33.82504228244708	2.15
H 	75.61214127810872	36.02457204935719	2.15
H 	10.832397059503371	-0.7172683913728783	2.15
H 	76.4552102077867	37.55810873943392	2.15
H 	77.66441192978202	39.75763850634404	2.15
H 	6.573331347900534	-0.8064831000759785	2.15
H 	9.082780863422396	-0.7539176261687517	2.15
H 	78.50748085946005	41.2911751964208	2.15
H 	79.71668258145534	43.49070496333088	2.15
H 	2.31426563629769	-0.8956978087790777	2.15
H 	4.823715151819555	-0.8431323348718519	2.15
H 	1.0140178427711344	1.2512664842237942	2.15
H 	73.75169834856281	46.76998279562009	2.15
H 	76.26114786408465	46.82254826952731	2.15
H 	0.9625097066857256	3.7102392193139986	2.15
H 	2.1717114286810317	5.909768986224097	2.15
H 	69.49263263695991	46.68076808691696	2.15
H 	72.00208215248182	46.73333356082421	2.15
H 	3.014780358359033	7.443305676300857	2.15
H 	4.2239820803543395	9.642835443210956	2.15
H 	67.74301644087898	46.64411885212111	2.15
H 	5.0670510100323405	11.176372133287716	2.15
H 	6.276252732027645	13.375901900197812	2.15
H 	8.380031519786362	14.649995622094464	2.15
H 	63.07828000151299	47.77643239140744	2.15
H 	65.58772951703483	47.82899786531467	2.15
H 	9.223100449464363	16.183532312171227	2.15
H 	10.432302171459666	18.38306207908132	2.15
H 	58.81921428991016	47.68721768270434	2.15
H 	61.328663805431994	47.739783156611566	2.15
H 	11.275371101137672	19.916598769158092	2.15
H 	12.484572823132975	22.116128536068178	2.15
H 	54.56014857830729	47.59800297400122	2.15
H 	57.069598093829164	47.650568447908455	2.15
H 	13.327641752810978	23.649665226144936	2.15
H 	14.536843474806288	25.849194993055043	2.15
H 	50.301082866704455	47.50878826529813	2.15
H 	52.81053238222633	47.561353739205366	2.15
H 	15.379912404484287	27.38273168313181	2.15
H 	16.589114126479586	29.582261450041894	2.15
H 	46.04201715510162	47.41957355659504	2.15
H 	48.55146667062347	47.47213903050226	2.15
H 	17.43218305615759	31.115798140118645	2.15
H 	18.6413847781529	33.31532790702876	2.15
H 	41.78295144349877	47.33035884789194	2.15
H 	44.29240095902064	47.382924321799166	2.15
H 	19.4844537078309	34.84886459710552	2.15
H 	20.693655429826197	37.04839436401561	2.15
H 	37.52388573189594	47.24114413918884	2.15
H 	40.03333524741781	47.29370961309606	2.15
H 	21.53672435950421	38.58193105409239	2.15
H 	22.74592608149951	40.78146082100247	2.15
H 	33.2648200202931	47.151929430485744	2.15
H 	35.774269535814966	47.20449490439296	2.15
H 	23.588995011177516	42.314997511079234	2.15
H 	24.79819673317283	44.51452727798934	2.15
H 	26.90197552093154	45.788620999885985	2.15
H 	29.005754308690264	47.06271472178265	2.15
H 	31.51520382421212	47.115280195689856	2.15
