2354

C 	0.0	0.0	0.0
C 	1.2297560733739028	0.7099999999999999	0.0
C 	2.4595121467478056	-2.3647750424515833e-16	0.0
C 	3.689268220121708	0.7099999999999995	0.0
C 	4.919024293495611	-4.729550084903167e-16	0.0
C 	6.148780366869514	0.7099999999999993	0.0
C 	7.378536440243416	-7.09432512735475e-16	0.0
C 	8.60829251361732	0.7099999999999991	0.0
C 	9.838048586991222	-9.459100169806333e-16	0.0
C 	11.067804660365125	0.7099999999999989	0.0
C 	12.297560733739026	-1.1823875212257916e-15	0.0
C 	13.527316807112928	0.7099999999999986	0.0
C 	14.757072880486833	-1.41886502547095e-15	0.0
C 	15.986828953860735	0.7099999999999984	0.0
C 	17.21658502723464	-7.671641100159832e-16	0.0
C 	18.44634110060854	0.7099999999999982	0.0
C 	19.676097173982445	-1.8918200339612667e-15	0.0
C 	20.905853247356347	0.7099999999999989	0.0
C 	22.135609320730246	-2.128297538206425e-15	0.0
C 	23.36536539410415	0.7099999999999967	0.0
C 	24.59512146747805	-2.364775042451583e-15	0.0
C 	25.824877540851954	0.7099999999999983	0.0
C 	27.05463361422586	-8.248957072964913e-16	0.0
C 	28.284389687599763	0.7099999999999999	0.0
C 	29.514145760973665	-2.8377300509419e-15	0.0
C 	30.743901834347565	0.7099999999999961	0.0
C 	31.97365790772147	-3.0742075551870582e-15	0.0
C 	33.20341398109537	0.7099999999999976	0.0
C 	34.43317005446928	-1.5343282200319664e-15	0.0
C 	35.66292612784318	0.7099999999999992	0.0
C 	36.892682201217085	-1.7708057242771246e-15	0.0
C 	38.122438274590984	0.7099999999999972	0.0
C 	39.35219434796489	-3.783640067922533e-15	0.0
C 	40.58195042133879	0.7099999999999969	0.0
C 	41.811706494712695	-4.67403893367191e-16	0.0
C 	43.0414625680866	0.7100000000000002	0.0
C 	44.27121864146049	-4.25659507641285e-15	0.0
C 	45.5009747148344	0.7099999999999964	0.0
C 	46.730730788208305	-9.403589018575075e-16	0.0
C 	47.96048686158221	0.7099999999999997	0.0
C 	49.1902429349561	-4.729550084903166e-15	0.0
C 	50.41999900833001	0.709999999999996	0.0
C 	51.64975508170391	-1.413313910347824e-15	0.0
C 	52.879511155077815	0.7099999999999993	0.0
C 	54.10926722845172	-1.6497914145929826e-15	0.0
C 	55.33902330182562	0.7099999999999991	0.0
C 	56.56877937519952	-5.438982597638641e-15	0.0
C 	57.798535448573425	0.7099999999999953	0.0
C 	59.02829152194733	-5.6754601018838e-15	0.0
C 	60.25804759532124	0.709999999999995	0.0
C 	1.2297560733739028	2.1299999999999994	0.0
C 	2.4595121467478056	2.8399999999999994	0.0
C 	3.689268220121708	2.1299999999999994	0.0
C 	4.919024293495611	2.8399999999999994	0.0
C 	6.148780366869514	2.129999999999999	0.0
C 	7.378536440243416	2.839999999999999	0.0
C 	8.60829251361732	2.1299999999999986	0.0
C 	9.838048586991222	2.8399999999999985	0.0
C 	11.067804660365123	2.129999999999998	0.0
C 	12.297560733739028	2.839999999999999	0.0
C 	13.527316807112928	2.1299999999999977	0.0
C 	14.757072880486833	2.839999999999998	0.0
C 	15.986828953860735	2.129999999999998	0.0
C 	17.216585027234636	2.839999999999997	0.0
C 	18.446341100608542	2.129999999999998	0.0
C 	19.676097173982445	2.8399999999999985	0.0
C 	20.905853247356344	2.1299999999999977	0.0
C 	22.13560932073025	2.8399999999999985	0.0
C 	23.36536539410415	2.129999999999997	0.0
C 	24.595121467478055	2.839999999999997	0.0
C 	25.824877540851954	2.1299999999999963	0.0
C 	27.05463361422586	2.839999999999997	0.0
C 	28.284389687599763	2.129999999999998	0.0
C 	29.514145760973665	2.8399999999999985	0.0
C 	30.743901834347568	2.129999999999996	0.0
C 	31.97365790772147	2.8399999999999967	0.0
C 	33.20341398109537	2.129999999999996	0.0
C 	34.43317005446928	2.8399999999999963	0.0
C 	35.66292612784318	2.1299999999999972	0.0
C 	36.89268220121708	2.8399999999999963	0.0
C 	38.122438274590984	2.129999999999997	0.0
C 	39.35219434796489	2.8399999999999976	0.0
C 	40.58195042133879	2.1299999999999986	0.0
C 	41.81170649471269	2.839999999999996	0.0
C 	43.0414625680866	2.129999999999998	0.0
C 	44.2712186414605	2.8399999999999954	0.0
C 	45.5009747148344	2.129999999999998	0.0
C 	46.7307307882083	2.8399999999999954	0.0
C 	47.96048686158221	2.1299999999999977	0.0
C 	49.19024293495611	2.839999999999995	0.0
C 	50.41999900833001	2.1299999999999977	0.0
C 	51.64975508170391	2.8399999999999945	0.0
C 	52.879511155077815	2.1299999999999972	0.0
C 	54.10926722845171	2.8399999999999945	0.0
C 	55.33902330182563	2.130000000000001	0.0
C 	56.56877937519952	2.8399999999999976	0.0
C 	57.798535448573425	2.129999999999997	0.0
C 	59.028291521947324	2.839999999999994	0.0
C 	60.25804759532124	2.129999999999997	0.0
C 	61.487803668695136	2.8399999999999936	0.0
C 	2.4595121467478056	4.259999999999999	0.0
C 	3.689268220121708	4.969999999999999	0.0
C 	4.919024293495611	4.259999999999999	0.0
C 	6.148780366869514	4.969999999999999	0.0
C 	7.378536440243416	4.259999999999999	0.0
C 	8.60829251361732	4.969999999999999	0.0
C 	9.83804858699122	4.259999999999998	0.0
C 	11.067804660365125	4.969999999999999	0.0
C 	12.297560733739028	4.259999999999998	0.0
C 	13.52731680711293	4.969999999999998	0.0
C 	14.757072880486831	4.259999999999998	0.0
C 	15.986828953860735	4.969999999999998	0.0
C 	17.21658502723464	4.259999999999997	0.0
C 	18.446341100608542	4.969999999999998	0.0
C 	19.676097173982445	4.259999999999999	0.0
C 	20.905853247356347	4.969999999999997	0.0
C 	22.135609320730246	4.259999999999996	0.0
C 	23.365365394104153	4.969999999999997	0.0
C 	24.595121467478055	4.259999999999998	0.0
C 	25.824877540851958	4.969999999999997	0.0
C 	27.054633614225857	4.259999999999995	0.0
C 	28.28438968759976	4.969999999999996	0.0
C 	29.514145760973665	4.259999999999997	0.0
C 	30.743901834347568	4.969999999999997	0.0
C 	31.97365790772147	4.259999999999996	0.0
C 	33.20341398109537	4.969999999999995	0.0
C 	34.43317005446927	4.2599999999999945	0.0
C 	35.66292612784318	4.969999999999995	0.0
C 	36.892682201217085	4.259999999999996	0.0
C 	38.122438274590984	4.969999999999997	0.0
C 	39.35219434796489	4.259999999999997	0.0
C 	40.58195042133879	4.969999999999994	0.0
C 	41.81170649471269	4.259999999999995	0.0
C 	43.041462568086594	4.969999999999996	0.0
C 	44.2712186414605	4.259999999999997	0.0
C 	45.500974714834406	4.969999999999998	0.0
C 	46.7307307882083	4.259999999999994	0.0
C 	47.960486861582204	4.9699999999999935	0.0
C 	49.19024293495611	4.259999999999996	0.0
C 	50.41999900833001	4.969999999999997	0.0
C 	51.64975508170391	4.259999999999993	0.0
C 	52.879511155077815	4.9699999999999935	0.0
C 	54.10926722845171	4.259999999999996	0.0
C 	55.33902330182562	4.969999999999997	0.0
C 	56.568779375199526	4.259999999999996	0.0
C 	57.798535448573425	4.969999999999996	0.0
C 	59.028291521947324	4.259999999999995	0.0
C 	60.25804759532123	4.969999999999996	0.0
C 	61.487803668695136	4.259999999999992	0.0
C 	62.717559742069035	4.969999999999993	0.0
C 	3.6892682201217086	6.389999999999999	0.0
C 	4.919024293495611	7.099999999999999	0.0
C 	6.148780366869514	6.389999999999999	0.0
C 	7.378536440243416	7.099999999999999	0.0
C 	8.608292513617318	6.389999999999998	0.0
C 	9.838048586991222	7.099999999999999	0.0
C 	11.067804660365125	6.389999999999998	0.0
C 	12.297560733739028	7.099999999999998	0.0
C 	13.52731680711293	6.389999999999999	0.0
C 	14.757072880486833	7.099999999999998	0.0
C 	15.986828953860735	6.389999999999998	0.0
C 	17.216585027234636	7.099999999999997	0.0
C 	18.44634110060854	6.389999999999997	0.0
C 	19.676097173982445	7.099999999999998	0.0
C 	20.905853247356347	6.389999999999998	0.0
C 	22.13560932073025	7.099999999999997	0.0
C 	23.365365394104153	6.389999999999998	0.0
C 	24.59512146747805	7.099999999999997	0.0
C 	25.824877540851958	6.389999999999998	0.0
C 	27.054633614225857	7.099999999999997	0.0
C 	28.28438968759976	6.389999999999999	0.0
C 	29.514145760973662	7.099999999999997	0.0
C 	30.743901834347568	6.389999999999999	0.0
C 	31.97365790772147	7.099999999999998	0.0
C 	33.20341398109537	6.389999999999995	0.0
C 	34.43317005446928	7.099999999999994	0.0
C 	35.66292612784318	6.389999999999995	0.0
C 	36.892682201217085	7.099999999999996	0.0
C 	38.122438274590984	6.389999999999996	0.0
C 	39.35219434796489	7.099999999999997	0.0
C 	40.58195042133879	6.389999999999994	0.0
C 	41.811706494712695	7.099999999999995	0.0
C 	43.041462568086594	6.389999999999996	0.0
C 	44.2712186414605	7.099999999999997	0.0
C 	45.500974714834406	6.389999999999998	0.0
C 	46.730730788208305	7.099999999999998	0.0
C 	47.960486861582204	6.389999999999995	0.0
C 	49.19024293495611	7.099999999999996	0.0
C 	50.41999900833001	6.389999999999995	0.0
C 	51.649755081703915	7.099999999999996	0.0
C 	52.879511155077815	6.389999999999995	0.0
C 	54.10926722845172	7.099999999999996	0.0
C 	55.33902330182562	6.389999999999995	0.0
C 	56.568779375199526	7.099999999999995	0.0
C 	57.79853544857343	6.389999999999998	0.0
C 	59.02829152194733	7.099999999999999	0.0
C 	60.25804759532123	6.389999999999994	0.0
C 	61.487803668695136	7.099999999999995	0.0
C 	62.71755974206904	6.389999999999994	0.0
C 	63.94731581544294	7.099999999999995	0.0
C 	4.919024293495611	8.519999999999998	0.0
C 	6.148780366869514	9.229999999999999	0.0
C 	7.378536440243416	8.519999999999998	0.0
C 	8.60829251361732	9.229999999999999	0.0
C 	9.838048586991222	8.519999999999998	0.0
C 	11.067804660365125	9.229999999999999	0.0
C 	12.297560733739028	8.519999999999998	0.0
C 	13.52731680711293	9.229999999999997	0.0
C 	14.757072880486833	8.519999999999998	0.0
C 	15.986828953860737	9.229999999999999	0.0
C 	17.216585027234636	8.519999999999998	0.0
C 	18.44634110060854	9.229999999999997	0.0
C 	19.67609717398244	8.519999999999996	0.0
C 	20.905853247356347	9.229999999999997	0.0
C 	22.13560932073025	8.519999999999998	0.0
C 	23.365365394104153	9.229999999999999	0.0
C 	24.595121467478055	8.519999999999996	0.0
C 	25.824877540851954	9.229999999999995	0.0
C 	27.05463361422586	8.519999999999996	0.0
C 	28.284389687599763	9.229999999999997	0.0
C 	29.514145760973662	8.519999999999996	0.0
C 	30.743901834347565	9.229999999999995	0.0
C 	31.97365790772147	8.52	0.0
C 	33.20341398109537	9.229999999999997	0.0
C 	34.43317005446928	8.519999999999994	0.0
C 	35.66292612784318	9.229999999999995	0.0
C 	36.89268220121708	8.519999999999992	0.0
C 	38.122438274590984	9.229999999999993	0.0
C 	39.35219434796489	8.519999999999998	0.0
C 	40.58195042133879	9.229999999999995	0.0
C 	41.811706494712695	8.519999999999994	0.0
C 	43.0414625680866	9.229999999999995	0.0
C 	44.27121864146049	8.519999999999992	0.0
C 	45.5009747148344	9.229999999999993	0.0
C 	46.730730788208305	8.519999999999998	0.0
C 	47.960486861582204	9.229999999999995	0.0
C 	49.19024293495611	8.519999999999996	0.0
C 	50.41999900833001	9.229999999999993	0.0
C 	51.64975508170391	8.519999999999994	0.0
C 	52.879511155077815	9.229999999999995	0.0
C 	54.10926722845171	8.51999999999999	0.0
C 	55.33902330182562	9.229999999999992	0.0
C 	56.568779375199526	8.519999999999998	0.0
C 	57.798535448573425	9.229999999999995	0.0
C 	59.02829152194733	8.519999999999994	0.0
C 	60.25804759532123	9.229999999999993	0.0
C 	61.48780366869513	8.519999999999992	0.0
C 	62.717559742069035	9.229999999999993	0.0
C 	63.94731581544294	8.519999999999992	0.0
C 	65.17707188881684	9.22999999999999	0.0
C 	6.148780366869514	10.649999999999997	0.0
C 	7.378536440243416	11.359999999999998	0.0
C 	8.608292513617318	10.649999999999997	0.0
C 	9.838048586991222	11.359999999999998	0.0
C 	11.067804660365125	10.649999999999997	0.0
C 	12.297560733739028	11.359999999999996	0.0
C 	13.52731680711293	10.649999999999997	0.0
C 	14.757072880486831	11.359999999999996	0.0
C 	15.986828953860735	10.649999999999997	0.0
C 	17.216585027234636	11.359999999999996	0.0
C 	18.44634110060854	10.649999999999997	0.0
C 	19.676097173982445	11.359999999999998	0.0
C 	20.905853247356347	10.649999999999997	0.0
C 	22.13560932073025	11.359999999999996	0.0
C 	23.365365394104153	10.649999999999997	0.0
C 	24.595121467478055	11.359999999999996	0.0
C 	25.824877540851958	10.649999999999997	0.0
C 	27.05463361422586	11.359999999999996	0.0
C 	28.284389687599763	10.649999999999995	0.0
C 	29.514145760973662	11.359999999999994	0.0
C 	30.743901834347565	10.649999999999995	0.0
C 	31.97365790772147	11.359999999999996	0.0
C 	33.20341398109537	10.649999999999997	0.0
C 	34.43317005446928	11.359999999999998	0.0
C 	35.66292612784318	10.649999999999991	0.0
C 	36.89268220121708	11.359999999999992	0.0
C 	38.122438274590984	10.649999999999993	0.0
C 	39.35219434796489	11.359999999999994	0.0
C 	40.58195042133879	10.649999999999993	0.0
C 	41.811706494712695	11.359999999999994	0.0
C 	43.041462568086594	10.649999999999991	0.0
C 	44.2712186414605	11.359999999999992	0.0
C 	45.5009747148344	10.649999999999993	0.0
C 	46.730730788208305	11.359999999999994	0.0
C 	47.960486861582204	10.649999999999995	0.0
C 	49.19024293495611	11.359999999999996	0.0
C 	50.41999900833001	10.649999999999993	0.0
C 	51.649755081703915	11.359999999999994	0.0
C 	52.879511155077815	10.649999999999995	0.0
C 	54.10926722845172	11.359999999999996	0.0
C 	55.33902330182562	10.649999999999993	0.0
C 	56.568779375199526	11.359999999999994	0.0
C 	57.798535448573425	10.649999999999993	0.0
C 	59.02829152194733	11.359999999999992	0.0
C 	60.25804759532124	10.649999999999995	0.0
C 	61.487803668695136	11.359999999999996	0.0
C 	62.717559742069035	10.649999999999991	0.0
C 	63.94731581544294	11.359999999999992	0.0
C 	65.17707188881684	10.649999999999991	0.0
C 	66.40682796219075	11.359999999999992	0.0
C 	7.378536440243417	12.779999999999998	0.0
C 	8.60829251361732	13.489999999999998	0.0
C 	9.838048586991222	12.78	0.0
C 	11.067804660365125	13.489999999999997	0.0
C 	12.297560733739028	12.779999999999998	0.0
C 	13.527316807112932	13.489999999999998	0.0
C 	14.757072880486833	12.779999999999998	0.0
C 	15.986828953860737	13.489999999999997	0.0
C 	17.216585027234636	12.779999999999996	0.0
C 	18.446341100608542	13.489999999999997	0.0
C 	19.676097173982445	12.779999999999998	0.0
C 	20.905853247356347	13.489999999999997	0.0
C 	22.13560932073025	12.779999999999996	0.0
C 	23.36536539410415	13.489999999999995	0.0
C 	24.595121467478055	12.779999999999996	0.0
C 	25.824877540851958	13.489999999999997	0.0
C 	27.05463361422586	12.779999999999998	0.0
C 	28.284389687599763	13.489999999999997	0.0
C 	29.514145760973662	12.779999999999996	0.0
C 	30.743901834347568	13.489999999999997	0.0
C 	31.97365790772147	12.779999999999996	0.0
C 	33.20341398109537	13.489999999999997	0.0
C 	34.43317005446928	12.779999999999998	0.0
C 	35.66292612784318	13.489999999999995	0.0
C 	36.89268220121708	12.779999999999994	0.0
C 	38.122438274590984	13.489999999999995	0.0
C 	39.35219434796489	12.779999999999996	0.0
C 	40.581950421338796	13.489999999999997	0.0
C 	41.811706494712695	12.779999999999996	0.0
C 	43.041462568086594	13.489999999999993	0.0
C 	44.2712186414605	12.779999999999994	0.0
C 	45.5009747148344	13.489999999999995	0.0
C 	46.730730788208305	12.779999999999996	0.0
C 	47.96048686158221	13.489999999999997	0.0
C 	49.19024293495611	12.779999999999998	0.0
C 	50.41999900833001	13.489999999999995	0.0
C 	51.649755081703915	12.779999999999996	0.0
C 	52.879511155077815	13.489999999999993	0.0
C 	54.10926722845172	12.779999999999998	0.0
C 	55.33902330182563	13.489999999999998	0.0
C 	56.56877937519952	12.779999999999998	0.0
C 	57.798535448573425	13.489999999999997	0.0
C 	59.02829152194733	12.779999999999994	0.0
C 	60.25804759532123	13.489999999999991	0.0
C 	61.487803668695136	12.779999999999998	0.0
C 	62.71755974206904	13.489999999999998	0.0
C 	63.94731581544294	12.779999999999994	0.0
C 	65.17707188881684	13.489999999999995	0.0
C 	66.40682796219075	12.77999999999999	0.0
C 	67.63658403556465	13.489999999999988	0.0
C 	8.60829251361732	14.909999999999998	0.0
C 	9.838048586991222	15.619999999999996	0.0
C 	11.067804660365125	14.909999999999997	0.0
C 	12.297560733739026	15.619999999999996	0.0
C 	13.527316807112934	14.909999999999998	0.0
C 	14.757072880486831	15.619999999999996	0.0
C 	15.986828953860737	14.909999999999998	0.0
C 	17.21658502723464	15.619999999999997	0.0
C 	18.446341100608542	14.909999999999997	0.0
C 	19.676097173982445	15.619999999999996	0.0
C 	20.905853247356347	14.909999999999997	0.0
C 	22.135609320730246	15.619999999999996	0.0
C 	23.365365394104153	14.909999999999995	0.0
C 	24.595121467478055	15.619999999999996	0.0
C 	25.824877540851958	14.909999999999997	0.0
C 	27.05463361422586	15.619999999999996	0.0
C 	28.284389687599763	14.909999999999997	0.0
C 	29.514145760973665	15.619999999999996	0.0
C 	30.743901834347568	14.909999999999997	0.0
C 	31.973657907721474	15.619999999999997	0.0
C 	33.203413981095366	14.909999999999993	0.0
C 	34.43317005446927	15.619999999999994	0.0
C 	35.662926127843185	14.909999999999998	0.0
C 	36.892682201217085	15.619999999999996	0.0
C 	38.122438274590984	14.909999999999995	0.0
C 	39.35219434796489	15.619999999999996	0.0
C 	40.58195042133879	14.909999999999993	0.0
C 	41.811706494712695	15.619999999999994	0.0
C 	43.0414625680866	14.909999999999998	0.0
C 	44.2712186414605	15.619999999999996	0.0
C 	45.5009747148344	14.909999999999995	0.0
C 	46.730730788208305	15.619999999999996	0.0
C 	47.960486861582204	14.909999999999993	0.0
C 	49.19024293495611	15.619999999999994	0.0
C 	50.41999900833002	14.909999999999998	0.0
C 	51.649755081703915	15.619999999999996	0.0
C 	52.87951115507782	14.909999999999997	0.0
C 	54.10926722845171	15.619999999999994	0.0
C 	55.33902330182562	14.909999999999995	0.0
C 	56.568779375199526	15.619999999999994	0.0
C 	57.798535448573425	14.909999999999991	0.0
C 	59.028291521947324	15.619999999999992	0.0
C 	60.25804759532124	14.909999999999998	0.0
C 	61.487803668695136	15.619999999999996	0.0
C 	62.717559742069035	14.909999999999993	0.0
C 	63.94731581544294	15.619999999999994	0.0
C 	65.17707188881684	14.909999999999993	0.0
C 	66.40682796219075	15.619999999999994	0.0
C 	67.63658403556465	14.909999999999997	0.0
C 	68.86634010893854	15.61999999999999	0.0
C 	9.838048586991222	17.039999999999996	0.0
C 	11.067804660365127	17.749999999999996	0.0
C 	12.297560733739028	17.039999999999996	0.0
C 	13.527316807112932	17.749999999999996	0.0
C 	14.757072880486833	17.039999999999996	0.0
C 	15.986828953860735	17.749999999999996	0.0
C 	17.21658502723464	17.039999999999996	0.0
C 	18.446341100608546	17.749999999999996	0.0
C 	19.676097173982445	17.039999999999996	0.0
C 	20.905853247356347	17.749999999999996	0.0
C 	22.13560932073025	17.039999999999996	0.0
C 	23.365365394104153	17.749999999999996	0.0
C 	24.595121467478055	17.039999999999996	0.0
C 	25.82487754085196	17.749999999999996	0.0
C 	27.05463361422586	17.039999999999996	0.0
C 	28.28438968759977	17.75	0.0
C 	29.514145760973665	17.039999999999996	0.0
C 	30.74390183434757	17.749999999999996	0.0
C 	31.973657907721467	17.039999999999992	0.0
C 	33.20341398109537	17.749999999999993	0.0
C 	34.43317005446927	17.039999999999996	0.0
C 	35.66292612784318	17.749999999999996	0.0
C 	36.892682201217085	17.039999999999996	0.0
C 	38.122438274590984	17.749999999999996	0.0
C 	39.35219434796488	17.039999999999992	0.0
C 	40.58195042133879	17.749999999999993	0.0
C 	41.811706494712695	17.039999999999992	0.0
C 	43.041462568086594	17.749999999999993	0.0
C 	44.2712186414605	17.039999999999996	0.0
C 	45.500974714834406	17.749999999999996	0.0
C 	46.7307307882083	17.039999999999992	0.0
C 	47.960486861582204	17.749999999999993	0.0
C 	49.19024293495611	17.039999999999992	0.0
C 	50.41999900833002	17.749999999999993	0.0
C 	51.649755081703915	17.039999999999996	0.0
C 	52.87951115507782	17.749999999999996	0.0
C 	54.10926722845172	17.039999999999992	0.0
C 	55.33902330182562	17.749999999999993	0.0
C 	56.568779375199526	17.039999999999996	0.0
C 	57.79853544857343	17.749999999999996	0.0
C 	59.028291521947324	17.039999999999992	0.0
C 	60.25804759532123	17.749999999999993	0.0
C 	61.487803668695136	17.039999999999996	0.0
C 	62.71755974206904	17.749999999999996	0.0
C 	63.94731581544294	17.04	0.0
C 	65.17707188881684	17.749999999999993	0.0
C 	66.40682796219075	17.039999999999996	0.0
C 	67.63658403556464	17.74999999999999	0.0
C 	68.86634010893856	17.03999999999999	0.0
C 	70.09609618231246	17.74999999999999	0.0
C 	11.067804660365125	19.169999999999995	0.0
C 	12.297560733739026	19.879999999999995	0.0
C 	13.52731680711293	19.169999999999995	0.0
C 	14.757072880486831	19.879999999999995	0.0
C 	15.986828953860737	19.169999999999998	0.0
C 	17.216585027234636	19.879999999999992	0.0
C 	18.446341100608542	19.169999999999995	0.0
C 	19.676097173982445	19.879999999999995	0.0
C 	20.905853247356347	19.169999999999995	0.0
C 	22.135609320730246	19.879999999999995	0.0
C 	23.365365394104153	19.169999999999995	0.0
C 	24.59512146747805	19.879999999999995	0.0
C 	25.824877540851958	19.169999999999995	0.0
C 	27.05463361422586	19.879999999999995	0.0
C 	28.284389687599763	19.169999999999995	0.0
C 	29.51414576097367	19.879999999999995	0.0
C 	30.743901834347565	19.16999999999999	0.0
C 	31.97365790772147	19.879999999999992	0.0
C 	33.20341398109537	19.169999999999995	0.0
C 	34.43317005446927	19.879999999999992	0.0
C 	35.66292612784318	19.169999999999995	0.0
C 	36.89268220121708	19.879999999999992	0.0
C 	38.122438274590984	19.169999999999995	0.0
C 	39.35219434796488	19.879999999999992	0.0
C 	40.58195042133879	19.16999999999999	0.0
C 	41.81170649471269	19.87999999999999	0.0
C 	43.0414625680866	19.169999999999995	0.0
C 	44.27121864146049	19.879999999999992	0.0
C 	45.5009747148344	19.16999999999999	0.0
C 	46.730730788208305	19.879999999999992	0.0
C 	47.960486861582204	19.169999999999995	0.0
C 	49.1902429349561	19.879999999999992	0.0
C 	50.41999900833002	19.169999999999995	0.0
C 	51.649755081703915	19.879999999999992	0.0
C 	52.879511155077815	19.16999999999999	0.0
C 	54.10926722845172	19.879999999999992	0.0
C 	55.33902330182562	19.16999999999999	0.0
C 	56.56877937519952	19.879999999999992	0.0
C 	57.79853544857343	19.169999999999995	0.0
C 	59.02829152194733	19.879999999999992	0.0
C 	60.25804759532123	19.169999999999995	0.0
C 	61.48780366869513	19.879999999999992	0.0
C 	62.717559742069035	19.16999999999999	0.0
C 	63.94731581544294	19.879999999999992	0.0
C 	65.17707188881684	19.169999999999995	0.0
C 	66.40682796219075	19.87999999999999	0.0
C 	67.63658403556465	19.169999999999995	0.0
C 	68.86634010893854	19.87999999999999	0.0
C 	70.09609618231245	19.16999999999999	0.0
C 	71.32585225568636	19.879999999999992	0.0
C 	12.297560733739028	21.299999999999994	0.0
C 	13.527316807112932	22.009999999999994	0.0
C 	14.757072880486831	21.299999999999994	0.0
C 	15.986828953860735	22.009999999999994	0.0
C 	17.216585027234636	21.299999999999994	0.0
C 	18.44634110060854	22.009999999999994	0.0
C 	19.676097173982445	21.299999999999994	0.0
C 	20.905853247356347	22.009999999999994	0.0
C 	22.13560932073025	21.299999999999994	0.0
C 	23.365365394104153	22.009999999999994	0.0
C 	24.595121467478055	21.299999999999994	0.0
C 	25.824877540851958	22.009999999999994	0.0
C 	27.05463361422586	21.299999999999994	0.0
C 	28.284389687599766	22.009999999999994	0.0
C 	29.514145760973662	21.29999999999999	0.0
C 	30.743901834347568	22.00999999999999	0.0
C 	31.97365790772147	21.299999999999994	0.0
C 	33.20341398109537	22.009999999999994	0.0
C 	34.43317005446928	21.299999999999994	0.0
C 	35.662926127843185	22.009999999999994	0.0
C 	36.89268220121708	21.299999999999994	0.0
C 	38.122438274590984	22.009999999999994	0.0
C 	39.35219434796489	21.299999999999994	0.0
C 	40.58195042133879	22.009999999999994	0.0
C 	41.811706494712695	21.299999999999994	0.0
C 	43.0414625680866	22.009999999999994	0.0
C 	44.2712186414605	21.29999999999999	0.0
C 	45.5009747148344	22.00999999999999	0.0
C 	46.730730788208305	21.299999999999994	0.0
C 	47.96048686158221	22.009999999999994	0.0
C 	49.19024293495611	21.299999999999994	0.0
C 	50.41999900833002	22.009999999999994	0.0
C 	51.649755081703915	21.299999999999994	0.0
C 	52.879511155077815	22.00999999999999	0.0
C 	54.10926722845172	21.299999999999994	0.0
C 	55.33902330182563	22.009999999999994	0.0
C 	56.568779375199526	21.29999999999999	0.0
C 	57.798535448573425	22.00999999999999	0.0
C 	59.02829152194733	21.299999999999994	0.0
C 	60.25804759532124	22.009999999999994	0.0
C 	61.48780366869513	21.29999999999999	0.0
C 	62.717559742069035	22.00999999999999	0.0
C 	63.94731581544294	21.299999999999994	0.0
C 	65.17707188881684	22.009999999999987	0.0
C 	66.40682796219075	21.299999999999994	0.0
C 	67.63658403556465	22.009999999999994	0.0
C 	68.86634010893854	21.29999999999999	0.0
C 	70.09609618231245	22.00999999999999	0.0
C 	71.32585225568636	21.299999999999983	0.0
C 	72.55560832906026	22.00999999999999	0.0
C 	13.527316807112932	23.429999999999996	0.0
C 	14.757072880486836	24.139999999999997	0.0
C 	15.986828953860737	23.429999999999996	0.0
C 	17.216585027234643	24.139999999999997	0.0
C 	18.446341100608542	23.429999999999996	0.0
C 	19.676097173982445	24.139999999999997	0.0
C 	20.90585324735635	23.429999999999996	0.0
C 	22.135609320730254	24.139999999999997	0.0
C 	23.365365394104156	23.429999999999993	0.0
C 	24.595121467478062	24.139999999999997	0.0
C 	25.824877540851958	23.429999999999993	0.0
C 	27.054633614225864	24.139999999999993	0.0
C 	28.284389687599766	23.429999999999996	0.0
C 	29.514145760973673	24.139999999999997	0.0
C 	30.743901834347575	23.429999999999996	0.0
C 	31.973657907721478	24.139999999999997	0.0
C 	33.20341398109537	23.429999999999993	0.0
C 	34.43317005446928	24.139999999999993	0.0
C 	35.66292612784318	23.429999999999993	0.0
C 	36.892682201217085	24.139999999999993	0.0
C 	38.122438274590984	23.429999999999993	0.0
C 	39.35219434796489	24.139999999999993	0.0
C 	40.58195042133879	23.429999999999996	0.0
C 	41.811706494712695	24.139999999999993	0.0
C 	43.041462568086594	23.42999999999999	0.0
C 	44.2712186414605	24.13999999999999	0.0
C 	45.5009747148344	23.429999999999993	0.0
C 	46.730730788208305	24.139999999999993	0.0
C 	47.96048686158221	23.429999999999993	0.0
C 	49.19024293495611	24.139999999999993	0.0
C 	50.41999900833001	23.429999999999993	0.0
C 	51.649755081703915	24.13999999999999	0.0
C 	52.87951115507782	23.429999999999993	0.0
C 	54.10926722845172	24.139999999999993	0.0
C 	55.33902330182563	23.429999999999993	0.0
C 	56.56877937519953	24.139999999999993	0.0
C 	57.798535448573425	23.429999999999993	0.0
C 	59.02829152194733	24.139999999999993	0.0
C 	60.25804759532124	23.429999999999993	0.0
C 	61.487803668695136	24.13999999999999	0.0
C 	62.71755974206904	23.429999999999993	0.0
C 	63.947315815442934	24.139999999999986	0.0
C 	65.17707188881684	23.429999999999993	0.0
C 	66.40682796219075	24.139999999999993	0.0
C 	67.63658403556464	23.42999999999999	0.0
C 	68.86634010893856	24.139999999999997	0.0
C 	70.09609618231245	23.42999999999999	0.0
C 	71.32585225568636	24.139999999999997	0.0
C 	72.55560832906026	23.42999999999999	0.0
C 	73.78536440243417	24.13999999999999	0.0
C 	14.757072880486835	25.559999999999995	0.0
C 	15.986828953860735	26.269999999999996	0.0
C 	17.21658502723464	25.559999999999995	0.0
C 	18.44634110060854	26.269999999999996	0.0
C 	19.676097173982445	25.56	0.0
C 	20.905853247356344	26.269999999999996	0.0
C 	22.13560932073025	25.56	0.0
C 	23.365365394104153	26.269999999999996	0.0
C 	24.595121467478055	25.559999999999995	0.0
C 	25.824877540851958	26.269999999999996	0.0
C 	27.054633614225857	25.559999999999995	0.0
C 	28.28438968759976	26.269999999999996	0.0
C 	29.514145760973665	25.559999999999995	0.0
C 	30.743901834347568	26.269999999999996	0.0
C 	31.973657907721474	25.559999999999995	0.0
C 	33.20341398109538	26.269999999999996	0.0
C 	34.43317005446927	25.55999999999999	0.0
C 	35.66292612784318	26.269999999999992	0.0
C 	36.892682201217085	25.559999999999995	0.0
C 	38.12243827459098	26.269999999999992	0.0
C 	39.35219434796489	25.559999999999995	0.0
C 	40.58195042133879	26.269999999999992	0.0
C 	41.81170649471269	25.55999999999999	0.0
C 	43.041462568086594	26.269999999999992	0.0
C 	44.2712186414605	25.55999999999999	0.0
C 	45.5009747148344	26.26999999999999	0.0
C 	46.730730788208305	25.559999999999995	0.0
C 	47.960486861582204	26.269999999999992	0.0
C 	49.19024293495611	25.55999999999999	0.0
C 	50.41999900833001	26.269999999999992	0.0
C 	51.649755081703915	25.559999999999995	0.0
C 	52.879511155077815	26.269999999999992	0.0
C 	54.10926722845172	25.559999999999995	0.0
C 	55.33902330182562	26.269999999999992	0.0
C 	56.568779375199526	25.55999999999999	0.0
C 	57.79853544857343	26.269999999999992	0.0
C 	59.028291521947324	25.55999999999999	0.0
C 	60.25804759532123	26.269999999999992	0.0
C 	61.487803668695136	25.559999999999995	0.0
C 	62.717559742069035	26.26999999999999	0.0
C 	63.94731581544294	25.55999999999999	0.0
C 	65.17707188881683	26.269999999999985	0.0
C 	66.40682796219075	25.55999999999999	0.0
C 	67.63658403556465	26.269999999999992	0.0
C 	68.86634010893856	25.559999999999995	0.0
C 	70.09609618231246	26.269999999999996	0.0
C 	71.32585225568636	25.559999999999995	0.0
C 	72.55560832906026	26.269999999999996	0.0
C 	73.78536440243415	25.559999999999988	0.0
C 	75.01512047580806	26.26999999999999	0.0
C 	15.986828953860735	27.689999999999994	0.0
C 	17.21658502723464	28.399999999999995	0.0
C 	18.446341100608542	27.689999999999994	0.0
C 	19.676097173982445	28.399999999999995	0.0
C 	20.905853247356344	27.689999999999994	0.0
C 	22.13560932073025	28.399999999999995	0.0
C 	23.365365394104153	27.689999999999994	0.0
C 	24.59512146747806	28.399999999999995	0.0
C 	25.824877540851954	27.689999999999994	0.0
C 	27.054633614225857	28.399999999999995	0.0
C 	28.284389687599763	27.689999999999994	0.0
C 	29.514145760973665	28.399999999999995	0.0
C 	30.74390183434757	27.689999999999994	0.0
C 	31.973657907721474	28.399999999999995	0.0
C 	33.20341398109537	27.68999999999999	0.0
C 	34.43317005446928	28.39999999999999	0.0
C 	35.66292612784318	27.689999999999994	0.0
C 	36.892682201217085	28.399999999999995	0.0
C 	38.122438274590984	27.689999999999994	0.0
C 	39.35219434796489	28.399999999999995	0.0
C 	40.58195042133879	27.689999999999994	0.0
C 	41.811706494712695	28.399999999999995	0.0
C 	43.041462568086594	27.689999999999994	0.0
C 	44.2712186414605	28.399999999999995	0.0
C 	45.500974714834406	27.689999999999994	0.0
C 	46.730730788208305	28.399999999999995	0.0
C 	47.960486861582204	27.68999999999999	0.0
C 	49.19024293495611	28.39999999999999	0.0
C 	50.41999900833002	27.689999999999994	0.0
C 	51.649755081703915	28.399999999999995	0.0
C 	52.87951115507782	27.689999999999994	0.0
C 	54.10926722845173	28.399999999999995	0.0
C 	55.33902330182562	27.68999999999999	0.0
C 	56.568779375199526	28.39999999999999	0.0
C 	57.79853544857343	27.689999999999994	0.0
C 	59.02829152194733	28.39999999999999	0.0
C 	60.25804759532124	27.689999999999994	0.0
C 	61.48780366869513	28.399999999999988	0.0
C 	62.717559742069035	27.689999999999994	0.0
C 	63.94731581544294	28.399999999999995	0.0
C 	65.17707188881684	27.68999999999999	0.0
C 	66.40682796219075	28.39999999999999	0.0
C 	67.63658403556464	27.689999999999987	0.0
C 	68.86634010893856	28.399999999999995	0.0
C 	70.09609618231245	27.689999999999994	0.0
C 	71.32585225568636	28.399999999999995	0.0
C 	72.55560832906026	27.68999999999999	0.0
C 	73.78536440243415	28.39999999999999	0.0
C 	75.01512047580808	27.689999999999994	0.0
C 	76.24487654918197	28.399999999999984	0.0
C 	17.21658502723464	29.819999999999997	0.0
C 	18.446341100608546	30.529999999999998	0.0
C 	19.676097173982445	29.819999999999997	0.0
C 	20.905853247356355	30.529999999999998	0.0
C 	22.13560932073025	29.819999999999993	0.0
C 	23.365365394104156	30.529999999999994	0.0
C 	24.59512146747806	29.819999999999997	0.0
C 	25.82487754085196	30.529999999999998	0.0
C 	27.054633614225867	29.819999999999997	0.0
C 	28.28438968759977	30.529999999999998	0.0
C 	29.514145760973665	29.819999999999997	0.0
C 	30.74390183434757	30.529999999999998	0.0
C 	31.973657907721474	29.819999999999997	0.0
C 	33.20341398109538	30.529999999999998	0.0
C 	34.43317005446928	29.819999999999997	0.0
C 	35.662926127843185	30.529999999999998	0.0
C 	36.892682201217085	29.819999999999993	0.0
C 	38.12243827459099	30.529999999999994	0.0
C 	39.35219434796488	29.819999999999993	0.0
C 	40.58195042133879	30.529999999999994	0.0
C 	41.811706494712695	29.819999999999993	0.0
C 	43.0414625680866	30.529999999999994	0.0
C 	44.2712186414605	29.819999999999993	0.0
C 	45.500974714834406	30.529999999999994	0.0
C 	46.730730788208305	29.81999999999999	0.0
C 	47.960486861582204	30.52999999999999	0.0
C 	49.19024293495611	29.819999999999993	0.0
C 	50.41999900833002	30.529999999999994	0.0
C 	51.649755081703915	29.819999999999993	0.0
C 	52.87951115507782	30.529999999999994	0.0
C 	54.10926722845172	29.819999999999993	0.0
C 	55.33902330182563	30.52999999999999	0.0
C 	56.568779375199526	29.819999999999993	0.0
C 	57.798535448573425	30.52999999999999	0.0
C 	59.02829152194734	29.819999999999993	0.0
C 	60.25804759532124	30.529999999999994	0.0
C 	61.487803668695136	29.819999999999993	0.0
C 	62.71755974206904	30.529999999999994	0.0
C 	63.947315815442934	29.81999999999999	0.0
C 	65.17707188881685	30.529999999999998	0.0
C 	66.40682796219073	29.819999999999986	0.0
C 	67.63658403556465	30.529999999999994	0.0
C 	68.86634010893856	29.819999999999993	0.0
C 	70.09609618231245	30.529999999999994	0.0
C 	71.32585225568637	29.819999999999997	0.0
C 	72.55560832906026	30.52999999999999	0.0
C 	73.78536440243417	29.819999999999997	0.0
C 	75.01512047580806	30.529999999999987	0.0
C 	76.24487654918197	29.81999999999999	0.0
C 	77.47463262255587	30.52999999999999	0.0
C 	18.446341100608542	31.949999999999996	0.0
C 	19.676097173982445	32.65999999999999	0.0
C 	20.905853247356347	31.949999999999992	0.0
C 	22.135609320730254	32.66	0.0
C 	23.365365394104156	31.949999999999996	0.0
C 	24.595121467478055	32.65999999999999	0.0
C 	25.824877540851958	31.949999999999992	0.0
C 	27.05463361422586	32.66	0.0
C 	28.284389687599766	31.949999999999996	0.0
C 	29.51414576097367	32.66	0.0
C 	30.743901834347568	31.949999999999992	0.0
C 	31.97365790772147	32.66	0.0
C 	33.20341398109537	31.949999999999992	0.0
C 	34.43317005446928	32.66	0.0
C 	35.66292612784318	31.949999999999996	0.0
C 	36.892682201217085	32.66	0.0
C 	38.122438274590984	31.949999999999992	0.0
C 	39.35219434796489	32.65999999999999	0.0
C 	40.58195042133879	31.949999999999992	0.0
C 	41.81170649471269	32.65999999999999	0.0
C 	43.0414625680866	31.949999999999996	0.0
C 	44.2712186414605	32.65999999999999	0.0
C 	45.5009747148344	31.949999999999992	0.0
C 	46.730730788208305	32.65999999999999	0.0
C 	47.96048686158221	31.949999999999992	0.0
C 	49.1902429349561	32.65999999999999	0.0
C 	50.41999900833002	31.949999999999992	0.0
C 	51.649755081703915	32.65999999999999	0.0
C 	52.879511155077815	31.949999999999992	0.0
C 	54.10926722845172	32.65999999999999	0.0
C 	55.33902330182563	31.949999999999992	0.0
C 	56.568779375199526	32.65999999999999	0.0
C 	57.79853544857343	31.949999999999992	0.0
C 	59.028291521947324	32.65999999999999	0.0
C 	60.25804759532124	31.949999999999992	0.0
C 	61.487803668695136	32.65999999999999	0.0
C 	62.717559742069035	31.94999999999999	0.0
C 	63.94731581544294	32.65999999999999	0.0
C 	65.17707188881685	31.949999999999992	0.0
C 	66.40682796219076	32.66	0.0
C 	67.63658403556465	31.949999999999992	0.0
C 	68.86634010893856	32.65999999999999	0.0
C 	70.09609618231245	31.94999999999999	0.0
C 	71.32585225568636	32.65999999999999	0.0
C 	72.55560832906026	31.949999999999996	0.0
C 	73.78536440243415	32.65999999999999	0.0
C 	75.01512047580806	31.949999999999992	0.0
C 	76.24487654918195	32.65999999999998	0.0
C 	77.47463262255587	31.949999999999985	0.0
C 	78.70438869592978	32.65999999999999	0.0
C 	19.676097173982445	34.07999999999999	0.0
C 	20.90585324735635	34.78999999999999	0.0
C 	22.135609320730254	34.07999999999999	0.0
C 	23.365365394104156	34.78999999999999	0.0
C 	24.595121467478055	34.07999999999999	0.0
C 	25.824877540851958	34.78999999999999	0.0
C 	27.054633614225864	34.07999999999999	0.0
C 	28.284389687599766	34.78999999999999	0.0
C 	29.514145760973665	34.07999999999999	0.0
C 	30.743901834347568	34.78999999999999	0.0
C 	31.97365790772147	34.07999999999999	0.0
C 	33.20341398109537	34.78999999999999	0.0
C 	34.43317005446928	34.07999999999999	0.0
C 	35.662926127843185	34.78999999999999	0.0
C 	36.89268220121708	34.07999999999999	0.0
C 	38.122438274590984	34.78999999999999	0.0
C 	39.35219434796489	34.07999999999999	0.0
C 	40.581950421338796	34.78999999999999	0.0
C 	41.811706494712695	34.07999999999999	0.0
C 	43.0414625680866	34.78999999999999	0.0
C 	44.2712186414605	34.07999999999999	0.0
C 	45.5009747148344	34.78999999999999	0.0
C 	46.730730788208305	34.07999999999999	0.0
C 	47.96048686158221	34.78999999999999	0.0
C 	49.19024293495611	34.07999999999999	0.0
C 	50.41999900833002	34.78999999999999	0.0
C 	51.649755081703915	34.07999999999999	0.0
C 	52.87951115507782	34.78999999999999	0.0
C 	54.10926722845172	34.07999999999999	0.0
C 	55.33902330182562	34.78999999999999	0.0
C 	56.56877937519953	34.07999999999999	0.0
C 	57.79853544857343	34.78999999999999	0.0
C 	59.02829152194733	34.07999999999999	0.0
C 	60.25804759532124	34.78999999999999	0.0
C 	61.487803668695136	34.07999999999999	0.0
C 	62.71755974206905	34.79	0.0
C 	63.947315815442934	34.079999999999984	0.0
C 	65.17707188881685	34.78999999999999	0.0
C 	66.40682796219075	34.07999999999999	0.0
C 	67.63658403556465	34.78999999999999	0.0
C 	68.86634010893854	34.07999999999999	0.0
C 	70.09609618231245	34.78999999999999	0.0
C 	71.32585225568636	34.07999999999999	0.0
C 	72.55560832906025	34.789999999999985	0.0
C 	73.78536440243417	34.07999999999999	0.0
C 	75.01512047580808	34.78999999999999	0.0
C 	76.24487654918197	34.07999999999999	0.0
C 	77.47463262255587	34.78999999999999	0.0
C 	78.70438869592977	34.079999999999984	0.0
C 	79.93414476930369	34.78999999999999	0.0
C 	20.90585324735635	36.209999999999994	0.0
C 	22.135609320730254	36.919999999999995	0.0
C 	23.36536539410416	36.209999999999994	0.0
C 	24.595121467478062	36.919999999999995	0.0
C 	25.82487754085196	36.209999999999994	0.0
C 	27.054633614225864	36.919999999999995	0.0
C 	28.284389687599766	36.209999999999994	0.0
C 	29.514145760973673	36.919999999999995	0.0
C 	30.743901834347575	36.209999999999994	0.0
C 	31.973657907721478	36.919999999999995	0.0
C 	33.20341398109537	36.209999999999994	0.0
C 	34.43317005446928	36.919999999999995	0.0
C 	35.662926127843185	36.209999999999994	0.0
C 	36.89268220121709	36.919999999999995	0.0
C 	38.12243827459099	36.209999999999994	0.0
C 	39.3521943479649	36.919999999999995	0.0
C 	40.581950421338796	36.209999999999994	0.0
C 	41.811706494712695	36.919999999999995	0.0
C 	43.041462568086594	36.209999999999994	0.0
C 	44.2712186414605	36.919999999999995	0.0
C 	45.500974714834406	36.209999999999994	0.0
C 	46.730730788208305	36.919999999999995	0.0
C 	47.96048686158221	36.209999999999994	0.0
C 	49.19024293495612	36.919999999999995	0.0
C 	50.41999900833002	36.20999999999999	0.0
C 	51.649755081703915	36.91999999999999	0.0
C 	52.87951115507782	36.209999999999994	0.0
C 	54.10926722845172	36.91999999999999	0.0
C 	55.33902330182563	36.209999999999994	0.0
C 	56.56877937519953	36.919999999999995	0.0
C 	57.79853544857343	36.20999999999999	0.0
C 	59.02829152194733	36.91999999999999	0.0
C 	60.25804759532123	36.20999999999999	0.0
C 	61.48780366869515	36.919999999999995	0.0
C 	62.71755974206904	36.209999999999994	0.0
C 	63.94731581544295	36.919999999999995	0.0
C 	65.17707188881684	36.209999999999994	0.0
C 	66.40682796219075	36.919999999999995	0.0
C 	67.63658403556467	36.209999999999994	0.0
C 	68.86634010893856	36.91999999999999	0.0
C 	70.09609618231246	36.209999999999994	0.0
C 	71.32585225568636	36.91999999999999	0.0
C 	72.55560832906026	36.209999999999994	0.0
C 	73.78536440243417	36.919999999999995	0.0
C 	75.01512047580806	36.20999999999999	0.0
C 	76.24487654918198	36.919999999999995	0.0
C 	77.47463262255586	36.20999999999999	0.0
C 	78.70438869592978	36.919999999999995	0.0
C 	79.93414476930369	36.20999999999999	0.0
C 	81.16390084267759	36.91999999999999	0.0
C 	22.13560932073025	38.33999999999999	0.0
C 	23.365365394104153	39.04999999999999	0.0
C 	24.59512146747806	38.33999999999999	0.0
C 	25.82487754085196	39.04999999999999	0.0
C 	27.05463361422586	38.33999999999999	0.0
C 	28.284389687599763	39.04999999999999	0.0
C 	29.514145760973665	38.33999999999999	0.0
C 	30.74390183434757	39.04999999999999	0.0
C 	31.973657907721474	38.339999999999996	0.0
C 	33.20341398109538	39.04999999999999	0.0
C 	34.43317005446927	38.33999999999999	0.0
C 	35.66292612784318	39.04999999999999	0.0
C 	36.892682201217085	38.33999999999999	0.0
C 	38.12243827459099	39.04999999999999	0.0
C 	39.35219434796489	38.33999999999999	0.0
C 	40.581950421338796	39.04999999999999	0.0
C 	41.811706494712695	38.33999999999999	0.0
C 	43.0414625680866	39.04999999999999	0.0
C 	44.27121864146049	38.33999999999999	0.0
C 	45.5009747148344	39.04999999999999	0.0
C 	46.730730788208305	38.33999999999999	0.0
C 	47.960486861582204	39.04999999999999	0.0
C 	49.19024293495611	38.33999999999999	0.0
C 	50.41999900833002	39.04999999999999	0.0
C 	51.649755081703915	38.33999999999999	0.0
C 	52.879511155077815	39.04999999999999	0.0
C 	54.10926722845173	38.33999999999999	0.0
C 	55.33902330182562	39.04999999999998	0.0
C 	56.568779375199526	38.33999999999999	0.0
C 	57.79853544857343	39.04999999999999	0.0
C 	59.02829152194733	38.33999999999999	0.0
C 	60.25804759532123	39.04999999999999	0.0
C 	61.48780366869513	38.33999999999998	0.0
C 	62.71755974206905	39.04999999999999	0.0
C 	63.94731581544294	38.33999999999999	0.0
C 	65.17707188881685	39.04999999999999	0.0
C 	66.40682796219075	38.33999999999999	0.0
C 	67.63658403556465	39.04999999999999	0.0
C 	68.86634010893856	38.33999999999999	0.0
C 	70.09609618231245	39.04999999999998	0.0
C 	71.32585225568636	38.33999999999999	0.0
C 	72.55560832906025	39.04999999999998	0.0
C 	73.78536440243415	38.33999999999999	0.0
C 	75.01512047580806	39.04999999999999	0.0
C 	76.24487654918197	38.33999999999999	0.0
C 	77.47463262255587	39.05	0.0
C 	78.70438869592977	38.33999999999998	0.0
C 	79.93414476930369	39.04999999999999	0.0
C 	81.16390084267758	38.33999999999998	0.0
C 	82.39365691605148	39.04999999999998	0.0
C 	23.365365394104156	40.46999999999999	0.0
C 	24.59512146747806	41.17999999999999	0.0
C 	25.82487754085196	40.46999999999999	0.0
C 	27.054633614225867	41.17999999999999	0.0
C 	28.284389687599763	40.46999999999999	0.0
C 	29.51414576097367	41.17999999999999	0.0
C 	30.74390183434757	40.46999999999999	0.0
C 	31.973657907721474	41.17999999999999	0.0
C 	33.20341398109537	40.46999999999999	0.0
C 	34.43317005446928	41.17999999999999	0.0
C 	35.66292612784318	40.46999999999999	0.0
C 	36.892682201217085	41.17999999999999	0.0
C 	38.12243827459099	40.46999999999999	0.0
C 	39.3521943479649	41.17999999999999	0.0
C 	40.58195042133879	40.46999999999999	0.0
C 	41.811706494712695	41.17999999999999	0.0
C 	43.0414625680866	40.46999999999999	0.0
C 	44.2712186414605	41.17999999999999	0.0
C 	45.500974714834406	40.46999999999999	0.0
C 	46.73073078820831	41.17999999999999	0.0
C 	47.960486861582204	40.46999999999999	0.0
C 	49.19024293495611	41.17999999999999	0.0
C 	50.41999900833002	40.46999999999999	0.0
C 	51.649755081703915	41.179999999999986	0.0
C 	52.87951115507782	40.46999999999999	0.0
C 	54.10926722845173	41.17999999999999	0.0
C 	55.33902330182563	40.46999999999999	0.0
C 	56.568779375199526	41.17999999999999	0.0
C 	57.798535448573425	40.469999999999985	0.0
C 	59.028291521947345	41.17999999999999	0.0
C 	60.25804759532124	40.46999999999999	0.0
C 	61.48780366869514	41.17999999999999	0.0
C 	62.71755974206904	40.46999999999999	0.0
C 	63.94731581544295	41.17999999999999	0.0
C 	65.17707188881685	40.46999999999999	0.0
C 	66.40682796219075	41.179999999999986	0.0
C 	67.63658403556465	40.46999999999999	0.0
C 	68.86634010893854	41.179999999999986	0.0
C 	70.09609618231246	40.46999999999999	0.0
C 	71.32585225568636	41.17999999999999	0.0
C 	72.55560832906026	40.469999999999985	0.0
C 	73.78536440243417	41.179999999999986	0.0
C 	75.01512047580806	40.469999999999985	0.0
C 	76.24487654918198	41.17999999999999	0.0
C 	77.47463262255587	40.46999999999999	0.0
C 	78.70438869592978	41.17999999999999	0.0
C 	79.93414476930367	40.469999999999985	0.0
C 	81.16390084267758	41.179999999999986	0.0
C 	82.3936569160515	40.46999999999999	0.0
C 	83.62341298942539	41.179999999999986	0.0
C 	24.595121467478055	42.59999999999999	0.0
C 	25.82487754085196	43.30999999999999	0.0
C 	27.05463361422586	42.59999999999999	0.0
C 	28.284389687599766	43.30999999999999	0.0
C 	29.514145760973662	42.59999999999999	0.0
C 	30.743901834347568	43.30999999999999	0.0
C 	31.97365790772147	42.59999999999999	0.0
C 	33.20341398109537	43.30999999999999	0.0
C 	34.43317005446927	42.59999999999999	0.0
C 	35.66292612784318	43.30999999999999	0.0
C 	36.89268220121708	42.59999999999999	0.0
C 	38.122438274590984	43.30999999999999	0.0
C 	39.35219434796489	42.59999999999999	0.0
C 	40.581950421338796	43.30999999999999	0.0
C 	41.81170649471269	42.59999999999999	0.0
C 	43.041462568086594	43.30999999999999	0.0
C 	44.2712186414605	42.59999999999999	0.0
C 	45.5009747148344	43.30999999999999	0.0
C 	46.730730788208305	42.59999999999999	0.0
C 	47.96048686158221	43.30999999999999	0.0
C 	49.19024293495611	42.59999999999999	0.0
C 	50.41999900833001	43.30999999999999	0.0
C 	51.64975508170392	42.599999999999994	0.0
C 	52.879511155077815	43.30999999999999	0.0
C 	54.10926722845172	42.59999999999999	0.0
C 	55.33902330182563	43.30999999999999	0.0
C 	56.568779375199526	42.59999999999999	0.0
C 	57.798535448573425	43.30999999999999	0.0
C 	59.028291521947324	42.59999999999998	0.0
C 	60.258047595321244	43.30999999999999	0.0
C 	61.487803668695136	42.59999999999999	0.0
C 	62.71755974206904	43.30999999999999	0.0
C 	63.94731581544294	42.59999999999999	0.0
C 	65.17707188881684	43.30999999999999	0.0
C 	66.40682796219076	42.599999999999994	0.0
C 	67.63658403556465	43.30999999999999	0.0
C 	68.86634010893856	42.59999999999999	0.0
C 	70.09609618231245	43.30999999999998	0.0
C 	71.32585225568636	42.59999999999999	0.0
C 	72.55560832906026	43.30999999999999	0.0
C 	73.78536440243415	42.59999999999999	0.0
C 	75.01512047580806	43.30999999999999	0.0
C 	76.24487654918197	42.59999999999998	0.0
C 	77.47463262255587	43.30999999999999	0.0
C 	78.70438869592978	42.59999999999999	0.0
C 	79.93414476930367	43.30999999999999	0.0
C 	81.16390084267758	42.59999999999999	0.0
C 	82.39365691605148	43.30999999999999	0.0
C 	83.62341298942539	42.59999999999999	0.0
C 	84.85316906279928	43.30999999999998	0.0
C 	25.82487754085196	44.72999999999999	0.0
C 	27.054633614225864	45.43999999999999	0.0
C 	28.284389687599766	44.72999999999999	0.0
C 	29.514145760973673	45.43999999999999	0.0
C 	30.743901834347568	44.72999999999999	0.0
C 	31.97365790772147	45.43999999999999	0.0
C 	33.20341398109537	44.72999999999999	0.0
C 	34.43317005446928	45.43999999999999	0.0
C 	35.662926127843185	44.72999999999999	0.0
C 	36.892682201217085	45.43999999999999	0.0
C 	38.122438274590984	44.72999999999999	0.0
C 	39.35219434796489	45.43999999999999	0.0
C 	40.581950421338796	44.72999999999999	0.0
C 	41.811706494712695	45.43999999999999	0.0
C 	43.0414625680866	44.72999999999999	0.0
C 	44.27121864146051	45.43999999999999	0.0
C 	45.500974714834406	44.72999999999999	0.0
C 	46.730730788208305	45.43999999999999	0.0
C 	47.960486861582204	44.72999999999999	0.0
C 	49.19024293495611	45.43999999999998	0.0
C 	50.41999900833002	44.72999999999999	0.0
C 	51.64975508170391	45.43999999999998	0.0
C 	52.87951115507782	44.72999999999999	0.0
C 	54.10926722845172	45.43999999999999	0.0
C 	55.33902330182562	44.72999999999998	0.0
C 	56.568779375199526	45.43999999999998	0.0
C 	57.798535448573425	44.72999999999998	0.0
C 	59.02829152194734	45.43999999999999	0.0
C 	60.25804759532124	44.72999999999999	0.0
C 	61.48780366869514	45.43999999999999	0.0
C 	62.717559742069035	44.72999999999998	0.0
C 	63.94731581544294	45.43999999999998	0.0
C 	65.17707188881685	44.72999999999999	0.0
C 	66.40682796219075	45.43999999999998	0.0
C 	67.63658403556465	44.72999999999999	0.0
C 	68.86634010893856	45.43999999999999	0.0
C 	70.09609618231245	44.72999999999999	0.0
C 	71.32585225568636	45.43999999999998	0.0
C 	72.55560832906026	44.72999999999998	0.0
C 	73.78536440243417	45.43999999999999	0.0
C 	75.01512047580806	44.72999999999998	0.0
C 	76.24487654918198	45.43999999999999	0.0
C 	77.47463262255587	44.72999999999999	0.0
C 	78.70438869592978	45.43999999999999	0.0
C 	79.93414476930369	44.72999999999999	0.0
C 	81.16390084267758	45.43999999999998	0.0
C 	82.39365691605148	44.72999999999999	0.0
C 	83.62341298942538	45.43999999999998	0.0
C 	84.8531690627993	44.72999999999998	0.0
C 	86.08292513617319	45.43999999999998	0.0
C 	27.054633614225864	46.85999999999999	0.0
C 	28.28438968759977	47.56999999999999	0.0
C 	29.514145760973673	46.85999999999999	0.0
C 	30.74390183434758	47.56999999999999	0.0
C 	31.973657907721474	46.85999999999999	0.0
C 	33.20341398109538	47.56999999999999	0.0
C 	34.43317005446928	46.85999999999999	0.0
C 	35.662926127843185	47.56999999999999	0.0
C 	36.892682201217085	46.85999999999999	0.0
C 	38.122438274590984	47.56999999999999	0.0
C 	39.35219434796489	46.85999999999999	0.0
C 	40.581950421338796	47.56999999999999	0.0
C 	41.8117064947127	46.85999999999999	0.0
C 	43.0414625680866	47.56999999999999	0.0
C 	44.2712186414605	46.85999999999999	0.0
C 	45.500974714834406	47.56999999999999	0.0
C 	46.73073078820831	46.859999999999985	0.0
C 	47.960486861582204	47.569999999999986	0.0
C 	49.19024293495612	46.85999999999999	0.0
C 	50.41999900833002	47.56999999999999	0.0
C 	51.649755081703915	46.859999999999985	0.0
C 	52.87951115507782	47.569999999999986	0.0
C 	54.10926722845172	46.859999999999985	0.0
C 	55.339023301825634	47.56999999999999	0.0
C 	56.56877937519953	46.85999999999999	0.0
C 	57.79853544857344	47.56999999999999	0.0
C 	59.02829152194733	46.859999999999985	0.0
C 	60.25804759532124	47.569999999999986	0.0
C 	61.48780366869515	46.85999999999999	0.0
C 	62.71755974206904	47.569999999999986	0.0
C 	63.94731581544295	46.85999999999999	0.0
C 	65.17707188881685	47.56999999999999	0.0
C 	66.40682796219075	46.859999999999985	0.0
C 	67.63658403556465	47.569999999999986	0.0
C 	68.86634010893856	46.859999999999985	0.0
C 	70.09609618231246	47.56999999999999	0.0
C 	71.32585225568636	46.859999999999985	0.0
C 	72.55560832906028	47.56999999999999	0.0
C 	73.78536440243417	46.859999999999985	0.0
C 	75.01512047580808	47.569999999999986	0.0
C 	76.24487654918197	46.859999999999985	0.0
C 	77.47463262255587	47.569999999999986	0.0
C 	78.70438869592978	46.85999999999999	0.0
C 	79.93414476930367	47.569999999999986	0.0
C 	81.16390084267758	46.85999999999999	0.0
C 	82.39365691605148	47.56999999999999	0.0
C 	83.62341298942539	46.859999999999985	0.0
C 	84.8531690627993	47.569999999999986	0.0
C 	86.08292513617319	46.85999999999998	0.0
C 	87.31268120954711	47.569999999999986	0.0
C 	28.284389687599763	48.98999999999999	0.0
C 	29.51414576097367	49.69999999999999	0.0
C 	30.74390183434757	48.98999999999999	0.0
C 	31.973657907721478	49.69999999999999	0.0
C 	33.20341398109537	48.98999999999999	0.0
C 	34.43317005446928	49.69999999999999	0.0
C 	35.66292612784318	48.98999999999999	0.0
C 	36.892682201217085	49.69999999999999	0.0
C 	38.122438274590984	48.98999999999999	0.0
C 	39.35219434796488	49.69999999999999	0.0
C 	40.58195042133879	48.98999999999999	0.0
C 	41.811706494712695	49.69999999999999	0.0
C 	43.041462568086594	48.98999999999999	0.0
C 	44.2712186414605	49.69999999999999	0.0
C 	45.5009747148344	48.98999999999999	0.0
C 	46.730730788208305	49.69999999999998	0.0
C 	47.96048686158221	48.98999999999999	0.0
C 	49.1902429349561	49.69999999999998	0.0
C 	50.41999900833002	48.98999999999999	0.0
C 	51.64975508170392	49.69999999999999	0.0
C 	52.879511155077815	48.98999999999999	0.0
C 	54.10926722845172	49.69999999999999	0.0
C 	55.33902330182562	48.98999999999998	0.0
C 	56.56877937519953	49.69999999999999	0.0
C 	57.79853544857343	48.98999999999999	0.0
C 	59.02829152194734	49.69999999999999	0.0
C 	60.25804759532124	48.98999999999999	0.0
C 	61.487803668695136	49.69999999999999	0.0
C 	62.71755974206905	48.98999999999999	0.0
C 	63.94731581544294	49.69999999999998	0.0
C 	65.17707188881685	48.98999999999999	0.0
C 	66.40682796219075	49.69999999999999	0.0
C 	67.63658403556465	48.98999999999999	0.0
C 	68.86634010893856	49.69999999999999	0.0
C 	70.09609618231245	48.98999999999998	0.0
C 	71.32585225568637	49.69999999999999	0.0
C 	72.55560832906025	48.98999999999998	0.0
C 	73.78536440243417	49.69999999999999	0.0
C 	75.01512047580806	48.98999999999999	0.0
C 	76.24487654918197	49.69999999999999	0.0
C 	77.47463262255587	48.98999999999998	0.0
C 	78.70438869592978	49.69999999999998	0.0
C 	79.93414476930369	48.98999999999999	0.0
C 	81.16390084267758	49.69999999999998	0.0
C 	82.39365691605148	48.98999999999999	0.0
C 	83.62341298942539	49.69999999999999	0.0
C 	84.85316906279928	48.98999999999998	0.0
C 	86.08292513617319	49.69999999999998	0.0
C 	87.3126812095471	48.98999999999998	0.0
C 	88.542437282921	49.69999999999999	0.0
C 	29.51414576097367	51.11999999999999	0.0
C 	30.74390183434757	51.82999999999999	0.0
C 	31.973657907721474	51.11999999999999	0.0
C 	33.20341398109538	51.82999999999999	0.0
C 	34.43317005446928	51.11999999999999	0.0
C 	35.66292612784318	51.82999999999999	0.0
C 	36.892682201217085	51.11999999999999	0.0
C 	38.12243827459099	51.82999999999999	0.0
C 	39.35219434796489	51.12	0.0
C 	40.581950421338796	51.83	0.0
C 	41.811706494712695	51.11999999999999	0.0
C 	43.041462568086594	51.82999999999999	0.0
C 	44.2712186414605	51.12	0.0
C 	45.5009747148344	51.82999999999999	0.0
C 	46.73073078820831	51.11999999999999	0.0
C 	47.96048686158221	51.82999999999999	0.0
C 	49.19024293495611	51.11999999999999	0.0
C 	50.41999900833002	51.82999999999999	0.0
C 	51.649755081703915	51.11999999999998	0.0
C 	52.879511155077815	51.829999999999984	0.0
C 	54.10926722845171	51.11999999999999	0.0
C 	55.33902330182563	51.83	0.0
C 	56.568779375199526	51.11999999999999	0.0
C 	57.79853544857343	51.82999999999999	0.0
C 	59.02829152194733	51.11999999999999	0.0
C 	60.25804759532124	51.82999999999999	0.0
C 	61.48780366869514	51.11999999999999	0.0
C 	62.717559742069035	51.829999999999984	0.0
C 	63.94731581544295	51.11999999999999	0.0
C 	65.17707188881685	51.82999999999999	0.0
C 	66.40682796219075	51.11999999999999	0.0
C 	67.63658403556465	51.82999999999999	0.0
C 	68.86634010893854	51.11999999999998	0.0
C 	70.09609618231246	51.82999999999999	0.0
C 	71.32585225568636	51.11999999999999	0.0
C 	72.55560832906026	51.82999999999999	0.0
C 	73.78536440243417	51.11999999999999	0.0
C 	75.01512047580806	51.82999999999999	0.0
C 	76.24487654918198	51.11999999999999	0.0
C 	77.47463262255587	51.829999999999984	0.0
C 	78.70438869592978	51.11999999999999	0.0
C 	79.93414476930367	51.829999999999984	0.0
C 	81.16390084267758	51.11999999999999	0.0
C 	82.39365691605148	51.82999999999999	0.0
C 	83.62341298942538	51.11999999999998	0.0
C 	84.8531690627993	51.82999999999999	0.0
C 	86.08292513617319	51.11999999999998	0.0
C 	87.3126812095471	51.82999999999999	0.0
C 	88.542437282921	51.11999999999998	0.0
C 	89.7721933562949	51.829999999999984	0.0
C 	51.961004707705634	0.11657515083366025	2.15
C 	53.37719126536437	0.22057339075489715	2.15
C 	53.99521942647307	1.4990260461460134	2.15
C 	55.41140598413181	1.6030242860672403	2.15
C 	56.029434145240515	2.8814769414583563	2.15
C 	47.71244503472945	-0.1954195689300476	2.15
C 	49.128631592388174	-0.09142132900881711	2.15
C 	49.74665975349688	1.1870313263822991	2.15
C 	51.16284631115561	1.291029566303536	2.15
C 	51.780874472264316	2.5694822216946522	2.15
C 	53.19706102992305	2.6734804616158927	2.15
C 	53.81508919103175	3.951933117007009	2.15
C 	55.23127574869048	4.055931356928239	2.15
C 	55.84930390979919	5.334384012319355	2.15
C 	57.265490467457916	5.438382252240593	2.15
C 	57.88351862856663	6.716834907631709	2.15
C 	43.463885361753256	-0.5074142886937683	2.15
C 	44.88007191941198	-0.4034160487725246	2.15
C 	45.498100080520686	0.8750366066185884	2.15
C 	46.91428663817942	0.9790348465398284	2.15
C 	47.53231479928812	2.2574875019309415	2.15
C 	48.948501356946856	2.3614857418521753	2.15
C 	49.56652951805556	3.639938397243288	2.15
C 	50.9827160757143	3.743936637164525	2.15
C 	51.600744236823004	5.022389292555638	2.15
C 	53.01693079448173	5.1263875324768815	2.15
C 	53.634958955590434	6.404840187867994	2.15
C 	55.05114551324916	6.5088384277892315	2.15
C 	55.669173674357864	7.787291083180344	2.15
C 	57.0853602320166	7.891289323101585	2.15
C 	57.7033883931253	9.169741978492697	2.15
C 	59.11957495078404	9.27374021841393	2.15
C 	59.737603111892746	10.552192873805048	2.15
C 	39.21532568877706	-0.8194090084574726	2.15
C 	40.6315122464358	-0.7154107685362356	2.15
C 	41.2495404075445	0.5630418868548804	2.15
C 	42.66572696520322	0.667040126776111	2.15
C 	43.28375512631193	1.9454927821672272	2.15
C 	44.699941683970664	2.049491022088464	2.15
C 	45.31796984507937	3.3279436774795803	2.15
C 	46.734156402738094	3.4319419174008208	2.15
C 	47.3521845638468	4.7103945727919365	2.15
C 	48.76837112150554	4.814392812713168	2.15
C 	49.38639928261424	6.092845468104284	2.15
C 	50.80258584027297	6.19684370802552	2.15
C 	51.42061400138168	7.4752963634166365	2.15
C 	52.836800559040405	7.579294603337874	2.15
C 	53.454828720149116	8.85774725872899	2.15
C 	54.87101527780784	8.96174549865022	2.15
C 	55.489043438916546	10.240198154041336	2.15
C 	56.90522999657528	10.344196393962577	2.15
C 	57.52325815768398	11.622649049353694	2.15
C 	58.93944471534272	11.72664728927493	2.15
C 	59.55747287645142	13.005099944666046	2.15
C 	60.97365943411015	13.109098184587276	2.15
C 	61.59168759521885	14.387550839978394	2.15
C 	63.007874152877584	14.49154907989963	2.15
C 	63.62590231398629	15.770001735290746	2.15
C 	37.00098073456831	0.2510471670911744	2.15
C 	38.41716729222704	0.3550454070124049	2.15
C 	39.035195453335746	1.6334980624035211	2.15
C 	40.45138201099447	1.7374963023247598	2.15
C 	41.069410172103176	3.015948957715876	2.15
C 	42.48559672976191	3.1199471976371065	2.15
C 	43.10362489087061	4.398399853028223	2.15
C 	44.51981144852934	4.502398092949459	2.15
C 	45.13783960963804	5.780850748340575	2.15
C 	46.55402616729678	5.884848988261813	2.15
C 	47.17205432840549	7.163301643652929	2.15
C 	48.588240886064206	7.267299883574163	2.15
C 	49.20626904717292	8.54575253896528	2.15
C 	50.62245560483165	8.649750778886515	2.15
C 	51.24048376594036	9.928203434277632	2.15
C 	52.65667032359909	10.03220167419887	2.15
C 	53.27469848470779	11.310654329589985	2.15
C 	54.690885042366524	11.414652569511215	2.15
C 	55.30891320347523	12.693105224902332	2.15
C 	56.725099761133954	12.797103464823572	2.15
C 	57.34312792224266	14.075556120214689	2.15
C 	58.75931447990139	14.179554360135926	2.15
C 	59.3773426410101	15.458007015527041	2.15
C 	60.79352919866882	15.562005255448272	2.15
C 	61.411557359777525	16.840457910839387	2.15
C 	62.827743917436266	16.944456150760626	2.15
C 	63.44577207854497	18.222908806151743	2.15
C 	64.8619586362037	18.326907046072982	2.15
C 	65.47998679731239	19.6053597014641	2.15
C 	32.75242106159212	-0.060947552672544855	2.15
C 	34.16860761925085	0.0430506872486956	2.15
C 	34.78663578035955	1.3215033426398086	2.15
C 	36.20282233801829	1.4255015825610469	2.15
C 	36.82085049912699	2.7039542379521597	2.15
C 	38.23703705678572	2.807952477873397	2.15
C 	38.85506521789442	4.08640513326451	2.15
C 	40.271251775553154	4.190403373185751	2.15
C 	40.88927993666186	5.468856028576863	2.15
C 	42.305466494320584	5.572854268498099	2.15
C 	42.92349465542929	6.8513069238892115	2.15
C 	44.33968121308803	6.9553051638104515	2.15
C 	44.95770937419673	8.233757819201564	2.15
C 	46.37389593185546	8.337756059122805	2.15
C 	46.99192409296416	9.616208714513919	2.15
C 	48.408110650622895	9.720206954435152	2.15
C 	49.0261388117316	10.998659609826264	2.15
C 	50.44232536939033	11.102657849747505	2.15
C 	51.060353530499036	12.381110505138617	2.15
C 	52.47654008815777	12.485108745059858	2.15
C 	53.09456824926647	13.763561400450975	2.15
C 	54.5107548069252	13.867559640372205	2.15
C 	55.1287829680339	15.14601229576332	2.15
C 	56.544969525692636	15.250010535684565	2.15
C 	57.16299768680134	16.528463191075673	2.15
C 	58.57918424446007	16.632461430996912	2.15
C 	59.19721240556878	17.910914086388026	2.15
C 	60.6133989632275	18.01491232630926	2.15
C 	61.231427124336214	19.29336498170038	2.15
C 	62.64761368199495	19.39736322162162	2.15
C 	63.26564184310365	20.67581587701273	2.15
C 	64.68182840076238	20.779814116933967	2.15
C 	65.29985656187108	22.058266772325084	2.15
C 	66.71604311952981	22.162265012246316	2.15
C 	67.33407128063851	23.44071766763743	2.15
C 	28.503861388615924	-0.372942272436254	2.15
C 	29.92004794627466	-0.26894403251501725	2.15
C 	30.538076107383365	1.0095086228760974	2.15
C 	31.95426266504209	1.1135068627973361	2.15
C 	32.5722908261508	2.391959518188449	2.15
C 	33.98847738380953	2.495957758109684	2.15
C 	34.606505544918235	3.7744104135008003	2.15
C 	36.02269210257696	3.8784086534220408	2.15
C 	36.640720263685665	5.156861308813157	2.15
C 	38.0569068213444	5.260859548734386	2.15
C 	38.6749349824531	6.539312204125502	2.15
C 	40.091121540111835	6.643310444046742	2.15
C 	40.70914970122054	7.921763099437858	2.15
C 	42.12533625887927	8.02576133935909	2.15
C 	42.74336441998798	9.304213994750205	2.15
C 	44.159550977646695	9.408212234671444	2.15
C 	44.77757913875541	10.686664890062561	2.15
C 	46.19376569641414	10.790663129983797	2.15
C 	46.81179385752285	12.069115785374914	2.15
C 	48.22798041518157	12.173114025296144	2.15
C 	48.846008576290274	13.45156668068726	2.15
C 	50.262195133949014	13.555564920608496	2.15
C 	50.88022329505772	14.834017575999614	2.15
C 	52.29640985271645	14.93801581592085	2.15
C 	52.914438013825155	16.216468471311966	2.15
C 	54.33062457148388	16.320466711233202	2.15
C 	54.948652732592585	17.598919366624315	2.15
C 	56.36483929025131	17.702917606545554	2.15
C 	56.982867451360015	18.981370261936668	2.15
C 	58.399054009018755	19.085368501857907	2.15
C 	59.01708217012746	20.363821157249024	2.15
C 	60.43326872778618	20.467819397170256	2.15
C 	61.05129688889489	21.746272052561373	2.15
C 	62.46748344655362	21.85027029248261	2.15
C 	63.085511607662326	23.128722947873726	2.15
C 	64.50169816532106	23.23272118779496	2.15
C 	65.11972632642976	24.51117384318608	2.15
C 	66.53591288408849	24.61517208310731	2.15
C 	67.1539410451972	25.893624738498424	2.15
C 	68.57012760285592	25.997622978419656	2.15
C 	69.18815576396463	27.276075633810773	2.15
C 	70.60434232162336	27.38007387373202	2.15
C 	71.22237048273207	28.658526529123137	2.15
C 	24.255301715639735	-0.6849369921999651	2.15
C 	25.671488273298465	-0.5809387522787279	2.15
C 	26.28951643440717	0.6975139031123866	2.15
C 	27.705702992065905	0.8015121430336202	2.15
C 	28.32373115317461	2.0799647984247347	2.15
C 	29.739917710833335	2.183963038345977	2.15
C 	30.35794587194204	3.4624156937370896	2.15
C 	31.774132429600776	3.5664139336583247	2.15
C 	32.39216059070948	4.844866589049441	2.15
C 	33.808347148368206	4.948864828970678	2.15
C 	34.42637530947691	6.227317484361791	2.15
C 	35.84256186713564	6.33131572428303	2.15
C 	36.46059002824435	7.609768379674143	2.15
C 	37.87677658590307	7.71376661959538	2.15
C 	38.49480474701178	8.992219274986493	2.15
C 	39.91099130467052	9.096217514907732	2.15
C 	40.52901946577922	10.374670170298844	2.15
C 	41.94520602343795	10.47866841022008	2.15
C 	42.56323418454665	11.757121065611194	2.15
C 	43.979420742205384	11.861119305532435	2.15
C 	44.59744890331409	13.139571960923547	2.15
C 	46.013635460972814	13.24357020084479	2.15
C 	46.63166362208152	14.522022856235902	2.15
C 	48.04785017974026	14.626021096157139	2.15
C 	48.665878340848955	15.904473751548249	2.15
C 	50.08206489850769	16.008471991469484	2.15
C 	50.70009305961639	17.2869246468606	2.15
C 	52.116279617275126	17.390922886781844	2.15
C 	52.73430777838383	18.669375542172954	2.15
C 	54.15049433604256	18.773373782094193	2.15
C 	54.76852249715127	20.051826437485303	2.15
C 	56.18470905480999	20.155824677406542	2.15
C 	56.802737215918704	21.43427733279766	2.15
C 	58.21892377357744	21.538275572718902	2.15
C 	58.83695193468614	22.816728228110012	2.15
C 	60.25313849234487	22.920726468031248	2.15
C 	60.87116665345357	24.199179123422358	2.15
C 	62.287353211112304	24.303177363343597	2.15
C 	62.90538137222101	25.58163001873471	2.15
C 	64.32156792987973	25.685628258655957	2.15
C 	64.93959609098845	26.964080914047067	2.15
C 	66.35578264864718	27.068079153968306	2.15
C 	66.97381080975588	28.346531809359416	2.15
C 	68.38999736741461	28.450530049280648	2.15
C 	69.00802552852332	29.728982704671758	2.15
C 	70.42421208618205	29.83298094459301	2.15
C 	71.04224024729075	31.11143359998412	2.15
C 	72.45842680494948	31.215431839905357	2.15
C 	73.0764549660582	32.49388449529647	2.15
C 	20.006742042663546	-0.9969317119636759	2.15
C 	21.422928600322276	-0.8929334720424407	2.15
C 	22.04095676143098	0.38551918334867397	2.15
C 	23.45714331908971	0.4895174232699142	2.15
C 	24.075171480198417	1.7679700786610288	2.15
C 	25.49135803785715	1.8719683185822624	2.15
C 	26.109386198965854	3.150420973973377	2.15
C 	27.52557275662458	3.2544192138946157	2.15
C 	28.143600917733284	4.532871869285731	2.15
C 	29.55978747539202	4.636870109206965	2.15
C 	30.177815636500725	5.9153227645980815	2.15
C 	31.59400219415945	6.019321004519322	2.15
C 	32.212030355268155	7.297773659910435	2.15
C 	33.62821691292689	7.401771899831667	2.15
C 	34.24624507403559	8.680224555222782	2.15
C 	35.662431631694325	8.784222795144023	2.15
C 	36.28045979280303	10.06267545053514	2.15
C 	37.69664635046176	10.166673690456369	2.15
C 	38.314674511570466	11.445126345847484	2.15
C 	39.73086106922919	11.549124585768725	2.15
C 	40.348889230337896	12.827577241159842	2.15
C 	41.76507578799663	12.93157548108107	2.15
C 	42.38310394910533	14.210028136472186	2.15
C 	43.79929050676406	14.314026376393427	2.15
C 	44.41731866787277	15.592479031784542	2.15
C 	45.8335052255315	15.69647727170578	2.15
C 	46.45153338664021	16.974929927096895	2.15
C 	47.867719944298926	17.078928167018127	2.15
C 	48.48574810540763	18.357380822409244	2.15
C 	49.90193466306637	18.461379062330483	2.15
C 	50.519962824175074	19.739831717721597	2.15
C 	51.93614938183381	19.843829957642836	2.15
C 	52.55417754294251	21.12228261303395	2.15
C 	53.97036410060124	21.22628085295518	2.15
C 	54.58839226170995	22.5047335083463	2.15
C 	56.00457881936867	22.608731748267537	2.15
C 	56.62260698047738	23.887184403658654	2.15
C 	58.03879353813611	23.99118264357989	2.15
C 	58.656821699244816	25.269635298971007	2.15
C 	60.07300825690354	25.37363353889224	2.15
C 	60.691036418012246	26.652086194283353	2.15
C 	62.10722297567098	26.756084434204592	2.15
C 	62.72525113677969	28.034537089595705	2.15
C 	64.14143769443841	28.138535329516948	2.15
C 	64.75946585554712	29.416987984908065	2.15
C 	66.17565241320585	29.520986224829294	2.15
C 	66.79368057431456	30.79943888022041	2.15
C 	68.20986713197328	30.90343712014164	2.15
C 	68.827895293082	32.18188977553276	2.15
C 	70.24408185074073	32.285888015454	2.15
C 	70.86211001184942	33.56434067084512	2.15
C 	72.27829656950816	33.668338910766344	2.15
C 	72.89632473061687	34.946791566157465	2.15
C 	74.31251128827559	35.0507898060787	2.15
C 	74.9305394493843	36.32924246146981	2.15
C 	17.79239708845479	0.07352446358496537	2.15
C 	19.20858364611352	0.17752270350620244	2.15
C 	19.826611807222225	1.455975358897317	2.15
C 	21.242798364880954	1.5599735988185532	2.15
C 	21.86082652598966	2.8384262542096677	2.15
C 	23.27701308364839	2.9424244941309063	2.15
C 	23.895041244757095	4.220877149522021	2.15
C 	25.311227802415825	4.324875389443258	2.15
C 	25.92925596352453	5.603328044834371	2.15
C 	27.345442521183262	5.707326284755608	2.15
C 	27.963470682291966	6.985778940146724	2.15
C 	29.379657239950696	7.089777180067963	2.15
C 	29.997685401059403	8.36822983545908	2.15
C 	31.413871958718133	8.472228075380313	2.15
C 	32.03190011982684	9.750680730771425	2.15
C 	33.44808667748557	9.854678970692664	2.15
C 	34.066114838594274	11.133131626083781	2.15
C 	35.482301396253	11.237129866005017	2.15
C 	36.10032955736171	12.515582521396134	2.15
C 	37.51651611502044	12.619580761317366	2.15
C 	38.13454427612914	13.898033416708483	2.15
C 	39.550730833787874	14.002031656629718	2.15
C 	40.16875899489658	15.280484312020835	2.15
C 	41.584945552555304	15.384482551942067	2.15
C 	42.202973713664015	16.662935207333184	2.15
C 	43.61916027132274	16.76693344725442	2.15
C 	44.237188432431445	18.045386102645537	2.15
C 	45.65337499009018	18.149384342566776	2.15
C 	46.27140315119888	19.42783699795789	2.15
C 	47.687589708857615	19.531835237879122	2.15
C 	48.30561786996632	20.81028789327024	2.15
C 	49.72180442762505	20.914286133191474	2.15
C 	50.339832588733756	22.192738788582588	2.15
C 	51.75601914639249	22.29673702850383	2.15
C 	52.37404730750119	23.575189683894948	2.15
C 	53.79023386515992	23.679187923816176	2.15
C 	54.40826202626863	24.957640579207293	2.15
C 	55.82444858392736	25.06163881912853	2.15
C 	56.44247674503606	26.340091474519646	2.15
C 	57.858663302694794	26.44408971444088	2.15
C 	58.4766914638035	27.722542369832	2.15
C 	59.892878021462224	27.826540609753234	2.15
C 	60.510906182570935	29.104993265144348	2.15
C 	61.92709274022966	29.208991505065587	2.15
C 	62.54512090133837	30.487444160456704	2.15
C 	63.9613074589971	30.59144240037794	2.15
C 	64.57933562010581	31.869895055769057	2.15
C 	65.99552217776453	31.973893295690285	2.15
C 	66.61355033887324	33.2523459510814	2.15
C 	68.02973689653197	33.356344191002634	2.15
C 	68.64776505764068	34.63479684639375	2.15
C 	70.0639516152994	34.738795086314994	2.15
C 	70.68197977640811	36.017247741706115	2.15
C 	72.09816633406685	36.12124598162734	2.15
C 	72.71619449517554	37.399698637018446	2.15
C 	74.13238105283428	37.50369687693969	2.15
C 	74.75040921394297	38.7821495323308	2.15
C 	76.16659577160172	38.886147772252045	2.15
C 	76.78462393271042	40.16460042764316	2.15
C 	13.543837415478599	-0.23847025617874643	2.15
C 	14.96002397313733	-0.13447201625750863	2.15
C 	15.578052134246036	1.143980639133606	2.15
C 	16.994238691904766	1.247978879054842	2.15
C 	17.61226685301347	2.526431534445957	2.15
C 	19.0284534106722	2.630429774367193	2.15
C 	19.646481571780903	3.9088824297583074	2.15
C 	21.062668129439636	4.012880669679545	2.15
C 	21.68069629054834	5.291333325070659	2.15
C 	23.09688284820707	5.395331564991898	2.15
C 	23.714911009315774	6.673784220383012	2.15
C 	25.131097566974507	6.777782460304248	2.15
C 	25.74912572808321	8.056235115695365	2.15
C 	27.16531228574194	8.160233355616601	2.15
C 	27.783340446850644	9.438686011007713	2.15
C 	29.199527004509378	9.542684250928954	2.15
C 	29.81755516561808	10.821136906320065	2.15
C 	31.23374172327681	10.925135146241304	2.15
C 	31.85176988438552	12.203587801632422	2.15
C 	33.267956442044245	12.307586041553655	2.15
C 	33.88598460315295	13.586038696944767	2.15
C 	35.30217116081168	13.69003693686601	2.15
C 	35.920199321920386	14.968489592257123	2.15
C 	37.33638587957912	15.072487832178357	2.15
C 	37.95441404068782	16.35094048756947	2.15
C 	39.37060059834655	16.45493872749071	2.15
C 	39.98862875945526	17.733391382881823	2.15
C 	41.404815317113986	17.837389622803062	2.15
C 	42.02284347822269	19.115842278194172	2.15
C 	43.43903003588142	19.219840518115408	2.15
C 	44.05705819699013	20.498293173506525	2.15
C 	45.47324475464886	20.602291413427768	2.15
C 	46.091272915757564	21.880744068818878	2.15
C 	47.50745947341629	21.984742308740117	2.15
C 	48.125487634524994	23.263194964131227	2.15
C 	49.54167419218373	23.367193204052462	2.15
C 	50.15970235329244	24.64564585944358	2.15
C 	51.57588891095117	24.749644099364822	2.15
C 	52.193917072059875	26.028096754755932	2.15
C 	53.6101036297186	26.13209499467717	2.15
C 	54.228131790827305	27.41054765006828	2.15
C 	55.64431834848603	27.51454588998952	2.15
C 	56.262346509594735	28.792998545380634	2.15
C 	57.678533067253476	28.896996785301877	2.15
C 	58.29656122836218	30.175449440692987	2.15
C 	59.7127477860209	30.27944768061423	2.15
C 	60.3307759471296	31.55790033600534	2.15
C 	61.74696250478834	31.661898575926575	2.15
C 	62.36499066589705	32.94035123131769	2.15
C 	63.78117722355577	33.04434947123894	2.15
C 	64.39920538466447	34.322802126630044	2.15
C 	65.81539194232322	34.426800366551284	2.15
C 	66.43342010343191	35.70525302194239	2.15
C 	67.84960666109065	35.80925126186363	2.15
C 	68.46763482219934	37.087703917254736	2.15
C 	69.88382137985809	37.19170215717599	2.15
C 	70.50184954096679	38.47015481256711	2.15
C 	71.91803609862552	38.574153052488334	2.15
C 	72.53606425973423	39.852605707879455	2.15
C 	73.95225081739295	39.95660394780069	2.15
C 	74.57027897850166	41.2350566031918	2.15
C 	75.9864655361604	41.33905484311305	2.15
C 	76.60449369726909	42.61750749850416	2.15
C 	78.02068025492783	42.72150573842539	2.15
C 	78.63870841603654	43.99995839381651	2.15
C 	80.05489497369526	44.10395663373774	2.15
C 	80.67292313480397	45.38240928912886	2.15
C 	9.295277742502408	-0.550464975942456	2.15
C 	10.711464300161138	-0.44646673602122033	2.15
C 	11.329492461269842	0.8319859193698943	2.15
C 	12.745679018928575	0.9359841592911312	2.15
C 	13.363707180037279	2.2144368146822457	2.15
C 	14.77989373769601	2.3184350546034826	2.15
C 	15.397921898804716	3.596887709994599	2.15
C 	16.814108456463444	3.7008859499158335	2.15
C 	17.43213661757215	4.97933860530695	2.15
C 	18.84832317523088	5.083336845228184	2.15
C 	19.466351336339585	6.361789500619301	2.15
C 	20.882537893998315	6.465787740540535	2.15
C 	21.50056605510702	7.7442403959316515	2.15
C 	22.91675261276575	7.84823863585289	2.15
C 	23.534780773874456	9.126691291244006	2.15
C 	24.950967331533185	9.230689531165241	2.15
C 	25.568995492641893	10.509142186556357	2.15
C 	26.98518205030062	10.61314042647759	2.15
C 	27.603210211409326	11.891593081868706	2.15
C 	29.019396769068056	11.995591321789945	2.15
C 	29.637424930176763	13.274043977181062	2.15
C 	31.05361148783549	13.378042217102296	2.15
C 	31.671639648944197	14.656494872493411	2.15
C 	33.08782620660293	14.760493112414647	2.15
C 	33.70585436771163	16.038945767805764	2.15
C 	35.122040925370364	16.142944007727	2.15
C 	35.74006908647907	17.421396663118117	2.15
C 	37.156255644137794	17.52539490303935	2.15
C 	37.774283805246505	18.803847558430466	2.15
C 	39.19047036290523	18.9078457983517	2.15
C 	39.808498524013935	20.18629845374282	2.15
C 	41.22468508167267	20.29029669366405	2.15
C 	41.84271324278137	21.568749349055167	2.15
C 	43.258899800440105	21.672747588976403	2.15
C 	43.87692796154881	22.95120024436752	2.15
C 	45.293114519207535	23.05519848428876	2.15
C 	45.911142680316246	24.333651139679873	2.15
C 	47.32732923797497	24.437649379601105	2.15
C 	47.945357399083676	25.716102034992222	2.15
C 	49.361543956742416	25.820100274913457	2.15
C 	49.97957211785112	27.09855293030457	2.15
C 	51.395758675509846	27.202551170225814	2.15
C 	52.01378683661855	28.481003825616927	2.15
C 	53.42997339427728	28.58500206553816	2.15
C 	54.04800155538599	29.863454720929273	2.15
C 	55.46418811304471	29.967452960850515	2.15
C 	56.082216274153424	31.24590561624163	2.15
C 	57.49840283181215	31.349903856162868	2.15
C 	58.11643099292086	32.62835651155398	2.15
C 	59.53261755057959	32.732354751475214	2.15
C 	60.15064571168829	34.01080740686633	2.15
C 	61.566832269347024	34.114805646787566	2.15
C 	62.18486043045573	35.39325830217868	2.15
C 	63.60104698811446	35.497256542099926	2.15
C 	64.21907514922316	36.77570919749104	2.15
C 	65.63526170688189	36.87970743741227	2.15
C 	66.2532898679906	38.158160092803385	2.15
C 	67.66947642564934	38.26215833272461	2.15
C 	68.28750458675803	39.54061098811573	2.15
C 	69.70369114441677	39.64460922803698	2.15
C 	70.32171930552548	40.92306188342809	2.15
C 	71.73790586318421	41.02706012334932	2.15
C 	72.3559340242929	42.305512778740436	2.15
C 	73.77212058195163	42.409511018661675	2.15
C 	74.39014874306034	43.68796367405279	2.15
C 	75.80633530071908	43.79196191397403	2.15
C 	76.42436346182778	45.07041456936515	2.15
C 	77.8405500194865	45.17441280928638	2.15
C 	78.45857818059521	46.452865464677494	2.15
C 	79.87476473825394	46.556863704598726	2.15
C 	5.046718069526216	-0.8624596957061671	2.15
C 	6.4629046271849475	-0.7584614557849305	2.15
C 	7.080932788293652	0.5199911996061841	2.15
C 	8.497119345952383	0.623989439527421	2.15
C 	9.115147507061087	1.9024420949185357	2.15
C 	10.531334064719818	2.0064403348397724	2.15
C 	11.149362225828522	3.2848929902308868	2.15
C 	12.565548783487253	3.388891230152124	2.15
C 	13.183576944595957	4.6673438855432385	2.15
C 	14.599763502254689	4.771342125464477	2.15
C 	15.217791663363393	6.049794780855591	2.15
C 	16.633978221022122	6.153793020776828	2.15
C 	17.25200638213083	7.432245676167942	2.15
C 	18.66819293978956	7.5362439160891785	2.15
C 	19.286221100898263	8.814696571480292	2.15
C 	20.702407658556993	8.918694811401531	2.15
C 	21.320435819665697	10.197147466792643	2.15
C 	22.73662237732443	10.301145706713884	2.15
C 	23.354650538433134	11.579598362104997	2.15
C 	24.770837096091864	11.683596602026231	2.15
C 	25.38886525720057	12.962049257417348	2.15
C 	26.8050518148593	13.066047497338586	2.15
C 	27.423079975968005	14.3445001527297	2.15
C 	28.839266533626738	14.448498392650938	2.15
C 	29.45729469473544	15.726951048042052	2.15
C 	30.87348125239417	15.830949287963287	2.15
C 	31.491509413502875	17.109401943354403	2.15
C 	32.90769597116161	17.213400183275642	2.15
C 	33.52572413227031	18.491852838666755	2.15
C 	34.941910689929045	18.595851078587994	2.15
C 	35.55993885103775	19.87430373397911	2.15
C 	36.976125408696475	19.978301973900344	2.15
C 	37.59415356980518	21.256754629291457	2.15
C 	39.01034012746391	21.360752869212696	2.15
C 	39.62836828857262	22.639205524603806	2.15
C 	41.04455484623135	22.743203764525045	2.15
C 	41.66258300734005	24.02165641991615	2.15
C 	43.07876956499878	24.125654659837398	2.15
C 	43.69679772610749	25.404107315228515	2.15
C 	45.11298428376622	25.50810555514975	2.15
C 	45.73101244487492	26.78655821054086	2.15
C 	47.147199002533654	26.8905564504621	2.15
C 	47.76522716364236	28.16900910585321	2.15
C 	49.18141372130109	28.273007345774452	2.15
C 	49.799441882409795	29.551460001165566	2.15
C 	51.215628440068535	29.655458241086805	2.15
C 	51.83365660117723	30.933910896477915	2.15
C 	53.24984315883596	31.037909136399154	2.15
C 	53.86787131994466	32.316361791790264	2.15
C 	55.28405787760339	32.42036003171151	2.15
C 	55.9020860387121	33.698812687102624	2.15
C 	57.31827259637083	33.80281092702386	2.15
C 	57.936300757479536	35.08126358241497	2.15
C 	59.35248731513826	35.18526182233621	2.15
C 	59.970515476246966	36.46371447772732	2.15
C 	61.386702033905706	36.56771271764856	2.15
C 	62.00473019501441	37.84616537303968	2.15
C 	63.420916752673136	37.95016361296092	2.15
C 	64.03894491378183	39.22861626835203	2.15
C 	65.45513147144057	39.33261450827327	2.15
C 	66.07315963254928	40.61106716366437	2.15
C 	67.489346190208	40.715065403585605	2.15
C 	68.10737435131671	41.993518058976726	2.15
C 	69.52356090897544	42.097516298897965	2.15
C 	70.14158907008415	43.37596895428908	2.15
C 	71.55777562774287	43.47996719421031	2.15
C 	72.17580378885158	44.75841984960143	2.15
C 	73.59199034651031	44.86241808952266	2.15
C 	74.21001850761901	46.14087074491378	2.15
C 	75.62620506527774	46.24486898483502	2.15
C 	2.8323731153174605	0.20799647984247377	2.15
C 	4.248559672976191	0.3119947197637105	2.15
C 	4.866587834084896	1.5904473751548251	2.15
C 	6.282774391743627	1.694445615076062	2.15
C 	6.900802552852332	2.9728982704671765	2.15
C 	8.316989110511061	3.076896510388414	2.15
C 	8.935017271619767	4.355349165779528	2.15
C 	10.351203829278496	4.459347405700766	2.15
C 	10.9692319903872	5.737800061091878	2.15
C 	12.385418548045932	5.841798301013116	2.15
C 	13.003446709154638	7.120250956404232	2.15
C 	14.419633266813369	7.224249196325469	2.15
C 	15.037661427922073	8.502701851716582	2.15
C 	16.453847985580804	8.606700091637821	2.15
C 	17.071876146689508	9.885152747028933	2.15
C 	18.488062704348238	9.989150986950172	2.15
C 	19.10609086545694	11.267603642341284	2.15
C 	20.522277423115675	11.371601882262523	2.15
C 	21.14030558422438	12.650054537653634	2.15
C 	22.55649214188311	12.754052777574875	2.15
C 	23.174520302991812	14.032505432965989	2.15
C 	24.590706860650545	14.136503672887226	2.15
C 	25.20873502175925	15.414956328278338	2.15
C 	26.62492157941798	15.518954568199577	2.15
C 	27.242949740526686	16.79740722359069	2.15
C 	28.659136298185416	16.90140546351193	2.15
C 	29.27716445929412	18.179858118903045	2.15
C 	30.693351016952853	18.28385635882428	2.15
C 	31.311379178061557	19.562309014215394	2.15
C 	32.72756573572028	19.666307254136633	2.15
C 	33.345593896828994	20.944759909527747	2.15
C 	34.76178045448772	21.048758149448982	2.15
C 	35.379808615596424	22.3272108048401	2.15
C 	36.79599517325516	22.43120904476133	2.15
C 	37.41402333436386	23.70966170015245	2.15
C 	38.830209892022594	23.813659940073684	2.15
C 	39.4482380531313	25.0921125954648	2.15
C 	40.864424610790024	25.196110835386033	2.15
C 	41.48245277189873	26.47456349077715	2.15
C 	42.89863932955746	26.578561730698386	2.15
C 	43.516667490666165	27.857014386089503	2.15
C 	44.9328540483249	27.961012626010742	2.15
C 	45.5508822094336	29.239465281401856	2.15
C 	46.96706876709233	29.343463521323088	2.15
C 	47.58509692820103	30.621916176714205	2.15
C 	49.00128348585977	30.72591441663544	2.15
C 	49.61931164696848	32.004367072026554	2.15
C 	51.0354982046272	32.10836531194779	2.15
C 	51.653526365735914	33.38681796733891	2.15
C 	53.06971292339464	33.49081620726014	2.15
C 	53.68774108450335	34.76926886265126	2.15
C 	55.10392764216208	34.8732671025725	2.15
C 	55.72195580327078	36.15171975796361	2.15
C 	57.138142360929514	36.25571799788485	2.15
C 	57.75617052203822	37.534170653275964	2.15
C 	59.172357079696944	37.6381688931972	2.15
C 	59.79038524080565	38.91662154858832	2.15
C 	61.20657179846438	39.02061978850955	2.15
C 	61.824599959573085	40.29907244390067	2.15
C 	63.24078651723182	40.4030706838219	2.15
C 	63.85881467834053	41.68152333921303	2.15
C 	65.27500123599926	41.785521579134254	2.15
C 	65.89302939710797	43.063974234525375	2.15
C 	67.3092159547667	43.16797247444661	2.15
C 	67.9272441158754	44.44642512983772	2.15
C 	69.34343067353413	44.55042336975897	2.15
C 	69.96145883464283	45.82887602515008	2.15
C 	71.37764539230157	45.93287426507131	2.15
C 	2.0342147187674353	1.3824508953123515	2.15
C 	2.6522428798761406	2.660903550703466	2.15
C 	4.068429437534871	2.764901790624703	2.15
C 	4.6864575986435755	4.043354446015817	2.15
C 	6.102644156302306	4.147352685937054	2.15
C 	6.720672317411012	5.425805341328169	2.15
C 	8.136858875069741	5.529803581249406	2.15
C 	8.754887036178447	6.808256236640521	2.15
C 	10.171073593837177	6.912254476561756	2.15
C 	10.78910175494588	8.190707131952871	2.15
C 	12.205288312604612	8.294705371874109	2.15
C 	12.823316473713318	9.573158027265222	2.15
C 	14.239503031372049	9.677156267186461	2.15
C 	14.857531192480753	10.955608922577575	2.15
C 	16.273717750139483	11.059607162498812	2.15
C 	16.89174591124819	12.338059817889928	2.15
C 	18.30793246890692	12.442058057811163	2.15
C 	18.925960630015624	13.720510713202275	2.15
C 	20.342147187674353	13.824508953123512	2.15
C 	20.960175348783057	15.10296160851463	2.15
C 	22.37636190644179	15.206959848435867	2.15
C 	22.994390067550494	16.485412503826982	2.15
C 	24.410576625209224	16.589410743748218	2.15
C 	25.02860478631793	17.86786339913933	2.15
C 	26.44479134397666	17.971861639060567	2.15
C 	27.062819505085365	19.250314294451684	2.15
C 	28.479006062744098	19.354312534372923	2.15
C 	29.097034223852802	20.63276518976404	2.15
C 	30.51322078151153	20.736763429685272	2.15
C 	31.131248942620235	22.015216085076386	2.15
C 	32.547435500278965	22.119214324997625	2.15
C 	33.16546366138767	23.39766698038874	2.15
C 	34.5816502190464	23.501665220309977	2.15
C 	35.199678380155106	24.780117875701094	2.15
C 	36.61586493781384	24.884116115622327	2.15
C 	37.23389309892254	26.16256877101344	2.15
C 	38.65007965658127	26.26656701093468	2.15
C 	39.26810781768998	27.545019666325796	2.15
C 	40.684294375348706	27.649017906247025	2.15
C 	41.30232253645741	28.927470561638142	2.15
C 	42.71850909411614	29.03146880155938	2.15
C 	43.33653725522485	30.309921456950498	2.15
C 	44.75272381288358	30.413919696871734	2.15
C 	45.370751973992284	31.69237235226285	2.15
C 	46.78693853165101	31.796370592184083	2.15
C 	47.404966692759714	33.074823247575196	2.15
C 	48.82115325041845	33.178821487496435	2.15
C 	49.43918141152716	34.45727414288755	2.15
C 	50.855367969185885	34.56127238280879	2.15
C 	51.473396130294596	35.83972503819991	2.15
C 	52.88958268795332	35.94372327812113	2.15
C 	53.507610849062026	37.222175933512254	2.15
C 	54.92379740672075	37.32617417343349	2.15
C 	55.541825567829456	38.60462682882461	2.15
C 	56.958012125488196	38.708625068745846	2.15
C 	57.5760402865969	39.98707772413696	2.15
C 	58.99222684425562	40.09107596405819	2.15
C 	59.61025500536432	41.36952861944931	2.15
C 	61.02644156302306	41.473526859370544	2.15
C 	61.64446972413177	42.75197951476166	2.15
C 	63.06065628179049	42.8559777546829	2.15
C 	63.6786844428992	44.13443041007402	2.15
C 	65.09487100055793	44.23842864999525	2.15
C 	65.71289916166664	45.51688130538636	2.15
C 	67.12908571932536	45.620879545307595	2.15
C 	3.8882992020935503	5.217808861485695	2.15
C 	4.506327363202256	6.496261516876809	2.15
C 	5.922513920860986	6.600259756798047	2.15
C 	6.540542081969692	7.878712412189161	2.15
C 	7.956728639628421	7.982710652110397	2.15
C 	8.574756800737127	9.261163307501514	2.15
C 	9.990943358395857	9.365161547422748	2.15
C 	10.608971519504562	10.643614202813865	2.15
C 	12.025158077163294	10.747612442735102	2.15
C 	12.643186238271998	12.026065098126214	2.15
C 	14.059372795930727	12.130063338047453	2.15
C 	14.677400957039433	13.408515993438568	2.15
C 	16.093587514698164	13.512514233359804	2.15
C 	16.71161567580687	14.79096688875092	2.15
C 	18.127802233465598	14.894965128672153	2.15
C 	18.745830394574302	16.17341778406327	2.15
C 	20.16201695223303	16.277416023984504	2.15
C 	20.78004511334174	17.55586867937562	2.15
C 	22.19623167100047	17.65986691929686	2.15
C 	22.814259832109176	18.938319574687974	2.15
C 	24.230446389767906	19.04231781460921	2.15
C 	24.84847455087661	20.320770470000326	2.15
C 	26.26466110853534	20.42476870992156	2.15
C 	26.882689269644047	21.703221365312675	2.15
C 	28.298875827302776	21.807219605233914	2.15
C 	28.91690398841148	23.085672260625024	2.15
C 	30.33309054607021	23.189670500546264	2.15
C 	30.951118707178917	24.46812315593738	2.15
C 	32.36730526483765	24.57212139585862	2.15
C 	32.98533342594635	25.85057405124973	2.15
C 	34.401519983605084	25.954572291170972	2.15
C 	35.01954814471379	27.233024946562082	2.15
C 	36.435734702372514	27.33702318648332	2.15
C 	37.05376286348122	28.61547584187443	2.15
C 	38.46994942113995	28.719474081795674	2.15
C 	39.087977582248655	29.997926737186784	2.15
C 	40.50416413990739	30.101924977108023	2.15
C 	41.12219230101609	31.380377632499133	2.15
C 	42.538378858674825	31.484375872420376	2.15
C 	43.15640701978352	32.762828527811486	2.15
C 	44.57259357744226	32.86682676773273	2.15
C 	45.19062173855096	34.14527942312384	2.15
C 	46.60680829620969	34.24927766304508	2.15
C 	47.224836457318396	35.527730318436184	2.15
C 	48.64102301497713	35.63172855835743	2.15
C 	49.25905117608583	36.91018121374854	2.15
C 	50.67523773374457	37.01417945366978	2.15
C 	51.29326589485327	38.29263210906089	2.15
C 	52.709452452512004	38.39663034898213	2.15
C 	53.32748061362071	39.67508300437324	2.15
C 	54.743667171279434	39.77908124429449	2.15
C 	55.36169533238814	41.057533899685595	2.15
C 	56.77788189004687	41.16153213960684	2.15
C 	57.395910051155575	42.43998479499795	2.15
C 	58.8120966088143	42.54398303491919	2.15
C 	59.430124769923005	43.8224356903103	2.15
C 	60.84631132758174	43.92643393023154	2.15
C 	61.46433948869044	45.20488658562266	2.15
C 	62.88052604634917	45.30888482554389	2.15
C 	63.49855420745788	46.587337480935005	2.15
C 	64.9147407651166	46.69133572085624	2.15
C 	5.742383685419665	9.053166827659037	2.15
C 	6.360411846528371	10.331619483050154	2.15
C 	7.776598404187101	10.43561772297139	2.15
C 	8.394626565295805	11.714070378362505	2.15
C 	9.810813122954535	11.818068618283741	2.15
C 	10.42884128406324	13.096521273674856	2.15
C 	11.845027841721972	13.200519513596094	2.15
C 	12.463056002830678	14.478972168987209	2.15
C 	13.87924256048941	14.582970408908446	2.15
C 	14.497270721598113	15.86142306429956	2.15
C 	15.913457279256843	15.965421304220794	2.15
C 	16.531485440365547	17.24387395961191	2.15
C 	17.94767199802428	17.34787219953315	2.15
C 	18.565700159132984	18.626324854924263	2.15
C 	19.981886716791713	18.730323094845495	2.15
C 	20.599914877900417	20.008775750236612	2.15
C 	22.016101435559147	20.11277399015785	2.15
C 	22.634129596667854	21.391226645548965	2.15
C 	24.050316154326588	21.495224885470204	2.15
C 	24.66834431543529	22.773677540861318	2.15
C 	26.08453087309402	22.87767578078255	2.15
C 	26.702559034202725	24.156128436173667	2.15
C 	28.118745591861455	24.260126676094906	2.15
C 	28.736773752970162	25.53857933148602	2.15
C 	30.15296031062889	25.64257757140726	2.15
C 	30.770988471737596	26.92103022679837	2.15
C 	32.18717502939633	27.025028466719608	2.15
C 	32.80520319050503	28.303481122110725	2.15
C 	34.22138974816376	28.40747936203196	2.15
C 	34.83941790927247	29.685932017423077	2.15
C 	36.255604466931196	29.789930257344306	2.15
C 	36.8736326280399	31.068382912735423	2.15
C 	38.28981918569863	31.172381152656662	2.15
C 	38.90784734680734	32.450833808047776	2.15
C 	40.32403390446606	32.55483204796901	2.15
C 	40.94206206557477	33.83328470336013	2.15
C 	42.3582486232335	33.93728294328137	2.15
C 	42.976276784342204	35.21573559867248	2.15
C 	44.39246334200094	35.31973383859372	2.15
C 	45.01049150310964	36.598186493984834	2.15
C 	46.42667806076837	36.702184733906066	2.15
C 	47.04470622187708	37.98063738929718	2.15
C 	48.46089277953581	38.08463562921842	2.15
C 	49.078920940644515	39.36308828460953	2.15
C 	50.49510749830325	39.46708652453077	2.15
C 	51.11313565941195	40.745539179921884	2.15
C 	52.52932221707068	40.84953741984312	2.15
C 	53.14735037817938	42.12799007523424	2.15
C 	54.563536935838115	42.231988315155476	2.15
C 	55.18156509694682	43.51044097054659	2.15
C 	56.59775165460555	43.61443921046783	2.15
C 	57.21577981571426	44.892891865858935	2.15
C 	58.63196637337298	44.99689010578018	2.15
C 	59.24999453448169	46.27534276117129	2.15
C 	60.66618109214042	46.37934100109253	2.15
C 	7.596468168745781	12.888524793832383	2.15
C 	8.214496329854486	14.166977449223497	2.15
C 	9.630682887513215	14.270975689144734	2.15
C 	10.248711048621919	15.549428344535848	2.15
C 	11.664897606280652	15.653426584457085	2.15
C 	12.282925767389358	16.9318792398482	2.15
C 	13.699112325048088	17.03587747976944	2.15
C 	14.317140486156791	18.314330135160553	2.15
C 	15.733327043815523	18.41832837508179	2.15
C 	16.351355204924225	19.696781030472902	2.15
C 	17.767541762582958	19.80077927039414	2.15
C 	18.385569923691662	21.079231925785255	2.15
C 	19.80175648135039	21.18323016570649	2.15
C 	20.419784642459096	22.461682821097604	2.15
C 	21.83597120011783	22.565681061018847	2.15
C 	22.453999361226533	23.84413371640996	2.15
C 	23.870185918885266	23.948131956331196	2.15
C 	24.48821407999397	25.226584611722306	2.15
C 	25.9044006376527	25.330582851643545	2.15
C 	26.522428798761407	26.609035507034662	2.15
C 	27.938615356420136	26.713033746955897	2.15
C 	28.556643517528844	27.991486402347014	2.15
C 	29.97283007518757	28.095484642268246	2.15
C 	30.590858236296278	29.373937297659364	2.15
C 	32.007044793955004	29.4779355375806	2.15
C 	32.625072955063715	30.756388192971716	2.15
C 	34.04125951272244	30.860386432892955	2.15
C 	34.65928767383115	32.13883908828407	2.15
C 	36.07547423148988	32.242837328205304	2.15
C 	36.69350239259858	33.52128998359642	2.15
C 	38.109688950257315	33.62528822351766	2.15
C 	38.72771711136602	34.90374087890877	2.15
C 	40.143903669024745	35.00773911883	2.15
C 	40.76193183013345	36.28619177422112	2.15
C 	42.17811838779218	36.390190014142355	2.15
C 	42.796146548900886	37.668642669533476	2.15
C 	44.21233310655962	37.772640909454715	2.15
C 	44.83036126766832	39.05109356484583	2.15
C 	46.24654782532705	39.15509180476706	2.15
C 	46.86457598643576	40.433544460158174	2.15
C 	48.28076254409449	40.53754270007941	2.15
C 	48.8987907052032	41.81599535547053	2.15
C 	50.31497726286193	41.919993595391766	2.15
C 	50.933005423970634	43.19844625078288	2.15
C 	52.34919198162936	43.30244449070411	2.15
C 	52.967220142738064	44.58089714609523	2.15
C 	54.38340670039679	44.68489538601647	2.15
C 	55.001434861505494	45.96334804140758	2.15
C 	56.417621419164234	46.067346281328824	2.15
C 	9.450552652071895	16.723882760005726	2.15
C 	10.0685808131806	18.00233541539684	2.15
C 	11.48476737083933	18.106333655318075	2.15
C 	12.102795531948036	19.384786310709192	2.15
C 	13.518982089606768	19.48878455063043	2.15
C 	14.137010250715473	20.767237206021544	2.15
C 	15.553196808374201	20.87123544594278	2.15
C 	16.171224969482907	22.149688101333894	2.15
C 	17.587411527141636	22.253686341255133	2.15
C 	18.205439688250344	23.532138996646246	2.15
C 	19.62162624590907	23.636137236567482	2.15
C 	20.239654407017778	24.914589891958595	2.15
C 	21.655840964676507	25.018588131879838	2.15
C 	22.27386912578521	26.297040787270948	2.15
C 	23.690055683443944	26.401039027192187	2.15
C 	24.30808384455265	27.6794916825833	2.15
C 	25.724270402211378	27.783489922504533	2.15
C 	26.342298563320085	29.06194257789565	2.15
C 	27.75848512097882	29.165940817816892	2.15
C 	28.376513282087522	30.444393473208002	2.15
C 	29.792699839746252	30.54839171312924	2.15
C 	30.410728000854956	31.82684436852036	2.15
C 	31.826914558513685	31.930842608441587	2.15
C 	32.44494271962239	33.20929526383271	2.15
C 	33.86112927728112	33.31329350375395	2.15
C 	34.47915743838983	34.59174615914506	2.15
C 	35.89534399604856	34.6957443990663	2.15
C 	36.51337215715726	35.974197054457406	2.15
C 	37.92955871481599	36.078195294378645	2.15
C 	38.547586875924694	37.35664794976976	2.15
C 	39.96377343358343	37.46064618969099	2.15
C 	40.58180159469213	38.73909884508211	2.15
C 	41.997988152350864	38.84309708500335	2.15
C 	42.61601631345957	40.121549740394464	2.15
C 	44.032202871118294	40.2255479803157	2.15
C 	44.650231032227005	41.50400063570682	2.15
C 	46.06641758988573	41.60799887562805	2.15
C 	46.684445750994435	42.88645153101916	2.15
C 	48.100632308653175	42.99044977094041	2.15
C 	48.71866046976187	44.268902426331515	2.15
C 	50.134847027420605	44.372900666252754	2.15
C 	50.75287518852931	45.65135332164387	2.15
C 	52.16906174618804	45.7553515615651	2.15
C 	13.338851854165446	21.941691621491422	2.15
C 	13.956880015274152	23.220144276882536	2.15
C 	15.373066572932881	23.32414251680377	2.15
C 	15.991094734041587	24.60259517219489	2.15
C 	17.407281291700315	24.706593412116124	2.15
C 	18.025309452809022	25.985046067507234	2.15
C 	19.441496010467752	26.089044307428473	2.15
C 	20.059524171576456	27.36749696281959	2.15
C 	21.47571072923519	27.471495202740826	2.15
C 	22.093738890343893	28.749947858131943	2.15
C 	23.509925448002623	28.853946098053175	2.15
C 	24.127953609111326	30.132398753444292	2.15
C 	25.54414016677006	30.236396993365528	2.15
C 	26.162168327878767	31.514849648756645	2.15
C 	27.578354885537497	31.61884788867788	2.15
C 	28.1963830466462	32.897300544069	2.15
C 	29.61256960430493	33.00129878399023	2.15
C 	30.230597765413634	34.27975143938134	2.15
C 	31.646784323072364	34.38374967930258	2.15
C 	32.26481248418107	35.6622023346937	2.15
C 	33.680999041839804	35.766200574614935	2.15
C 	34.29902720294851	37.044653230006055	2.15
C 	35.715213760607234	37.14865146992729	2.15
C 	36.33324192171594	38.4271041253184	2.15
C 	37.74942847937467	38.53110236523964	2.15
C 	38.367456640483375	39.809555020630754	2.15
C 	39.7836431981421	39.913553260551986	2.15
C 	40.40167135925081	41.192005915943106	2.15
C 	41.81785791690954	41.29600415586434	2.15
C 	42.43588607801825	42.57445681125546	2.15
C 	43.852072635676976	42.6784550511767	2.15
C 	44.47010079678568	43.95690770656781	2.15
C 	45.88628735444441	44.060905946489044	2.15
C 	46.50431551555312	45.33935860188016	2.15
C 	47.92050207321185	45.443356841801396	2.15
C 	48.538530234320554	46.72180949719251	2.15
C 	49.95471679197929	46.82580773711375	2.15
C 	15.192936337491561	25.777049587664767	2.15
C 	15.810964498600265	27.05550224305588	2.15
C 	17.227151056258997	27.159500482977116	2.15
C 	17.8451792173677	28.43795313836823	2.15
C 	19.26136577502643	28.54195137828947	2.15
C 	19.879393936135138	29.820404033680585	2.15
C 	21.295580493793867	29.92440227360182	2.15
C 	21.91360865490257	31.20285492899293	2.15
C 	23.329795212561304	31.30685316891417	2.15
C 	23.94782337367001	32.58530582430529	2.15
C 	25.364009931328738	32.689304064226526	2.15
C 	25.982038092437445	33.96775671961764	2.15
C 	27.398224650096175	34.07175495953888	2.15
C 	28.01625281120488	35.350207614929985	2.15
C 	29.43243936886361	35.454205854851224	2.15
C 	30.050467529972316	36.73265851024234	2.15
C 	31.466654087631046	36.83665675016358	2.15
C 	32.08468224873975	38.1151094055547	2.15
C 	33.50086880639848	38.21910764547593	2.15
C 	34.11889696750718	39.49756030086704	2.15
C 	35.535083525165916	39.60155854078828	2.15
C 	36.15311168627462	40.88001119617939	2.15
C 	37.56929824393335	40.984009436100635	2.15
C 	38.18732640504206	42.26246209149175	2.15
C 	39.60351296270078	42.36646033141298	2.15
C 	40.22154112380949	43.6449129868041	2.15
C 	41.63772768146822	43.74891122672533	2.15
C 	42.255755842576924	45.02736388211645	2.15
C 	43.67194240023566	45.13136212203769	2.15
C 	44.28997056134436	46.40981477742881	2.15
C 	45.706157119003095	46.51381301735004	2.15
C 	17.047020820817675	29.61240755383811	2.15
C 	17.665048981926383	30.890860209229224	2.15
C 	19.08123553958511	30.994858449150456	2.15
C 	19.699263700693816	32.27331110454157	2.15
C 	21.11545025835255	32.377309344462816	2.15
C 	21.733478419461253	33.65576199985393	2.15
C 	23.149664977119983	33.75976023977516	2.15
C 	23.76769313822869	35.03821289516628	2.15
C 	25.183879695887416	35.142211135087514	2.15
C 	25.801907856996124	36.42066379047863	2.15
C 	27.218094414654857	36.524662030399874	2.15
C 	27.83612257576356	37.80311468579098	2.15
C 	29.25230913342229	37.90711292571222	2.15
C 	29.870337294530994	39.18556558110333	2.15
C 	31.286523852189724	39.289563821024565	2.15
C 	31.904552013298428	40.568016476415686	2.15
C 	33.32073857095716	40.672014716336925	2.15
C 	33.938766732065865	41.95046737172804	2.15
C 	35.3549532897246	42.05446561164928	2.15
C 	35.972981450833295	43.332918267040384	2.15
C 	37.38916800849203	43.43691650696162	2.15
C 	38.00719616960073	44.71536916235274	2.15
C 	39.423382727259465	44.81936740227397	2.15
C 	40.04141088836817	46.09782005766509	2.15
C 	41.4575974460269	46.20181829758633	2.15
C 	20.935320022911228	34.830216415323804	2.15
C 	21.55334818401993	36.108669070714924	2.15
C 	22.96953474167866	36.21266731063615	2.15
C 	23.58756290278737	37.49111996602727	2.15
C 	25.003749460446098	37.59511820594851	2.15
C 	25.621777621554806	38.87357086133962	2.15
C 	27.037964179213535	38.97756910126086	2.15
C 	27.65599234032224	40.256021756651975	2.15
C 	29.07217889798097	40.36001999657321	2.15
C 	29.690207059089673	41.63847265196432	2.15
C 	31.106393616748402	41.74247089188556	2.15
C 	31.72442177785711	43.02092354727668	2.15
C 	33.14060833551584	43.12492178719791	2.15
C 	33.75863649662455	44.40337444258903	2.15
C 	35.17482305428327	44.507372682510265	2.15
C 	35.79285121539198	45.78582533790138	2.15
C 	37.20903777305071	45.88982357782262	2.15
C 	22.789404506237343	38.665574381497144	2.15
C 	23.407432667346047	39.94402703688826	2.15
C 	24.82361922500478	40.0480252768095	2.15
C 	25.44164738611348	41.32647793220061	2.15
C 	26.857833943772214	41.43047617212185	2.15
C 	27.475862104880918	42.70892882751296	2.15
C 	28.892048662539647	42.8129270674342	2.15
C 	29.51007682364835	44.09137972282531	2.15
C 	30.926263381307084	44.195377962746555	2.15
C 	31.544291542415788	45.47383061813767	2.15
C 	32.96047810007452	45.5778288580589	2.15
C 	24.64348898956346	42.50093234767049	2.15
C 	25.261517150672162	43.779385003061606	2.15
C 	26.677703708330892	43.883383242982845	2.15
C 	27.2957318694396	45.16183589837396	2.15
C 	28.71191842709833	45.2658341382952	2.15
C 	29.329946588207036	46.54428679368631	2.15
C 	30.746133145865763	46.64828503360754	2.15
H 	51.486602809389794	-0.8647723099947288	2.15
H 	53.989862147223185	-0.680944435204377	2.15
H 	56.02407686599064	0.701506460107969	2.15
H 	57.11650692541517	2.9613065763274715	2.15
H 	47.238043136413616	-1.1767670297584398	2.15
H 	49.74130247424699	-0.9929391549680926	2.15
H 	57.878161349316734	4.536864426281318	2.15
H 	58.970591408741285	6.796664542500828	2.15
H 	42.98948346343742	-1.4887617495221628	2.15
H 	45.49274280127081	-1.3049338747317962	2.15
H 	59.73224583264287	8.372222392454661	2.15
H 	60.824675892067404	10.632022508674165	2.15
H 	38.74092379046121	-1.8007564692858575	2.15
H 	41.24418312829462	-1.6169285944955045	2.15
H 	61.586330315968965	12.207580358628	2.15
H 	63.6205450347364	13.590031253940355	2.15
H 	64.71297509416095	15.849831370159864	2.15
H 	36.52657883625246	-0.730300293737213	2.15
H 	65.47462951806253	17.42538922011371	2.15
H 	66.56705957748706	19.685189336333227	2.15
H 	32.27801916327629	-1.0422950135009392	2.15
H 	34.781278501109675	-0.8584671387105768	2.15
H 	67.32871400138865	21.260747186287045	2.15
H 	68.42114406081318	23.520547302506547	2.15
H 	28.029459490300077	-1.3542897332646406	2.15
H 	30.532718828133486	-1.1704618584742885	2.15
H 	69.18279848471474	25.096105152460375	2.15
H 	71.2170132034822	26.478556047772752	2.15
H 	72.30944326290674	28.738356163992258	2.15
H 	23.7808998173239	-1.6662844530283567	2.15
H 	26.284159155157287	-1.4824565782380015	2.15
H 	73.07109768680832	30.313914013946086	2.15
H 	74.16352774623286	32.57371413016559	2.15
H 	19.53234014434771	-1.978279172792067	2.15
H 	22.035599482181098	-1.7944512980017122	2.15
H 	74.9251821701344	34.149271980119416	2.15
H 	76.01761222955896	36.40907209633893	2.15
H 	17.317995190138955	-0.9078229972434259	2.15
H 	76.77926665346055	37.98462994629278	2.15
H 	77.87169671288508	40.24443006251227	2.15
H 	13.069435517162761	-1.219817717007137	2.15
H 	15.572694854996154	-1.0359898422167808	2.15
H 	78.63335113678664	41.81998791246611	2.15
H 	80.66756585555406	43.20243880777846	2.15
H 	81.75999591497863	45.46223892399799	2.15
H 	8.820875844186572	-1.531812436770847	2.15
H 	11.32413518201996	-1.347984561980493	2.15
H 	77.84590729873639	47.354383290636775	2.15
H 	80.34916663656978	47.53821116542712	2.15
H 	4.572316171210377	-1.8438071565345573	2.15
H 	7.0755755090437695	-1.659979281744203	2.15
H 	73.59734762576018	47.042388570873044	2.15
H 	76.10060696359358	47.22621644566342	2.15
H 	2.357971217001623	-0.7733509809859169	2.15
H 	69.348787952784	46.73039385110935	2.15
H 	71.85204729061743	46.91422172589969	2.15
H 	0.947141938592776	1.302621260443233	2.15
H 	2.0395719980173186	3.562421376662739	2.15
H 	67.60348761764118	46.602227006136	2.15
H 	2.8012264219188907	5.137979226616578	2.15
H 	3.8936564813434327	7.397779342836081	2.15
H 	62.88588332559906	47.48885530689428	2.15
H 	65.38914266343244	47.67268318168463	2.15
H 	4.655310905245006	8.973337192789916	2.15
H 	5.747740964669551	11.233137309009429	2.15
H 	58.637323652622854	47.176860587130555	2.15
H 	61.14058299045626	47.360688461920915	2.15
H 	6.5093953885711215	12.808695158963266	2.15
H 	7.6018254479956635	15.06849527518277	2.15
H 	54.38876397964666	46.864865867366845	2.15
H 	56.89202331748008	47.04869374215721	2.15
H 	8.363479871897235	16.64405312513661	2.15
H 	9.455909931321774	18.90385324135611	2.15
H 	11.490124650089212	20.286304136668463	2.15
H 	52.64346364450389	46.73669902239349	2.15
H 	12.251779073990786	21.8618619866223	2.15
H 	13.344209133415333	24.12166210284181	2.15
H 	47.925859352461735	47.623327323151784	2.15
H 	50.42911869029513	47.80715519794214	2.15
H 	14.105863557316901	25.697219952795653	2.15
H 	15.198293616741442	27.95702006901515	2.15
H 	43.677299679485536	47.311332603388074	2.15
H 	46.180559017318934	47.49516047817843	2.15
H 	15.959948040643015	29.532577918968997	2.15
H 	17.052378100067564	31.7923780351885	2.15
H 	19.086592818834987	33.17482893050084	2.15
H 	39.42874000650935	46.999337883624364	2.15
H 	41.93199934434274	47.18316575841472	2.15
H 	19.84824724273657	34.750386780454676	2.15
H 	20.940677302161117	37.0101868966742	2.15
H 	35.180180333533144	46.687343163860646	2.15
H 	37.68343967136655	46.871171038651006	2.15
H 	21.702331726062685	38.58574474662802	2.15
H 	22.794761785487225	40.84554486284753	2.15
H 	33.43487999839036	46.55917631888729	2.15
H 	23.5564162093888	42.42110271280137	2.15
H 	24.648846268813344	44.68090282902088	2.15
H 	26.683060987580774	46.06335372433323	2.15
H 	28.717275706348218	47.445804619645585	2.15
H 	31.220535044181595	47.62963249443594	2.15
